%%MatrixMarket matrix coordinate pattern symmetric
6097 6097 7509
1 183
1 299
1 309
1 384
1 411
1 432
1 681
1 1114
1 1606
1 1817
1 2064
1 2415
1 2900
1 3456
1 4150
1 4527
1 5080
1 5278
1 5435
1 5695
1 5836
1 6054
2 4255
2 4266
2 4405
2 4559
2 4612
2 4633
2 4692
2 4714
2 4846
2 5041
2 5375
2 5456
2 5581
2 5620
2 5644
2 5653
2 5676
2 6052
2 6089
3 164
3 1611
3 3903
3 4973
3 5047
4 177
4 208
4 211
4 251
4 259
4 276
4 278
4 284
4 302
4 404
4 451
4 1098
4 1247
4 1607
4 1685
4 2361
4 2438
4 2505
4 2925
4 2954
4 3098
4 3161
4 3620
4 3647
4 3794
4 3990
4 4338
4 4358
4 4744
4 4976
4 5661
4 6051
4 6079
5 165
5 246
5 460
5 479
5 613
5 1067
5 1660
5 1688
5 2004
5 3024
5 3374
5 4205
5 4360
5 4834
5 4852
5 4871
5 5178
5 5476
6 10
6 21
6 80
6 252
6 276
6 364
6 392
6 422
6 443
6 661
6 849
6 1127
6 1465
6 1479
6 1707
6 1820
6 1978
6 2325
6 2361
6 2457
6 2544
6 2703
6 2876
6 2919
6 3768
6 3971
6 3981
6 4026
6 4281
6 4369
6 4461
6 5187
6 5501
6 5509
6 5651
6 5819
7 950
7 2131
8 31
8 41
8 69
8 78
8 162
8 265
8 275
8 277
8 289
8 296
8 325
8 394
8 436
8 451
8 476
8 607
8 1145
8 2262
8 2874
8 3339
8 3744
8 3852
8 4061
8 4668
8 4915
8 5018
8 5420
8 5777
8 5845
8 6048
8 6061
8 6086
9 160
9 209
9 463
9 616
9 2286
9 4572
9 4918
10 5648
10 5780
10 5781
10 5819
10 5878
10 5947
10 5999
10 6000
10 6009
10 6054
10 6090
10 6094
11 84
11 144
11 317
11 338
11 371
11 402
11 406
11 407
11 704
11 720
11 782
11 815
11 818
11 944
11 1069
11 1696
11 1883
11 2096
11 2149
11 2534
11 2598
11 2609
11 2748
11 2962
11 3338
11 3489
11 4288
11 4316
11 4576
11 4619
11 4642
11 5452
11 5518
11 5911
12 420
13 76
13 365
13 650
13 1071
13 2448
13 2618
13 4099
13 4554
15 16
15 58
15 209
15 341
15 431
15 880
15 1592
15 2146
15 2941
15 3069
15 3532
15 4325
15 5028
15 5069
16 58
16 223
16 880
16 956
16 1592
16 1919
16 2146
16 2941
16 3069
16 3532
16 4325
16 4564
16 4993
16 5069
17 155
17 246
17 247
17 329
17 341
17 392
17 524
17 527
17 684
17 894
17 1266
17 1290
17 1519
17 1594
17 1723
17 1779
17 1953
17 2313
17 2563
17 3109
17 3696
17 3973
17 4083
17 4134
17 4214
17 4344
17 4788
17 4789
17 4872
17 4924
17 5117
17 5277
17 5330
17 5787
17 5827
18 225
18 371
18 377
18 656
18 1123
18 1388
18 1854
18 1981
18 2057
18 2084
18 2167
18 2810
18 2914
18 4090
18 4413
18 4531
18 4541
18 4629
18 4898
18 5538
18 5697
18 5753
18 5775
19 2419
19 4058
19 5236
19 5854
20 80
20 106
20 329
20 525
20 544
20 612
20 870
20 928
20 1081
20 1521
20 1591
20 1649
20 1757
20 1782
20 2017
20 2287
20 2312
20 2599
20 2608
20 2659
20 2674
20 3210
20 3578
20 3722
20 3963
20 4026
20 4451
20 4553
20 4558
20 4872
20 5100
20 5181
20 5460
20 5787
20 5959
20 6063
21 4051
21 4104
21 4171
21 4369
21 4372
21 4599
21 4694
21 4989
21 5009
21 5082
21 5206
21 5281
21 5287
21 5301
21 5335
21 5501
21 5732
21 5819
22 352
22 708
22 1037
22 1288
22 1578
22 1857
22 2122
22 2495
22 3116
22 3427
22 3935
22 3965
22 4129
22 4161
22 4180
22 4419
22 4443
22 4447
22 4890
22 5027
22 5333
23 152
23 340
23 396
23 1981
23 2652
23 3084
23 3750
23 3752
23 5005
23 5137
23 5982
24 343
24 374
24 382
24 443
24 449
24 756
24 1132
24 1504
24 1991
24 2418
24 4101
24 4212
24 4226
24 4281
24 5909
25 244
26 532
26 533
26 645
26 848
26 1662
26 1674
26 1863
26 2325
26 3100
26 3452
26 3940
26 4352
26 4598
26 4770
26 4913
26 4959
26 5083
27 76
27 107
27 205
27 343
27 349
27 397
27 431
27 468
27 475
27 1120
27 1700
27 2301
27 2375
27 2596
27 2778
27 3028
27 3041
27 3061
27 3517
27 5199
27 5498
27 5906
28 149
28 177
28 204
28 251
28 266
28 291
28 404
28 446
28 734
28 1646
28 1942
28 1970
28 2425
28 2481
28 2493
28 3021
28 3263
28 3607
28 3745
28 4358
28 4495
28 5128
28 5408
28 5434
28 5560
28 5658
28 5743
28 6024
29 51
29 348
29 438
29 480
29 1126
29 1471
29 1604
29 2273
29 2975
29 2999
29 3205
29 3290
29 3297
29 3301
29 3377
29 3480
29 4268
29 4864
29 4903
29 5108
29 5967
30 32
30 132
30 677
30 3155
30 3895
30 5480
31 69
31 184
31 275
31 277
31 541
31 1417
31 2359
31 3339
31 3590
31 3770
31 4061
31 4404
31 5018
31 5097
31 5674
31 6061
32 132
33 643
33 3721
33 5760
34 38
34 105
34 206
34 268
34 282
34 866
34 1039
34 1047
34 2027
34 2364
34 2911
34 3103
34 3133
34 3284
34 3315
34 3731
34 3854
34 4618
34 4664
34 4920
34 5763
34 6044
35 130
35 136
35 211
35 1989
35 2929
35 3857
35 5053
35 5105
35 5713
36 160
36 202
36 212
36 414
36 460
36 3626
36 5747
37 268
37 384
37 391
37 761
37 1220
37 1606
37 2410
37 3511
37 3766
37 4583
37 5643
38 184
38 206
38 404
38 446
38 478
38 515
38 736
38 1248
38 1817
38 1823
38 2158
38 2169
38 2325
38 2540
38 2685
38 2749
38 3005
38 3131
38 3147
38 3167
38 3206
38 3497
38 3835
38 4021
38 4140
38 4702
38 4774
38 4800
38 5020
38 5164
39 52
39 397
39 1890
39 2111
39 3258
39 3723
39 4040
39 4070
40 127
40 814
40 1049
40 3041
40 3640
40 4110
40 4357
40 4813
40 5858
41 69
41 325
41 567
41 601
41 2316
41 2388
41 2446
41 2791
41 3859
41 4065
41 4948
41 5575
41 5839
41 5965
42 51
42 56
42 231
42 244
42 342
42 354
42 620
42 659
42 989
42 990
42 991
42 1215
42 1271
42 2215
42 2676
42 2705
42 3022
42 3362
42 3637
42 4315
42 4347
42 4411
42 4777
42 4821
42 5079
42 5250
42 5470
42 5495
42 5808
42 5914
43 94
43 1078
43 1931
43 4715
43 5656
44 3982
44 4147
44 4165
44 4402
44 4456
44 4476
44 4545
44 4548
44 4709
44 4856
44 4913
44 5007
44 5153
44 5207
44 5299
44 5329
44 5409
44 5493
44 5587
44 5818
44 5903
45 64
45 340
45 782
45 843
45 1402
46 80
46 121
46 197
46 198
46 280
46 412
46 424
46 451
46 460
46 1830
46 2352
46 2368
46 2438
46 2593
46 2681
46 2706
46 3124
46 3475
46 3960
46 4303
46 5619
46 5780
47 404
47 504
47 834
47 1425
47 1688
47 4338
47 4655
47 4987
47 5905
48 77
48 136
48 207
48 971
48 1920
48 2435
48 2498
48 3710
48 3899
48 4044
48 4324
48 4653
48 5070
48 5473
49 314
49 366
49 1885
49 2616
49 3120
49 6083
50 320
50 480
50 767
50 1122
50 1632
50 3555
50 4567
50 5411
51 55
51 295
51 438
51 480
51 501
51 586
51 809
51 1083
51 1113
51 1126
51 1217
51 1218
51 1285
51 1415
51 1451
51 1471
51 1481
51 1544
51 1562
51 1804
51 1955
51 1959
51 2022
51 2323
51 2520
51 2800
51 3256
51 3411
51 3450
51 3548
51 3568
51 4094
51 4436
51 4500
51 4527
51 4666
51 4945
51 4997
51 5149
51 5695
51 5813
52 305
52 308
52 324
52 397
52 475
52 1217
52 1890
52 2111
52 2379
52 2792
52 3310
52 3311
52 3490
52 3911
52 5001
52 5446
52 5494
52 5755
52 6074
53 176
53 452
53 1019
53 1052
53 1810
53 2028
53 2447
53 3144
53 3445
53 3686
53 4279
53 5303
53 5594
54 78
54 138
54 162
54 197
54 364
54 572
54 584
54 605
54 1151
54 2415
54 3232
54 3848
54 4203
54 4891
54 4970
54 5767
54 5993
55 184
55 306
55 412
55 420
55 459
55 2825
56 342
56 1143
57 381
57 453
58 113
58 126
58 137
58 161
58 162
58 168
58 174
58 184
58 223
58 274
58 280
58 314
58 364
58 370
58 386
58 420
58 422
58 880
58 983
58 1392
58 1719
58 2299
58 4325
58 4561
58 4631
58 5054
60 327
60 348
60 472
60 506
60 507
60 595
60 621
60 624
60 1146
60 1191
60 1935
60 2093
60 2125
60 2352
60 2521
60 2526
60 2635
60 2771
60 3134
60 3292
60 3642
60 4377
60 5081
60 5393
60 5681
60 5707
61 62
61 164
61 298
61 455
61 553
61 1891
61 2000
61 3162
61 5369
61 5415
61 5826
62 4984
62 5093
62 5135
62 5372
62 5380
62 5400
62 5408
62 5487
62 5506
62 5571
62 5731
62 5776
62 5903
63 298
63 343
63 360
63 363
63 485
63 852
63 1429
63 2061
63 2424
63 2708
63 2994
63 3728
63 4641
63 4761
63 5847
63 6037
64 340
64 782
64 843
64 1402
64 1447
64 1800
64 1889
64 2937
64 3057
64 5482
65 149
65 1456
65 1487
65 5399
65 5573
66 206
66 369
66 2973
66 5209
67 207
67 332
67 554
67 1308
67 2126
67 2299
67 2394
67 2683
67 2735
67 3212
67 5145
68 365
68 658
68 2930
68 5071
68 5840
69 3998
69 4061
69 4065
69 4066
69 4309
69 4454
69 4561
69 4668
69 4693
69 4836
69 4837
69 4934
69 4948
69 5215
69 5420
69 5572
69 5575
69 5674
69 5800
69 5869
69 5965
69 5998
69 6086
70 80
70 97
70 210
70 227
70 584
70 874
70 1265
70 2258
70 2480
70 2531
70 3058
70 3059
70 3296
70 3298
70 3461
70 3619
70 3720
70 4220
70 4221
70 4387
70 4887
70 5051
70 5346
70 5382
70 5392
70 5989
71 126
71 161
71 174
71 191
71 223
71 269
71 327
71 370
71 386
71 424
71 479
71 507
71 798
71 825
71 1067
71 1553
71 1733
71 2958
71 3252
71 3339
71 3464
71 3466
71 3519
71 3655
71 4282
71 4709
71 4980
71 5098
72 155
72 296
72 394
72 4306
73 324
73 903
73 1305
73 2221
73 2474
73 2628
73 2665
73 3414
73 3975
73 4425
73 4615
73 4943
73 5056
73 5580
73 6012
74 78
74 162
74 193
74 855
74 1092
74 1151
74 1221
74 1357
74 1593
74 1704
74 2128
74 2270
74 2283
74 2416
74 2477
74 2583
74 3421
74 3949
74 4095
74 4482
74 4522
74 5402
74 5484
74 5839
74 5859
74 5995
75 252
75 313
75 443
76 5025
76 5043
76 5071
76 5204
76 5433
76 5486
76 5617
76 5671
76 5689
76 5887
76 6020
77 4839
77 4940
77 4952
77 5070
77 5072
77 5077
77 5219
77 5253
77 5700
77 5705
77 5719
77 5929
77 5944
77 5994
77 6053
78 4084
78 4186
78 4283
78 4491
78 4498
78 4614
78 4716
78 4778
78 4844
78 4900
78 4933
78 4974
78 5006
78 5087
78 5208
78 5249
78 5277
78 5360
78 5747
78 5966
79 129
79 144
79 216
79 231
79 342
79 415
79 1099
79 1582
79 1643
79 1702
79 2165
79 2272
79 2622
79 2624
79 3382
79 3397
79 3432
79 4108
79 4445
79 5579
79 5683
79 5842
79 5890
79 5939
79 6049
80 96
80 162
80 183
80 184
80 194
80 197
80 208
80 252
80 280
80 314
80 364
80 394
80 443
80 451
80 456
80 544
80 630
80 727
80 874
80 960
80 1210
80 1414
80 1550
80 1717
80 1782
80 1927
80 2070
80 2392
80 2440
80 2545
80 2788
80 3025
80 3120
80 3162
80 3325
80 3585
80 3732
80 4026
80 4236
80 4476
80 4616
80 4738
80 4771
80 4887
80 4934
80 4989
80 5051
80 5619
80 5801
81 86
81 2788
82 121
82 296
82 434
82 441
82 460
82 485
82 591
82 750
82 762
82 764
82 858
82 1450
82 1581
82 1654
82 1769
82 1871
82 2101
82 2356
82 2607
82 2709
82 3062
82 3759
82 3788
82 4328
82 4907
82 4921
82 5051
82 5596
82 5699
82 6036
83 512
83 4437
84 116
84 256
84 371
84 720
84 782
84 881
84 1069
84 1205
84 1701
84 1785
84 2377
84 2449
84 2468
84 2946
84 3001
84 3174
84 3240
84 3561
84 3684
84 4316
84 4411
84 4546
84 4619
84 4630
84 4642
84 4676
84 4699
84 4718
84 4935
84 5607
85 313
85 602
85 1895
85 1987
85 2055
85 2158
85 2341
85 2768
85 3192
85 3334
85 3701
85 3927
85 3939
85 4086
85 4720
85 4970
85 5244
86 5292
86 5384
86 5447
86 5568
86 5577
86 5608
86 5654
86 5667
86 5681
86 5761
86 5797
86 5884
86 5946
86 5963
86 5976
86 6038
86 6064
86 6065
86 6083
87 89
87 172
87 173
87 324
87 861
87 886
87 1020
87 1034
87 1181
87 1444
87 1474
87 1666
87 1687
87 2231
87 2412
87 2625
87 2651
87 2803
87 3015
87 3044
87 3207
87 3487
87 3741
87 4064
87 4153
87 4177
87 4299
87 4361
87 4385
87 4403
87 4811
87 4880
87 4942
87 4988
87 5014
87 5054
87 5089
87 5670
87 5830
87 5857
88 184
88 1344
88 2989
88 4480
88 4862
89 172
89 173
89 1824
89 1960
89 3102
89 5290
90 166
90 252
90 357
90 473
90 882
90 1467
90 1934
90 2602
90 2892
90 3422
90 3865
90 4606
90 4723
90 4749
90 4919
90 4953
90 5509
91 252
91 280
91 535
91 815
91 1336
91 1435
91 1894
91 1901
91 2903
91 3101
91 3495
91 3676
91 3984
91 4420
91 4955
91 5017
91 5509
92 140
92 177
92 356
92 1461
92 2094
92 5508
93 231
93 609
93 2989
93 3408
93 4556
93 4885
93 4992
93 5374
94 342
94 549
94 1555
94 1572
94 2011
94 2179
94 2268
94 2586
94 2656
94 3308
94 3758
94 4136
94 4705
94 5373
94 5462
94 6077
95 196
95 272
95 285
95 365
95 388
95 718
95 741
95 946
95 1013
95 1286
95 2369
95 2374
95 2448
95 3228
95 3369
95 4315
95 4529
95 4634
95 4809
95 5290
95 5554
95 5733
96 184
96 365
96 448
96 726
96 908
96 1131
96 1668
96 1669
96 1843
96 2179
96 2465
96 2524
96 2748
96 3120
96 3303
96 3660
96 3861
96 4112
96 4155
96 4562
96 4616
96 4640
96 4729
96 4842
96 4894
96 5138
96 5475
96 5793
97 137
97 246
97 280
97 405
97 479
97 535
97 714
97 988
97 1055
97 1277
97 1339
97 1534
97 1671
97 1693
97 1765
97 2172
97 2266
97 2352
97 2424
97 2531
97 3815
97 4031
97 4177
97 4459
97 5417
97 5463
97 5820
98 442
98 466
98 1050
98 3009
98 3045
98 3097
98 3159
98 3912
98 4334
98 4518
98 5135
98 5545
98 5549
98 5557
98 5561
98 5826
98 6001
98 6018
99 156
99 348
99 441
99 485
99 1292
99 2273
99 2500
99 2546
99 2559
99 2642
99 2999
99 3136
99 3146
99 3543
99 3693
99 3711
99 3838
99 3892
99 4362
99 4407
99 4650
99 5873
100 147
100 220
100 236
100 1153
100 2247
100 2498
100 3790
100 5037
101 207
102 166
102 357
102 703
102 831
102 1104
102 1467
102 1468
102 1591
102 1749
102 2345
102 2585
102 2602
102 2890
102 3407
102 3547
102 3677
102 3682
102 4024
102 4256
102 4374
102 4421
102 4682
102 4889
102 4975
102 5194
102 5383
102 5419
103 184
103 457
103 2107
103 2507
103 2922
103 2982
103 3939
103 4172
103 4173
103 4638
103 4787
103 5257
103 5455
103 5973
104 139
104 164
104 343
104 382
104 449
104 579
104 728
104 1318
104 1385
104 1567
104 1599
104 1673
104 1732
104 1958
104 2274
104 2494
104 2703
104 3233
104 3672
104 3986
104 4260
104 4752
104 5379
104 6078
105 162
105 170
105 206
105 255
105 268
105 300
105 369
105 376
105 412
105 420
105 499
105 1227
105 3284
105 4364
105 5234
105 5328
105 5418
105 5633
105 6066
106 137
106 310
106 413
106 666
106 751
106 970
106 1015
106 1201
106 1383
106 1548
106 1595
106 1714
106 1822
106 1935
106 2017
106 2287
106 2303
106 2386
106 2538
106 2560
106 2636
106 2672
106 2889
106 2976
106 3008
106 3259
106 3578
106 3839
106 4100
106 4310
106 4465
106 4616
106 4694
106 4979
106 4983
106 5396
106 5499
106 5577
107 343
107 371
107 463
107 555
107 1058
107 1794
107 2113
107 2369
107 3730
107 4515
107 4520
107 5198
108 393
108 451
108 4045
108 5110
108 5223
108 5435
109 319
109 776
109 895
109 1095
109 1231
109 1284
109 1409
109 1651
109 1689
109 1690
109 1933
109 3226
109 3276
109 3451
109 3611
109 3643
109 4469
109 5604
110 685
110 1990
110 3287
111 145
111 266
111 1371
111 1657
111 1980
111 2370
111 2543
111 2829
111 3006
111 3331
111 4736
111 4984
111 5453
111 5569
111 5681
112 4144
112 5492
113 135
113 184
113 268
113 337
113 364
113 483
113 1124
113 1803
113 2351
113 2744
113 6000
114 182
114 233
114 365
114 448
114 516
114 842
114 1195
114 1346
114 2968
114 3924
114 4556
114 5666
114 5890
115 117
115 397
115 608
115 1170
115 1469
115 1720
115 1744
115 3592
115 4326
115 4812
115 5450
116 144
116 440
116 539
116 642
116 1059
116 2486
116 3567
116 4699
116 4820
116 4905
116 5582
116 5773
116 5803
117 136
117 173
117 210
117 264
117 397
117 416
117 547
117 1423
117 1743
117 2114
117 2437
117 3453
117 3559
117 5019
117 5039
117 5681
118 384
118 707
118 803
118 1844
118 2959
118 2960
118 4150
118 4548
118 4803
118 6004
119 177
119 251
119 2564
120 375
120 382
120 902
120 1162
120 2369
120 3899
120 3952
120 4906
121 155
121 162
121 187
121 199
121 246
121 296
121 299
121 306
121 349
121 411
121 434
121 436
121 441
121 460
121 762
121 1174
121 1450
121 1523
121 1581
121 1654
121 1871
121 2079
121 2129
121 2133
121 2197
121 2249
121 2522
121 2709
121 2794
121 3500
121 3565
121 3944
121 4328
121 4464
121 4779
121 4801
121 4921
121 5051
121 5086
121 5364
121 5439
121 5649
122 744
122 746
122 1514
122 1558
122 1605
122 1627
122 2085
122 2944
122 3091
122 3111
122 3781
122 4486
122 4497
122 4530
122 4854
122 5185
122 5239
122 5542
122 5741
122 5828
123 1410
123 1985
123 3623
123 3734
123 3744
123 4231
124 125
124 157
124 228
124 242
124 266
124 411
124 575
124 893
124 1009
124 1087
124 1306
124 1618
124 1739
124 1871
124 2197
124 2814
124 2905
124 3034
124 3164
124 3263
124 3523
124 3634
124 3635
124 3745
124 3825
124 3887
124 3964
124 4164
124 4200
124 4431
124 4895
124 5124
124 5444
124 5799
124 5863
124 6006
125 208
125 355
125 424
125 462
125 1560
125 1739
125 2161
125 2581
125 3607
125 3640
125 3726
125 3964
125 4807
125 5679
125 5744
126 145
126 155
126 161
126 174
126 175
126 184
126 223
126 224
126 269
126 282
126 298
126 327
126 329
126 334
126 355
126 370
126 386
126 393
126 412
126 420
126 422
126 424
126 460
126 1067
126 1103
126 1176
126 1214
126 1460
126 1847
126 1923
126 2352
126 2410
126 2990
126 3036
126 3270
126 3339
126 3379
126 3430
126 3787
126 4685
126 4791
126 4934
126 4980
126 5322
126 5552
126 5596
126 5897
127 287
127 384
127 618
127 920
127 1444
127 1864
127 1932
127 1948
127 2343
127 2502
127 3743
127 3874
127 4734
127 4843
127 5016
127 5848
129 342
129 1180
129 1771
129 1948
129 3743
129 4106
130 136
130 211
130 246
130 2434
130 2550
130 5343
131 365
131 964
131 1444
131 2861
132 4311
132 4327
132 4394
132 4478
132 4559
132 4623
132 4656
132 4847
132 4943
132 5054
132 5231
132 5574
132 5663
132 5747
132 5919
133 177
133 291
133 2957
133 5387
134 255
134 460
134 691
134 854
134 1109
134 4548
134 4979
135 337
135 420
135 481
136 5019
136 5049
136 5058
136 5131
136 5224
136 5365
136 5504
136 5520
136 5762
136 5971
137 5203
137 5436
137 5729
138 1354
138 1615
138 2321
138 2323
138 2722
138 3204
138 4450
138 4878
139 202
139 374
139 391
139 883
139 1062
139 1187
139 1255
139 1680
139 2044
139 2369
139 2502
139 2823
139 3363
139 3441
139 4287
139 4342
139 4783
139 5517
140 317
140 354
140 403
140 437
140 470
140 520
140 635
140 1000
140 1621
140 2053
140 2151
140 3030
140 3135
140 3807
140 4007
140 4023
140 4320
140 4411
140 4721
140 4782
140 4882
140 5320
141 195
141 330
142 177
142 302
142 330
142 420
142 435
142 2258
142 2407
142 2845
142 3004
142 3072
142 3216
142 3651
142 4130
142 4291
142 4383
142 4806
142 4989
142 5226
142 5297
142 5310
142 5583
142 5585
142 5811
144 283
144 342
144 371
144 529
144 881
144 981
144 1069
144 1192
144 1319
144 1740
144 2213
144 2294
144 2468
144 2486
144 3079
144 3097
144 3131
144 3183
144 3468
144 4588
144 4840
144 5106
144 5768
144 5917
145 5130
145 5308
145 5534
145 5885
145 6088
146 250
147 218
147 236
147 356
147 444
147 1235
147 1516
147 2353
147 3119
147 3295
147 3931
147 4085
147 4747
147 4883
147 5013
147 5945
148 460
148 469
148 1790
148 3819
149 177
149 251
149 266
149 284
149 302
149 351
149 404
149 877
149 1279
149 1359
149 2514
149 2595
149 2749
149 2812
149 3151
149 3263
149 3745
149 3821
149 3953
149 4338
149 4358
149 4548
149 4667
149 4735
149 4781
149 4977
149 5184
149 5315
149 5386
149 5892
150 174
150 291
150 709
150 1194
150 4351
150 4547
150 5316
150 5539
151 358
151 695
151 1554
151 1806
151 2202
151 2691
151 2750
151 2816
151 2912
151 3014
151 3370
151 4089
151 4961
151 5611
151 5764
151 6026
152 200
152 1499
152 1893
152 2756
152 3063
152 3223
153 199
153 258
153 332
153 430
153 451
153 460
153 1540
153 2764
153 3188
153 3339
153 3589
153 3778
153 4488
153 4784
153 5046
153 5214
153 5325
153 5471
153 5609
153 5624
153 5818
154 492
154 5341
154 5978
155 180
155 193
155 199
155 246
155 247
155 261
155 262
155 296
155 325
155 329
155 339
155 392
155 436
155 705
155 830
155 850
155 1067
155 1438
155 1695
155 2116
155 2762
155 2900
155 2945
155 2995
155 3339
155 3442
155 3744
155 3753
155 3757
155 3966
155 4303
155 4306
155 4693
155 4985
155 5249
155 5420
155 5674
155 5826
155 5868
155 5970
155 6062
156 210
156 257
156 298
156 314
156 334
156 557
156 1261
156 1407
156 2062
156 2303
156 2331
156 2497
156 2678
156 3049
156 3085
156 3139
156 3402
156 3668
156 3867
156 4067
156 4342
156 4471
156 4583
156 4650
156 4874
156 4932
156 5732
156 5780
156 5880
157 329
157 422
157 901
157 904
157 1243
157 1424
157 2069
157 3026
157 3034
157 3471
157 3547
157 3835
157 4340
157 4550
157 4680
157 5124
157 5630
158 1206
158 2333
158 2443
158 2757
158 3236
158 3615
158 4617
158 5356
158 5533
158 5754
158 5997
159 344
159 2219
159 2223
159 2653
159 4411
159 4460
159 4483
159 4566
159 4699
159 4820
159 6018
160 371
160 431
160 616
160 1209
160 1293
160 1859
160 1974
160 1992
160 2208
160 2323
160 2610
160 2644
160 3740
160 3829
160 3838
160 3864
160 3924
160 4101
160 4187
160 4565
160 4569
160 4586
160 4759
160 4775
160 5032
160 5067
160 5352
160 5774
161 170
161 174
161 223
161 261
161 262
161 269
161 275
161 364
161 370
161 386
161 479
161 984
161 1067
161 1330
161 1553
161 1664
161 1688
161 1715
161 2428
161 2874
161 3036
161 3339
161 3430
161 3852
161 4309
161 4635
161 4685
161 4693
161 4791
161 5674
161 5992
162 5801
162 5875
162 5886
162 5915
162 5934
162 5959
162 5966
162 6020
163 220
163 343
163 463
163 1475
163 1890
163 2113
163 3071
163 3146
163 4281
163 4540
164 205
164 286
164 310
164 343
164 400
164 423
164 468
164 563
164 1013
164 1041
164 1132
164 1504
164 1589
164 1775
164 1851
164 1991
164 2023
164 2241
164 2292
164 2437
164 2856
164 2907
164 3384
164 3714
164 3869
164 3876
164 3986
164 4101
164 4226
164 4281
164 4339
164 4427
164 4479
164 4916
164 5116
164 5270
164 5272
164 5379
164 5550
164 5837
164 5909
164 5990
164 6067
165 2755
166 357
166 1763
167 181
167 931
167 2156
167 2547
167 2939
167 3319
167 3341
167 3535
167 4430
167 4688
167 4814
167 5112
167 5422
167 6014
168 593
168 648
168 657
168 660
168 771
168 1076
168 1244
168 1444
168 1501
168 1648
168 1737
168 1899
168 2301
168 2306
168 2799
168 2820
168 2933
168 3013
168 3473
168 3476
168 3609
168 3624
168 3827
168 3924
168 3964
168 4234
168 4535
168 4942
168 5054
168 5142
168 5243
168 5388
168 5687
168 6010
169 457
170 206
170 255
170 300
170 364
170 384
170 5234
171 241
171 596
171 682
171 741
171 1258
171 1293
171 2319
171 3209
171 3992
171 4297
171 5028
171 5146
171 5147
171 5540
171 5600
171 5626
172 1234
173 182
173 184
173 264
173 302
173 306
173 384
173 385
173 397
173 686
173 830
173 886
173 1080
173 1588
173 1824
173 2067
173 2334
173 2524
173 2753
173 2934
173 3045
173 3141
173 3310
173 3916
173 4067
173 4539
173 4702
173 4722
173 4811
173 4917
173 5054
173 5060
173 5841
173 5932
173 5986
173 6083
174 223
174 224
174 249
174 252
174 258
174 269
174 282
174 314
174 327
174 350
174 364
174 370
174 386
174 443
174 456
174 460
174 479
174 489
174 935
174 1460
174 1616
174 1967
174 2075
174 2314
174 2990
174 2997
174 3339
174 3579
174 4364
174 5322
174 5410
174 5633
174 5750
175 255
175 282
175 302
175 329
175 369
175 412
175 460
175 934
175 1784
175 2563
175 3150
175 4303
175 4671
175 4947
175 5501
176 243
176 280
176 333
176 382
176 388
176 408
176 427
176 452
176 1142
176 1150
176 1505
176 1807
176 1810
176 2028
176 3126
176 3285
176 3812
176 4246
176 4247
176 5512
176 5640
177 251
177 266
177 280
177 291
177 302
177 306
177 329
177 344
177 351
177 364
177 369
177 384
177 399
177 404
177 412
177 420
177 435
177 439
177 443
177 460
177 1405
177 1426
177 2108
177 2258
177 2824
177 2852
177 2862
177 2931
177 2951
177 3553
177 3971
177 4008
177 4252
177 4369
177 5115
177 5304
177 5313
177 5434
177 5501
177 5770
178 457
178 3595
178 3885
178 4281
178 5308
178 5622
179 368
179 449
179 473
179 604
179 649
179 1698
179 1961
179 2110
179 2200
179 2261
179 2284
179 2354
179 2468
179 2480
179 2635
179 2664
179 2711
179 3140
179 3154
179 3387
179 3459
179 4018
179 4548
179 4676
179 4803
179 4935
179 5065
179 5260
179 5773
179 5825
179 5844
179 5853
179 6003
180 246
180 339
180 477
180 830
180 1328
180 1552
180 2824
180 3442
180 5770
181 1708
181 1768
181 2080
181 3359
181 4754
181 4866
182 315
182 384
182 391
182 420
182 481
182 1109
182 2437
182 3136
182 4108
182 4465
182 4484
182 4485
182 4832
183 384
183 626
183 2019
183 2285
183 2406
183 2813
183 3456
183 3510
183 3560
183 4899
183 5238
183 5435
183 5704
183 5985
184 5810
184 5816
184 5824
184 5846
184 5912
184 5925
184 5940
184 5953
184 5957
184 5986
184 6034
184 6081
185 432
185 537
185 4587
186 193
186 267
186 1434
186 1801
186 2021
186 2414
186 2416
186 2940
186 3268
186 3534
186 3704
186 3725
186 4238
186 4254
186 5061
186 5174
186 5413
188 388
188 444
188 743
188 1026
188 1843
188 2177
188 2650
188 2841
188 3030
188 3640
188 3804
188 3817
188 3964
188 4594
188 4686
188 5196
189 1557
189 2567
189 5222
189 6084
191 193
191 199
191 267
191 370
191 766
191 1102
191 1376
191 1458
191 1695
191 1738
191 1817
191 2299
191 2477
191 3066
191 3757
191 3966
191 5051
191 5526
191 5686
192 232
193 5360
193 5472
193 5680
193 5861
193 5954
194 197
194 696
194 1155
194 2228
194 3046
194 3122
194 3223
194 3783
194 3950
194 4372
194 4689
194 4867
194 4989
194 5641
195 227
195 5870
196 387
196 700
196 3228
196 3434
196 3860
197 5992
197 6056
197 6066
198 210
198 298
198 557
198 830
198 1553
198 1769
198 2271
198 2773
198 2777
198 2795
198 2825
198 2935
198 3023
198 4118
198 4303
198 4467
198 5435
198 5851
198 5992
198 6028
199 262
199 325
199 436
199 460
199 807
199 830
199 1102
199 1695
199 1984
199 1985
199 2089
199 2469
199 2477
199 2533
199 2743
199 3339
199 3587
199 3757
199 4454
199 4693
199 4837
199 5051
199 5526
199 5674
199 5686
199 5868
200 1332
200 1427
200 1509
200 1531
200 1656
200 1867
200 2349
200 2688
200 2756
200 2789
200 3091
200 3248
200 3564
200 3673
200 4239
200 4466
200 5064
200 5102
200 5606
200 5856
200 5907
201 340
201 955
201 1724
201 2525
201 2933
201 5212
201 5777
202 391
202 511
202 633
202 875
202 883
202 932
202 1062
202 1200
202 1329
202 1637
202 1655
202 2137
202 3314
202 3496
202 3593
202 3626
202 4342
202 4488
202 4855
202 4909
202 4984
202 5173
202 5916
203 321
203 329
203 426
203 616
203 1712
203 1809
204 965
204 1137
204 1268
204 1452
204 1551
204 2396
204 3269
204 3326
204 4643
205 286
205 324
205 347
205 349
205 358
205 449
205 1991
205 4851
205 5126
206 268
206 282
206 369
206 722
206 876
206 1405
206 1512
206 2027
206 2911
206 3133
206 3273
206 3284
206 3447
206 3603
206 3840
206 4000
206 4380
206 5011
206 5234
206 5566
206 5763
206 5877
207 335
207 545
207 1048
207 1927
207 2299
207 2498
207 2825
207 2874
207 2895
207 3120
207 3212
207 3213
207 3835
207 3852
207 3990
207 4801
207 5619
207 5785
207 6010
208 3158
208 3170
208 3289
208 3585
208 3629
208 3652
208 3665
208 3718
208 3727
208 3809
208 4030
208 4103
208 4209
208 4225
208 4371
208 4465
208 4519
208 4554
208 4602
208 4636
208 4713
208 4813
208 4848
208 4861
208 4914
208 5030
208 5067
208 5090
208 5213
208 5368
208 5445
208 5490
208 5582
208 5595
208 5619
208 5812
208 5815
208 5866
208 5888
209 431
209 561
209 598
209 880
209 933
209 1119
209 1130
209 1217
209 1345
209 1443
209 1520
209 1726
209 1811
209 1888
209 2238
209 2530
209 2828
209 2980
209 2993
209 3016
209 3137
209 3333
209 3423
209 3494
209 4122
209 4242
209 4258
209 4753
209 4863
209 4998
209 5062
209 5657
209 5757
210 298
210 451
210 485
210 517
210 557
210 797
210 867
210 1370
210 1769
210 2256
210 2532
210 2706
210 2934
210 3453
210 3499
210 3512
210 3635
210 3720
210 4199
210 4303
210 4373
210 4525
210 4650
210 4709
210 4934
210 4949
210 5021
210 5154
210 5175
210 5732
210 6042
211 246
211 259
211 276
211 1751
211 2279
211 2392
211 3101
211 3265
211 3313
211 3638
211 3878
211 4210
211 4967
212 366
212 384
212 414
212 456
212 460
212 1126
212 1250
212 1927
212 2305
212 2354
212 2471
212 2480
212 3136
212 3146
212 3776
212 3795
212 4047
212 4259
212 5047
212 5461
212 5681
212 5989
212 5996
212 6066
212 6083
213 229
213 253
213 688
213 999
213 3484
213 5118
213 5304
213 5313
214 1248
215 246
215 282
215 322
215 546
215 701
215 893
215 983
215 1211
215 1275
215 1299
215 1315
215 1403
215 1683
215 1694
215 2251
215 2631
215 2665
215 2666
215 2772
215 2846
215 2922
215 3383
215 3550
215 3835
215 3951
215 4197
215 4585
215 4922
215 4938
215 5930
215 5942
215 5943
215 6046
217 390
217 396
217 1205
217 1278
217 2087
217 2710
217 3245
217 3416
217 4121
217 4126
217 4673
217 4957
217 5927
218 236
218 1482
218 1855
218 2237
218 2741
218 3038
218 3039
218 3633
218 4401
218 4851
218 5155
218 5158
218 5426
218 5468
218 5721
219 2413
219 2806
219 4315
220 343
220 352
220 449
220 728
220 2331
220 2346
220 2834
220 3007
220 3089
220 3697
220 3799
220 3814
220 3922
220 4120
220 4226
220 4851
220 4968
220 5379
220 6092
221 1813
222 293
222 1065
222 1652
222 2919
222 3661
222 6011
223 261
223 262
223 269
223 325
223 327
223 370
223 386
223 460
223 477
223 479
223 617
223 1280
223 1374
223 1376
223 1527
223 1688
223 1896
223 1985
223 2006
223 2477
223 2835
223 2870
223 2958
223 2990
223 3339
223 3355
223 3430
223 3442
223 3663
223 3753
223 3757
223 3881
223 3937
223 4238
223 4422
223 4561
223 4668
223 4693
223 4707
223 4784
223 4873
223 4980
223 5484
223 5680
223 5693
224 282
224 386
224 1042
224 1283
224 2054
224 2076
224 2300
224 2727
224 2918
224 3999
224 4213
224 4481
224 4730
224 5514
224 5712
225 5949
226 2252
226 3033
226 3112
226 3228
226 3454
226 5671
227 1733
227 2426
227 3058
227 3467
227 5691
228 266
229 230
229 253
229 390
229 437
229 441
229 562
229 570
229 688
229 732
229 773
229 921
229 999
229 1135
229 1153
229 1156
229 1462
229 1943
229 2673
229 2692
229 2700
229 2896
229 2935
229 3279
229 3405
229 3845
229 4010
229 4035
229 4037
229 4038
229 4133
229 4139
229 5118
229 5155
229 5298
229 5302
229 5304
229 5313
229 5331
229 5348
229 5584
229 5636
229 6045
231 342
231 440
231 465
231 484
231 529
231 775
231 857
231 887
231 1046
231 1233
231 1360
231 1642
231 1941
231 2081
231 2088
231 2111
231 2278
231 2330
231 2483
231 2489
231 2661
231 2715
231 2955
231 2968
231 3482
231 3546
231 3715
231 3955
231 4379
231 4717
231 4835
231 4992
231 5052
231 5196
231 5412
231 5516
231 5567
231 5718
231 5890
231 6076
231 6096
232 394
232 898
232 3147
232 3185
232 4692
232 5034
232 5800
233 328
233 448
233 588
233 625
233 1003
233 1338
233 1745
233 2360
233 2380
233 2517
233 2697
233 3013
233 3054
233 3566
233 3654
233 3843
233 3977
233 4162
233 4241
233 4960
233 5980
234 298
234 342
234 638
234 877
234 1133
234 1183
234 1186
234 1386
234 1983
234 2720
234 2967
234 3566
234 4544
234 4740
234 4790
234 4793
234 4871
234 4908
235 571
235 687
235 716
235 1004
235 3645
235 4251
235 5443
235 5650
235 5783
236 432
236 590
236 791
236 851
236 1153
236 1426
236 1505
236 1626
236 1676
236 1855
236 2336
236 2701
236 2741
236 2871
236 3105
236 3126
236 3789
236 3790
236 3863
236 4401
236 4412
236 5294
236 5296
236 5300
236 5348
236 5423
236 5570
237 351
237 1351
237 3291
237 5270
237 5708
237 6050
238 431
238 1011
238 1180
238 2719
238 3700
238 3792
238 4132
238 5688
238 5767
239 332
239 363
239 711
239 983
239 1309
239 1350
239 1840
239 2073
239 2118
239 2233
239 2297
239 2331
239 2355
239 2372
239 3622
239 3746
239 4048
239 4390
239 4892
239 4893
239 5293
239 5659
239 5796
239 5952
240 365
240 1035
240 5060
242 255
242 279
242 302
242 364
242 443
242 456
242 1093
242 1590
242 1688
242 1739
242 1821
242 1830
242 2948
242 3075
242 3756
242 4075
242 4223
242 4382
242 4389
242 4502
242 4803
242 6054
242 6068
243 343
243 382
243 388
243 1153
243 1855
243 2244
243 2395
243 2807
243 3404
243 3703
243 3875
243 5031
243 5422
243 5479
243 5586
243 6021
244 299
244 317
244 370
244 432
244 466
244 794
244 1043
244 1056
244 1217
244 1226
244 1257
244 1579
244 1800
244 1912
244 2009
244 2077
244 2160
244 2736
244 2900
244 3373
244 3456
244 3988
244 4196
244 4336
244 4487
244 4514
244 4639
244 4797
244 5488
244 5735
244 5874
244 6027
245 246
245 276
245 307
245 527
245 577
245 894
245 1421
245 1424
245 1633
245 1820
245 2299
245 2590
245 2844
245 3000
245 3316
245 3398
245 3946
245 4186
245 4283
245 4365
245 4579
245 4897
245 4974
245 5220
245 5360
245 5819
245 5821
245 5896
245 5958
245 5959
246 5867
247 329
247 392
247 1340
247 1419
247 1759
247 3316
247 4296
247 4678
247 5273
248 317
249 282
249 364
249 1093
249 1884
249 1939
249 2462
249 2693
249 3149
249 4264
249 5186
249 5882
250 285
250 1645
250 1699
250 3319
250 3348
250 3798
250 4318
250 4717
250 5554
251 302
251 329
251 364
251 399
251 404
251 1188
251 1317
251 2564
251 3775
251 4307
251 5115
251 5304
251 5770
252 324
252 329
252 357
252 364
252 383
252 412
252 422
252 443
252 832
252 833
252 1387
252 1467
252 1934
252 1978
252 1997
252 2264
252 2361
252 2457
252 2703
252 2844
252 2876
252 3552
252 3595
252 3916
252 3933
252 4009
252 4124
252 4183
252 4281
252 4369
252 4396
252 4501
252 4502
252 4943
252 4964
252 5187
252 5268
252 5501
252 5509
252 5878
253 551
253 715
253 2409
253 3123
253 3506
253 4442
253 4679
253 5421
253 6035
253 6087
254 307
254 409
254 488
254 873
254 1245
254 1517
254 2230
254 2255
254 3060
254 3096
254 3605
254 3785
254 4208
254 4341
254 4697
254 4930
254 5166
254 5254
254 5860
255 282
255 300
255 314
255 329
255 350
255 364
255 376
255 456
255 460
255 479
255 526
255 662
255 691
255 1002
255 1025
255 1093
255 1103
255 2162
255 2168
255 2657
255 2903
255 3140
255 3691
255 3779
255 3847
255 4457
255 4746
255 4888
255 5109
255 5176
255 5217
255 5318
255 5339
255 5496
255 5740
255 5872
255 5903
255 6066
256 420
256 457
256 4316
257 334
257 552
257 839
257 972
257 1172
257 1274
257 1300
257 1307
257 1363
257 1396
257 1696
257 1829
257 1938
257 1946
257 2012
257 2269
257 2637
257 2687
257 2765
257 2981
257 3017
257 3055
257 3386
257 3417
257 3551
257 4141
257 4142
257 4157
257 4188
257 4218
257 4576
257 4679
257 4719
257 5048
257 5189
257 5264
257 5737
257 5791
257 5792
257 5987
257 6057
258 269
258 460
258 993
258 1066
258 1103
258 1489
258 1580
258 1847
258 2488
258 2738
258 3027
258 3528
258 3579
258 3941
258 4432
258 5129
258 5195
258 5214
258 5898
259 5258
260 437
260 619
260 780
260 1033
260 2302
260 2496
260 2913
260 3327
260 4202
260 4699
260 4805
260 5103
260 5235
260 5288
260 5582
261 262
261 269
261 325
261 394
261 479
261 1533
261 2958
261 3125
261 3753
261 4323
261 4532
261 5543
261 5693
262 269
262 325
262 479
262 1533
262 2516
262 2576
262 2797
262 2958
262 3125
262 3753
262 3966
262 4693
262 4837
262 5420
262 5543
262 5693
262 6086
263 293
263 373
263 785
263 838
263 980
263 1110
263 1219
263 1496
263 1609
263 1713
263 1928
263 1970
263 1982
263 2143
263 2198
263 2433
263 2488
263 2824
263 2927
263 3340
263 3821
263 3836
263 4151
263 4163
263 4216
263 4358
263 4592
263 4621
263 4978
263 5167
263 5327
263 5338
263 5560
263 5562
263 5566
263 6024
263 6055
264 343
264 397
264 585
264 969
264 4040
265 275
265 277
265 476
265 1267
265 1276
265 1833
265 2331
265 2774
265 3421
265 3520
265 4969
265 5448
265 5745
265 5928
265 5960
265 6048
266 1657
266 3263
266 3756
266 3851
267 573
267 679
267 1008
267 1038
267 1272
267 1320
267 1376
267 1636
267 1660
267 1695
267 1980
267 1985
267 2010
267 2021
267 2124
267 2211
267 2416
267 2427
267 2441
267 2477
267 2704
267 2713
267 2733
267 3035
267 3198
267 3217
267 3596
267 3667
267 3725
267 3742
267 3757
267 3882
267 4215
267 4238
267 4254
267 4262
267 4276
267 4645
267 4944
267 4956
267 5133
267 5247
267 5400
267 5505
267 5599
267 5672
267 5680
267 5861
268 337
268 364
268 906
268 1688
268 1904
268 2558
268 2569
268 3284
268 3766
268 4369
268 4763
268 4987
268 5401
268 5407
268 5633
268 5935
268 6000
269 314
269 325
269 364
269 386
269 460
269 479
269 756
269 1460
269 2958
269 2990
269 2997
269 3339
269 3579
269 3753
269 3941
269 4350
269 4668
269 4693
269 4858
269 4980
269 5322
269 5693
270 673
270 808
270 1780
270 3041
270 3074
270 3648
270 4030
270 4936
270 5863
271 3855
271 5225
273 1126
273 4020
273 5628
274 673
274 1196
274 1873
274 1945
274 2105
274 2384
274 2422
274 2631
274 2665
274 3342
274 3385
274 3906
274 4185
274 4317
274 4943
274 5091
274 5113
275 277
275 393
275 436
275 476
275 855
275 1828
275 2874
275 2916
275 3156
275 3744
275 5420
275 5674
275 5800
275 6061
275 6086
276 4974
276 5362
276 5592
276 5788
276 5819
276 6090
277 296
277 394
277 476
277 1828
277 2262
277 3125
277 3215
277 5420
277 5839
277 6048
277 6061
278 314
278 420
278 1448
278 2047
278 2265
278 2462
278 2551
278 3696
278 3871
278 4310
279 868
279 1590
279 1753
279 1832
279 2763
279 2831
279 2859
279 3040
279 3505
279 3570
279 3598
279 4524
279 4533
279 4570
279 4839
279 5057
279 5161
279 5441
279 5638
279 5789
279 6029
280 4212
280 4303
280 4371
280 4372
280 4400
280 4473
280 4700
280 4773
280 4828
280 4832
280 4972
280 4974
280 5017
280 5358
280 5501
280 5556
280 5598
280 5646
280 5780
280 5819
280 5866
280 5959
280 5969
280 6070
280 6080
281 468
281 508
281 669
281 778
281 948
281 973
281 1807
281 2159
281 2539
281 2964
281 3242
281 3812
281 4733
281 4866
281 5071
281 5558
281 5669
281 5837
281 5972
282 331
282 350
282 364
282 404
282 422
282 1387
282 1688
282 2000
282 2307
282 2462
282 2745
282 2886
282 3045
282 3094
282 4289
282 4660
282 4819
282 5323
282 5326
282 5403
282 5531
282 5633
282 5818
283 1053
283 1326
283 1446
283 3460
283 3525
283 3563
283 3961
283 4588
283 4905
283 5823
283 5855
284 404
284 504
284 632
284 846
284 847
284 1165
284 1874
284 1942
284 2015
284 2152
284 2325
284 2749
284 2862
284 3143
284 3309
284 3360
284 3607
284 3851
284 3895
284 4358
284 4536
284 4622
284 4655
284 4976
284 5151
284 5173
284 5904
285 442
285 802
285 938
285 1117
285 1234
285 1390
285 2378
285 3288
285 3310
285 3369
285 4318
285 4870
285 5558
286 343
286 382
286 449
286 1991
286 3244
287 329
287 422
287 473
287 614
287 683
287 756
287 920
287 921
287 1023
287 1216
287 1461
287 1842
287 3182
287 3651
287 3674
287 3754
287 4008
287 5096
287 5305
287 5361
287 5464
287 6030
288 404
288 774
288 785
288 2258
288 2423
288 2425
288 2626
288 2915
288 3058
288 3756
288 3964
288 4149
288 4290
288 4510
288 4626
289 394
289 436
289 451
289 2682
290 698
290 726
290 757
290 1197
290 1246
290 1461
290 1511
290 1613
290 1682
290 1956
290 2682
290 2880
290 3166
290 3606
290 3613
290 3618
290 3670
290 3692
290 4041
290 4042
290 4189
290 4724
290 5171
290 5366
290 5398
290 5588
290 5589
290 5632
291 351
291 454
291 799
291 1783
291 2767
291 3526
291 4023
291 5324
291 5547
291 6019
292 382
292 493
292 644
292 1880
292 1958
292 3194
292 3320
292 3337
292 3917
292 3976
292 4057
292 4549
292 4965
292 5344
293 346
293 429
293 461
293 919
293 942
293 967
293 980
293 1054
293 1074
293 1163
293 1241
293 1248
293 1576
293 1661
293 1725
293 1848
293 2068
293 2246
293 2467
293 2851
293 3200
293 3502
293 3581
293 3702
293 3810
293 3886
293 4054
293 4750
293 4796
293 5010
293 5150
293 5191
293 5261
293 5286
293 5530
293 5639
293 5843
294 418
294 2503
294 2513
294 3180
294 4851
295 610
295 1141
295 1471
295 1659
295 2140
295 2238
295 3029
295 3038
295 3905
295 4528
295 4798
295 5004
295 5098
295 5466
296 441
296 2257
296 2446
296 2605
296 2794
296 4306
296 4948
296 5869
297 324
297 358
297 447
297 497
297 801
297 886
297 978
297 986
297 1021
297 1281
297 1400
297 1435
297 1526
297 1568
297 1623
297 1635
297 1756
297 2222
297 2969
297 3047
297 3420
297 3682
297 4097
297 4312
297 4333
297 4376
297 4580
297 4670
297 4755
297 4768
297 4933
297 5040
297 5092
297 5163
297 5170
297 5285
297 5571
297 5601
297 5677
297 5774
298 324
298 360
298 363
298 414
298 451
298 485
298 557
298 797
298 852
298 1084
298 1094
298 1183
298 1616
298 1714
298 1742
298 2000
298 2075
298 2629
298 2708
298 2759
298 2787
298 3372
298 3395
298 3457
298 3516
298 3558
298 3635
298 3724
298 3830
298 3967
298 3969
298 4303
298 4342
298 4353
298 4407
298 4589
298 4650
298 4690
298 4871
298 4925
298 4939
298 5023
298 5165
298 5438
298 5711
298 5716
298 5920
298 6042
299 306
299 309
299 385
299 403
299 420
299 441
299 454
299 457
299 1031
299 1590
299 2190
299 2725
299 2900
299 2923
299 3317
299 4336
299 5513
299 5834
299 5900
301 4151
302 351
302 384
302 391
302 404
302 443
302 1491
302 2354
302 2531
302 3375
302 4308
302 4338
302 4358
302 5706
302 5780
302 5905
303 1989
303 3491
303 3636
303 3707
303 3929
303 4758
304 351
304 697
304 1169
304 1835
304 4230
304 5071
305 369
305 422
305 431
305 1239
305 1439
305 1631
305 1766
305 2253
305 3328
305 5001
305 5379
305 6023
306 309
306 348
306 441
306 584
306 824
306 830
306 1488
306 2189
306 3216
306 3784
306 3982
306 4336
306 5088
306 5180
306 5377
307 409
307 488
307 527
307 576
307 754
307 945
307 993
307 1096
307 1634
307 1746
307 1799
307 1806
307 1902
307 1962
307 1972
307 2184
307 2195
307 2645
307 2669
307 2694
307 2695
307 2910
307 2983
307 3092
307 3191
307 3318
307 3527
307 3608
307 3621
307 4027
307 4192
307 4233
307 4321
307 4452
307 4624
307 4661
307 4974
307 5083
307 5367
307 5449
307 5722
307 5821
307 5894
307 5948
308 400
308 579
308 795
308 1054
308 1080
308 1196
308 1411
308 2399
308 3369
308 3490
308 3926
308 4176
308 4999
308 5629
308 5893
309 864
309 1184
309 1217
309 3223
309 3504
309 3568
309 3569
309 3816
309 3909
309 3954
309 4336
309 4527
309 5804
309 5933
309 6022
310 4648
310 4736
310 4785
310 5165
310 5569
310 5577
310 5681
310 5795
310 5976
310 6064
310 6065
311 312
311 408
311 728
311 1368
311 1958
311 2320
311 2445
311 3003
311 3179
311 3591
311 3856
311 3868
311 4417
311 4607
311 4632
311 4748
311 4999
311 5146
312 408
312 728
312 1940
312 2320
312 4424
312 4748
312 4786
313 374
313 382
313 450
313 2393
313 2772
313 2998
313 3989
314 337
314 364
314 368
314 376
314 386
314 460
314 464
314 513
314 578
314 727
314 733
314 1025
314 1093
314 1175
314 1490
314 2049
314 2292
314 2335
314 2551
314 2678
314 2766
314 3122
314 3140
314 3154
314 3162
314 3528
314 3696
314 3943
314 4011
314 4067
314 4143
314 4207
314 4310
314 4364
314 4369
314 4372
314 4457
314 4694
314 4989
314 5109
314 5337
314 5407
314 5507
314 5535
314 5613
314 5633
314 6066
314 6097
315 3479
315 4001
315 4277
315 4484
315 4792
316 356
316 1036
316 1404
316 1951
316 2397
316 2566
316 2779
316 3280
316 3408
316 4286
317 334
317 354
317 359
317 371
317 402
317 407
317 717
317 814
317 840
317 1190
317 1240
317 1861
317 1924
317 2053
317 2059
317 2142
317 2151
317 2218
317 2293
317 2603
317 2790
317 2974
317 3064
317 3080
317 3351
317 3504
317 3628
317 4022
317 4168
317 4320
317 4359
317 4468
317 4554
317 4820
317 4849
317 4937
317 4943
317 5050
317 5513
317 5771
317 5867
317 5881
317 5945
318 671
318 1064
318 1144
318 1344
318 1535
318 1619
318 1954
318 2689
318 2779
318 2955
318 3225
318 3733
318 3764
318 4072
318 4574
318 4698
318 5132
318 5355
318 5660
319 343
319 382
319 388
319 438
319 449
319 730
319 910
319 1561
319 1563
319 2119
319 3202
319 3255
319 3336
319 3689
319 3812
319 4568
320 1735
320 1747
320 1893
320 1994
320 2536
320 2557
320 2729
320 3885
320 4339
320 5573
320 5724
320 6091
321 426
321 2020
322 701
322 827
322 869
322 900
322 1010
322 1012
322 1311
322 1902
322 2091
322 2260
322 2484
322 3782
322 3801
322 3924
322 4080
322 4177
322 4927
322 5751
324 6047
325 339
325 394
325 436
325 705
325 830
325 1102
325 1498
325 1530
325 1791
325 1985
325 2516
325 2533
325 2572
325 2784
325 2797
325 2874
325 3339
325 3744
325 3966
325 4066
325 4668
325 4693
325 4837
325 5129
325 5420
325 5674
325 6086
326 2726
326 3454
327 348
327 386
327 460
327 489
327 817
327 1849
327 1869
327 3564
327 3908
327 4030
327 4810
327 5404
328 461
328 3588
328 3995
328 4346
329 5276
329 5359
329 5401
329 5454
329 5459
329 5781
329 5787
329 5878
329 5961
330 350
330 438
330 439
330 952
330 1513
330 1570
330 2217
330 2239
330 2690
330 2873
330 2885
330 2903
330 3004
330 3129
330 3346
330 3538
330 3541
330 3745
330 3994
330 4369
330 4767
330 5295
330 5297
330 5310
330 5314
331 422
331 1145
331 1387
331 2886
331 4390
331 4660
332 363
332 394
332 711
332 1308
332 1335
332 2373
332 3037
332 3518
332 3746
332 4410
332 4472
332 5060
332 5123
333 1493
333 2183
334 386
334 505
334 584
334 1164
334 1620
334 1703
334 1986
334 2295
334 2707
334 3238
334 3270
334 3498
334 3678
334 3867
334 4077
334 4263
334 4285
334 5491
334 5603
335 1322
335 1376
335 1847
335 2256
335 2259
335 2716
335 2963
335 3124
335 3199
335 3212
335 3213
335 3872
335 4034
335 4713
335 5183
335 5271
335 5362
335 5378
335 5409
336 343
336 3145
337 364
337 366
337 428
337 483
337 860
337 1393
337 1538
337 1545
337 2243
337 2437
337 2559
337 3332
337 3347
337 3429
337 3693
337 3783
337 4104
337 4581
337 5577
337 5675
337 5931
337 5975
337 5976
337 6064
338 407
338 454
338 1061
338 1139
338 1152
338 1528
338 1537
338 1773
338 1915
338 1989
338 2511
338 2730
338 2770
338 2882
338 3294
338 3419
338 3809
338 5235
338 5661
338 5931
338 6002
338 6072
339 477
339 705
339 830
339 1328
339 3339
339 3442
339 4868
340 406
340 843
340 892
340 1205
340 1391
340 1399
340 1402
340 1441
340 3245
340 3483
340 3679
340 3751
340 3752
340 4052
340 4662
340 5177
340 5201
340 5416
340 5430
340 5519
340 5773
340 5778
340 5982
341 401
341 422
341 460
341 524
341 756
341 792
341 1213
341 1290
341 1394
341 1541
341 1723
341 2220
341 2313
341 2510
341 2921
341 3325
341 3349
341 3916
341 4633
341 4649
341 4695
341 4872
341 4924
341 4996
341 5084
341 5120
341 5248
341 5277
341 5460
341 5781
341 5787
341 5801
341 5961
341 6014
342 407
342 659
342 884
342 966
342 991
342 4691
342 5159
342 5390
342 5808
342 5809
343 371
343 379
343 382
343 389
343 397
343 400
343 423
343 427
343 431
343 449
343 468
343 475
343 519
343 563
343 730
343 811
343 853
343 1070
343 1151
343 1312
343 1449
343 1454
343 1476
343 1492
343 1495
343 1572
343 1611
343 1929
343 1963
343 2232
343 2240
343 2654
343 2984
343 3083
343 3234
343 3244
343 3329
343 3428
343 3986
343 4272
343 4575
343 4669
343 4900
343 5066
343 5111
343 5278
343 5497
345 758
345 1932
345 2542
345 2877
345 3106
345 4703
345 4804
345 5621
346 364
346 530
346 689
346 1014
346 1032
346 1131
346 1598
346 1818
346 2652
346 2817
346 3115
346 3130
346 3203
346 3426
346 3616
346 3702
346 3774
346 3914
346 3980
346 4207
346 4252
346 4257
346 4458
346 5011
346 5059
346 5284
346 5363
346 5414
346 5429
346 5515
346 5618
346 5639
346 5752
346 5802
346 6008
346 6082
347 358
348 485
348 584
348 1638
348 1714
348 1975
348 2102
348 2103
348 2273
348 2808
348 2999
348 3543
348 3683
348 3711
348 3793
348 3883
348 4479
348 4573
348 4866
348 4916
348 5160
348 5252
348 5681
349 411
349 431
349 475
349 971
349 1179
349 3762
349 3997
349 5242
349 5394
349 5395
349 5794
349 5837
350 364
350 443
350 460
350 1028
350 1769
350 2217
350 2813
350 3400
350 3529
350 4911
350 5780
350 5992
350 6070
351 651
351 874
351 908
351 2431
351 2531
351 3009
351 4019
351 4860
351 5829
352 408
352 432
352 452
352 728
352 2664
352 3987
352 4737
352 5143
352 5146
352 5266
352 5637
353 412
353 413
353 420
353 507
353 926
353 1506
353 2123
353 3178
353 3972
353 4423
353 4441
353 4446
353 4447
353 4463
353 4465
353 4982
353 5616
354 407
354 3772
354 4414
354 5373
354 5578
354 5582
355 386
355 424
355 1433
355 2658
355 3726
355 4123
355 5623
355 5924
356 357
356 420
356 435
356 442
356 444
356 457
356 462
356 473
356 562
356 635
356 729
356 1101
356 2357
356 2362
356 2398
356 2537
356 2737
356 3208
356 3438
356 3539
356 3765
356 4137
356 4351
356 4370
356 4474
356 4504
356 5267
356 5311
356 5312
356 5334
356 5397
356 6032
356 6075
357 678
357 781
357 1166
357 1263
357 1467
357 1468
357 1934
357 2502
357 2597
357 2602
357 3422
357 3595
357 3904
357 4211
357 4606
357 5509
357 5833
357 5922
358 479
358 1337
358 1467
358 1468
358 1486
358 1905
358 1916
358 1934
358 3032
358 3142
358 3220
358 3595
358 4174
358 4355
358 4490
358 4501
358 4613
358 4933
358 5431
358 5509
358 6026
359 2092
359 2498
359 3641
359 3709
359 3945
359 4337
359 4358
359 4537
359 4582
359 4823
359 5981
360 363
360 432
360 442
360 485
360 837
360 852
360 1032
360 1033
360 1177
360 1406
360 1588
360 1778
360 1878
360 1921
360 2061
360 2332
360 2708
360 2897
360 3038
360 3737
360 3791
360 5165
360 5847
360 5920
362 468
362 962
362 1001
362 2002
362 2029
362 2181
363 394
363 485
363 852
363 1185
363 1196
363 1237
363 1471
363 1957
363 2000
363 2082
363 2232
363 2373
363 2399
363 2759
363 3037
363 3573
363 3746
363 3873
363 4332
363 4410
363 4472
363 4555
363 4641
363 5685
364 5501
364 5507
364 5618
364 5633
364 5905
364 5935
364 6000
364 6066
365 448
365 540
365 741
365 1444
365 1815
365 2401
365 2464
365 2748
365 2798
365 2802
365 2867
365 3043
365 3200
365 3246
365 3557
365 3938
365 3980
365 4078
365 4112
365 4253
365 4511
365 4871
365 4942
365 5033
365 5849
365 6085
366 414
366 428
366 893
366 1228
366 1230
366 1250
366 1393
366 1502
366 1507
366 1545
366 1559
366 1665
366 1965
366 2005
366 2056
366 2127
366 2254
366 2280
366 2292
366 2324
366 2391
366 2421
366 2437
366 2480
366 2559
366 2634
366 2829
366 3120
366 3146
366 3429
366 3693
366 3706
366 3783
366 4371
366 4479
366 4552
366 4785
366 4910
366 5114
366 5577
366 5681
366 6083
367 981
367 1459
367 3819
367 5725
367 5808
367 6093
368 584
368 742
368 771
368 1710
368 1862
368 2216
368 2480
368 3140
368 3630
368 3729
368 4322
368 4573
369 413
369 422
369 431
369 466
369 1134
369 2210
369 3067
369 3151
369 3224
369 3302
369 3669
369 4364
369 4671
369 5633
369 5798
370 386
370 393
370 460
370 566
370 659
370 2052
370 2078
370 2100
370 2732
370 2747
370 3391
370 3456
370 3501
370 3735
370 4181
370 4309
370 4639
370 4769
370 4934
370 5098
370 5215
371 3719
371 3760
371 3834
371 3850
371 4324
371 4331
371 4415
371 4439
371 4496
371 4576
371 4620
371 4684
371 5024
371 5035
371 5141
371 5224
371 5237
371 5336
371 5370
371 5427
371 5511
371 5551
371 5602
371 5956
372 447
372 1138
372 1510
372 2611
372 4333
372 4433
372 4584
372 4654
372 5726
373 404
373 740
373 862
373 909
373 1327
373 1401
373 2824
373 3013
373 3810
373 4368
373 4375
373 4477
373 4601
373 4662
373 5167
373 5168
373 5590
373 5652
373 5736
373 6031
374 382
374 388
374 431
374 443
374 447
374 449
374 452
374 460
374 940
374 1147
374 2339
374 2369
374 2411
374 3203
374 3345
374 3698
374 4508
374 5308
374 5436
374 5503
374 5529
375 4030
375 4986
376 1198
376 1477
376 1644
376 1892
376 2405
376 2518
376 2782
376 4093
376 4240
376 4674
376 4780
376 5217
376 5709
376 6033
376 6051
377 417
377 468
377 961
377 1764
377 1978
377 2810
377 2952
377 4386
377 5541
378 581
378 730
379 4652
379 4661
379 4665
379 4832
379 4900
379 4931
379 4933
379 5144
379 5172
379 5217
379 5249
379 5788
379 5819
379 5895
379 6005
379 6015
379 6059
379 6090
380 4354
380 4381
380 4675
380 4824
380 4994
380 5085
380 5283
380 5354
380 5910
380 5974
381 388
381 452
381 453
381 622
381 835
381 836
381 856
381 865
381 1029
381 1154
381 1251
381 1629
381 1667
381 1668
381 1816
381 1966
381 2452
381 2459
381 2475
381 2571
381 2652
381 2904
381 3114
381 3148
381 3254
381 3307
381 3440
381 3604
381 3708
381 3771
381 3826
381 3986
381 4014
381 4015
381 4170
381 4329
381 4339
381 4853
381 5059
381 5233
381 5357
381 5440
381 6083
382 412
382 420
382 427
382 443
382 1177
382 1515
382 1760
382 2703
382 4549
383 443
384 385
384 391
384 414
384 422
384 949
384 1023
384 1679
384 1688
384 2148
384 2678
384 2845
384 3058
384 3173
384 3571
384 4330
384 4338
384 4735
384 4745
384 5226
384 5635
384 5698
384 5742
384 5880
384 5905
384 6066
385 422
385 957
385 2343
385 2753
385 3010
385 3344
385 5226
385 5794
386 393
386 412
386 420
386 424
386 460
386 479
386 825
386 1176
386 1202
386 1366
386 1460
386 1847
386 2310
386 2352
386 2410
386 2990
386 3270
386 3339
386 3379
386 3430
386 3655
386 3787
386 4829
386 4934
386 4980
386 5098
386 5409
387 650
387 957
387 1907
387 2937
387 3195
387 3235
387 5026
387 5502
388 5883
388 5921
388 6016
388 6020
389 1222
389 2180
389 2402
389 5862
390 396
390 406
390 1121
390 2250
390 2301
390 2678
390 2908
390 3088
390 3826
390 4052
390 4360
390 4471
390 4826
390 4846
390 5936
391 893
391 1118
391 1178
391 1220
391 1255
391 1773
391 2090
391 2634
391 2786
391 2931
391 3019
391 3139
391 3646
391 4583
391 4628
391 5192
391 5905
392 661
392 690
392 1805
392 2840
392 2945
392 2995
392 3632
392 3981
392 4416
392 4461
392 5144
392 5651
392 6090
393 1173
393 1571
393 1949
393 2197
393 2874
393 3156
393 3339
393 5609
394 436
394 451
394 482
394 830
394 1445
394 1579
394 1772
394 1828
394 2509
394 2516
394 2987
394 3138
394 3612
394 3635
394 3746
394 3803
394 3928
394 3948
394 4081
394 4693
394 4859
394 5068
394 5221
394 5477
394 5728
394 5800
394 6043
395 721
395 1384
395 4610
396 816
396 1121
396 1524
396 2042
396 2087
396 3190
396 3483
396 3658
396 4292
396 5306
396 5684
397 431
397 475
397 969
397 1382
397 1588
397 1735
397 1736
397 2208
397 2615
397 2660
397 3230
397 3310
397 3311
397 3412
397 3723
397 3832
397 3838
397 4040
397 4154
397 4970
397 5494
397 5576
397 5932
398 1349
398 1422
398 2071
398 2340
398 2640
398 3957
398 3991
398 4056
398 5216
398 5376
399 441
399 479
399 806
399 982
399 1196
399 1418
399 1784
399 1897
399 1995
399 2166
399 2515
399 2873
399 2903
399 3278
399 3529
399 3541
399 3797
399 3815
399 4028
399 4493
399 4911
399 5301
399 5534
399 5772
399 5822
399 5885
400 579
400 668
400 699
400 914
400 1079
400 1182
400 1236
400 1385
400 1473
400 1525
400 1677
400 1775
400 1964
400 2134
400 2155
400 2361
400 2643
400 3207
400 3312
400 3329
400 3528
400 3540
400 3786
400 3824
400 3894
400 4206
400 4393
400 4435
400 4575
400 4604
400 4912
400 5044
400 5111
400 5319
400 5478
400 5558
400 5703
400 5837
400 5850
400 5951
400 5990
400 6041
401 841
401 1379
401 1860
401 1944
401 1999
401 2104
401 2429
401 2454
401 3357
401 4971
401 5120
401 5720
402 406
402 534
402 542
402 660
402 1012
402 1653
402 1696
402 1701
402 1718
402 1854
402 1883
402 1924
402 2327
402 2404
402 2646
402 2962
402 3828
402 4178
402 4229
402 4483
402 4554
402 4588
402 4711
402 4849
402 4929
402 5000
402 5055
402 5210
402 5274
402 5381
403 5684
403 5945
403 6020
403 6072
404 4109
404 4234
404 4275
404 4304
404 4399
404 4505
404 4605
404 4625
404 4655
404 4704
404 4767
404 4795
404 4803
404 5095
404 5115
404 5128
404 5151
404 5162
404 5173
404 5197
404 5202
404 5206
404 5408
404 5434
404 5483
404 5510
404 5535
404 5597
404 5758
404 5763
404 5902
404 5904
404 6017
404 6024
404 6071
406 534
406 692
406 871
406 1112
406 1121
406 1238
406 1264
406 1324
406 1518
406 1653
406 1701
406 1709
406 1812
406 1852
406 1883
406 2050
406 2074
406 2380
406 2382
406 2476
406 2562
406 2765
406 2785
406 2977
406 3350
406 3662
406 3919
406 4194
406 4324
406 4523
406 4594
406 4596
406 4923
406 5370
406 5678
406 5778
406 5835
406 6025
406 6029
407 568
407 597
407 642
407 702
407 1004
407 1190
407 1215
407 1369
407 1457
407 1522
407 1584
407 1727
407 1796
407 1825
407 1866
407 1924
407 2151
407 2275
407 2289
407 2337
407 2449
407 3243
407 3371
407 3526
407 3769
407 3877
407 3913
407 3959
407 4111
407 4168
407 4468
407 4607
407 5070
407 5211
407 5373
407 5469
407 5605
407 5684
407 5955
408 427
408 452
408 728
408 1810
408 3237
408 3812
408 4012
408 4158
408 4748
408 5146
408 5558
408 5669
409 488
409 786
409 826
409 2230
409 2255
409 2648
409 3785
409 4208
409 4503
409 4963
409 5127
409 5230
409 5350
409 5769
409 5901
410 425
410 652
410 710
410 1157
410 1910
410 3361
410 3925
410 4013
410 4595
410 5923
411 431
411 1088
411 1523
411 1739
411 2573
411 2680
411 2712
411 3664
411 3889
411 4063
411 5051
411 5179
411 5246
411 5794
412 420
412 422
412 443
412 874
412 1688
412 2047
412 2279
412 2868
412 2903
412 4009
412 4548
412 5017
412 5406
413 634
413 671
413 1038
413 1442
413 1935
413 2123
413 2641
413 2965
413 3178
413 3625
413 3724
413 3972
413 4343
413 4465
413 4736
413 4743
413 4981
413 4982
413 5256
413 5577
413 5614
413 5616
414 460
414 637
414 790
414 992
414 1016
414 1068
414 1136
414 1927
414 2005
414 2254
414 2280
414 2335
414 2354
414 2723
414 3042
414 3264
414 3783
414 3830
414 4047
414 4195
414 4298
414 4522
414 4683
414 4900
414 5045
414 5642
414 5681
415 3048
415 3970
415 4053
415 5347
415 5727
417 1978
417 2358
417 3736
417 4271
417 4314
417 5899
418 2513
418 4851
419 1011
419 2561
420 428
420 431
420 442
420 443
420 457
420 481
420 490
420 815
420 1698
420 2665
420 2955
420 4108
421 977
421 2024
421 2036
421 2552
421 3050
421 3176
421 3401
421 3554
421 4818
421 5232
421 5807
422 431
422 443
422 450
422 456
422 471
422 479
422 483
422 485
422 606
422 815
422 844
422 984
422 1018
422 1124
422 1196
422 2232
422 2923
422 2978
422 3181
422 3446
422 3696
422 3794
422 3801
422 4096
422 4175
422 4281
422 4283
422 4289
422 4310
422 4393
422 4553
422 4559
422 4660
422 4913
422 4974
422 5152
422 5358
422 5865
422 5866
422 5875
424 559
424 565
424 1203
424 2593
424 3574
424 3726
424 5864
425 594
425 1428
425 5251
426 771
426 1257
426 2020
426 2048
426 2387
426 2894
426 3761
426 5298
427 452
427 718
427 1810
427 3898
427 4809
427 5451
427 5988
428 5681
428 5746
428 5748
428 5749
428 5964
428 5976
428 6064
429 459
429 1107
429 2523
429 2805
429 3588
429 3810
429 4418
429 4629
429 4772
429 5060
429 5495
429 5560
430 830
430 994
430 1896
430 2746
430 3196
430 3339
430 4309
430 4538
430 4794
430 5458
430 5968
431 432
431 442
431 514
431 841
431 1097
431 1180
431 1209
431 1217
431 1242
431 1612
431 1750
431 1797
431 1948
431 2187
431 2188
431 2323
431 2367
431 2371
431 2424
431 2529
431 2606
431 2849
431 2864
431 2909
431 3071
431 3354
431 3369
431 3477
431 3627
431 3838
431 3864
431 3924
431 4002
431 4030
431 4082
431 4191
431 4475
431 4586
431 4696
431 4759
431 4762
431 4775
431 4884
431 5069
431 5289
431 5368
431 5544
432 523
432 537
432 616
432 728
432 1085
432 1217
432 1413
432 1603
432 1819
432 1875
432 2144
432 2430
432 2539
432 2691
432 4025
432 4426
432 5036
432 5037
432 5038
432 5071
432 5255
432 5265
432 5278
432 5612
432 5715
432 5724
432 5739
432 5977
433 483
433 646
433 1100
433 1711
433 2000
433 2811
433 4402
433 5527
434 441
434 1302
434 3521
434 4039
435 438
435 457
435 2436
435 2852
435 4504
436 762
436 807
436 1498
436 1530
436 1985
436 2572
436 2709
436 3339
436 4303
436 4693
436 5078
436 5593
436 5674
436 5868
437 467
437 470
437 732
437 1256
437 1539
437 1566
437 1590
437 1783
437 1881
437 2040
437 2600
437 2971
437 3002
437 3651
437 3690
437 4320
437 4672
437 4877
437 5104
437 5524
437 5582
438 457
438 480
439 647
439 1175
439 1856
439 1952
439 2205
439 2234
439 2361
439 2376
439 3198
439 3356
439 3542
439 3553
439 3695
439 3923
439 4027
439 4051
439 4369
439 4700
439 4907
439 5009
439 5259
439 5359
439 5501
439 5627
440 457
440 1865
440 1866
440 2275
440 2487
440 2527
440 2854
440 2882
440 3955
440 4315
440 4534
440 4588
440 4777
440 4792
440 4820
440 4841
440 5342
440 5671
440 6096
441 460
441 485
441 535
441 762
441 1229
441 1581
441 1784
441 1967
441 2249
441 2257
441 2491
441 2794
441 3087
441 3900
441 4222
441 4328
441 4681
441 4907
441 5180
441 5291
441 5647
441 5723
442 457
442 536
442 941
442 975
442 1090
442 1624
442 1770
442 2130
442 2332
442 2725
442 2872
442 3203
442 3907
442 3968
442 4634
442 4701
442 4726
442 5309
442 5826
443 456
443 460
443 1127
443 1394
443 1479
443 1978
443 1996
443 2044
443 2106
443 2313
443 2361
443 2544
443 2703
443 2819
443 2840
443 2844
443 2868
443 2876
443 2903
443 3316
443 3552
443 3553
443 3981
443 4026
443 4051
443 4183
443 4186
443 4212
443 4252
443 4281
443 4283
443 4296
443 4364
443 4369
443 4408
443 4470
443 4725
443 4816
443 5187
443 5262
443 5268
443 5501
443 5633
443 5819
444 457
444 473
444 474
444 1476
444 2502
444 2942
444 3012
444 3544
444 3884
444 4577
445 614
445 743
445 912
445 1273
445 1331
445 1641
445 1870
445 2153
445 2492
445 2595
445 2812
445 2927
445 3184
445 3425
445 3749
445 3880
445 3920
445 4008
445 4845
445 4857
445 4995
445 5063
445 5307
445 5321
445 5591
446 759
446 1063
446 2862
446 3775
446 4216
446 5658
446 5983
446 6095
447 801
447 983
447 1355
447 1484
447 1799
447 2035
447 2208
447 2232
447 4175
447 4204
447 4249
447 4333
447 4557
447 4580
447 5012
447 5107
448 765
448 908
448 1253
448 1360
448 1485
448 1737
448 2001
448 2632
448 2721
448 2996
448 3281
448 3282
448 3660
448 4106
448 4232
448 4367
448 4513
448 4954
448 5371
448 5475
448 5734
448 5782
449 579
449 730
449 943
449 1561
449 1673
449 1698
449 1958
449 2703
449 3786
449 3802
449 3974
449 5182
449 5979
450 483
450 1421
450 2868
450 2978
450 4135
450 4434
450 5598
451 554
451 557
451 599
451 749
451 888
451 893
451 1109
451 1559
451 1927
451 1961
451 2303
451 2352
451 2354
451 2363
451 2519
451 2541
451 2663
451 3448
451 3630
451 3656
451 3738
451 4250
451 4303
451 4488
451 4522
451 4801
451 4900
451 4934
451 5110
451 5114
451 5435
451 5662
451 5732
451 5880
452 738
452 915
452 1109
452 1115
452 1362
452 1810
452 2185
452 3086
452 3305
452 3771
452 3812
452 3858
452 3896
452 4748
452 5241
452 5389
452 5558
452 5640
452 5655
452 5701
453 2571
453 3253
454 473
454 976
454 1464
454 1468
454 1566
454 1621
454 2453
454 2699
454 2991
454 3153
454 3317
454 3526
454 3690
454 3712
454 3904
454 4023
454 4699
454 4966
454 5156
454 5348
454 5522
454 6040
455 479
455 783
455 1022
455 1270
455 1845
455 2883
455 3472
455 3983
455 4152
455 4273
455 4453
455 4822
455 5193
455 5227
455 5358
455 5474
455 5765
455 5852
456 460
456 479
456 483
456 998
456 1093
456 1126
456 1688
456 1821
456 1872
456 2097
456 2211
456 2279
456 2361
456 2471
456 2594
456 2826
456 2931
456 2948
456 3705
456 3756
456 3881
456 3882
456 3888
456 4145
456 4186
456 4197
456 4223
456 4283
456 4382
456 4397
456 4476
456 4628
456 4803
456 4974
456 5157
456 5269
456 5673
456 6054
457 582
457 731
457 1494
457 1574
457 1734
457 3030
457 3597
457 4411
457 4474
457 4802
458 3369
459 889
459 1107
459 2233
459 2887
459 3453
459 3990
459 4360
459 4472
459 5060
459 5805
459 5984
460 4507
460 4739
460 4763
460 4834
460 5003
460 5017
460 5125
460 5139
460 5299
460 5317
460 5424
460 5432
460 5476
460 5484
460 5548
460 5559
460 5609
460 5634
460 6013
460 6014
461 486
461 680
461 823
461 919
461 1030
461 1808
461 2063
461 2667
461 3005
461 3184
461 3277
461 3486
461 3716
461 3773
461 3796
461 3964
461 4169
461 4830
461 4831
461 5074
461 5190
461 5191
461 5668
461 5779
462 1313
462 1843
462 1914
462 2136
462 2161
462 2679
462 2830
462 2857
462 3031
462 3163
462 3545
462 3640
462 3817
462 3844
462 3846
462 4351
462 4657
462 5196
462 5523
462 5876
462 5913
462 5918
462 6073
463 859
463 1013
463 1161
463 2113
463 2374
463 2582
463 3747
463 3885
463 3918
463 4079
463 4278
463 4663
463 5245
463 5558
464 510
464 756
464 1723
464 2885
464 3011
464 3696
464 5459
464 5781
465 484
465 2439
465 4827
466 5814
466 5832
467 470
467 1004
467 1005
467 1167
467 2214
467 2322
467 2613
467 2769
467 2906
467 3227
467 3837
467 3841
467 4023
467 4345
467 4764
467 4766
467 4877
467 5073
467 5524
467 5991
468 1132
468 1234
468 2203
468 2534
468 3885
468 4226
468 4314
468 4634
468 5909
469 2891
469 4184
470 719
470 732
470 1004
470 1044
470 1139
470 1455
470 1566
470 2463
470 2508
470 2971
470 3002
470 3690
470 3837
470 4023
470 4167
470 4280
470 4398
470 4411
470 4672
470 4712
470 5945
472 503
472 518
472 929
472 1146
472 1289
472 1602
472 2170
472 3058
472 3261
472 3934
472 3936
472 3960
472 4444
472 4448
472 4489
472 4904
472 5121
472 5681
473 951
473 1466
473 1937
473 2242
473 2317
473 2468
473 2837
473 3765
473 4114
473 4374
473 4492
473 4751
473 4815
473 5397
473 5457
473 5582
473 5645
474 907
474 1361
474 1673
474 2274
474 2827
474 2893
474 4590
475 713
475 789
475 3152
475 3171
475 3310
475 4917
475 5001
475 5066
475 5119
475 5353
475 5494
476 479
476 1276
476 1295
476 1296
476 1297
476 1304
476 1831
476 2262
476 3160
476 3300
476 3380
476 3381
476 3390
476 3392
476 3393
476 3463
476 3520
476 3698
476 5351
476 5420
476 5692
476 5696
476 5702
476 5710
476 5839
476 5926
476 5938
476 5941
476 5960
476 5962
476 6039
476 6048
476 6058
476 6060
476 6069
477 805
477 830
477 1985
477 2477
477 3663
477 3757
477 5680
478 725
478 890
478 2383
478 2839
478 3247
478 3890
478 5879
479 5082
479 5129
479 5140
479 5293
479 5431
479 5481
479 5615
479 5693
479 5738
479 5831
479 5960
480 1412
480 4646
480 5813
481 655
481 724
481 735
481 800
481 1126
481 1660
481 1665
481 2740
481 3224
481 3739
481 3838
481 4102
481 4299
481 4465
481 5082
481 5577
481 5937
482 496
482 830
482 937
482 1321
482 1846
482 1898
482 2051
482 2065
482 2516
482 2531
482 3474
482 4472
482 4517
482 4600
482 4886
482 5731
482 5838
482 5903
483 556
483 748
483 813
483 1093
483 1378
483 1421
483 1553
483 1596
483 1614
483 1670
483 1688
483 1806
483 1820
483 2031
483 2245
483 2338
483 2559
483 2833
483 2863
483 2931
483 2935
483 3124
483 3409
483 3452
483 3688
483 3695
483 3813
483 3981
483 4067
483 4119
483 4305
483 4317
483 4548
483 4635
483 4735
483 4761
483 4784
483 4832
483 4900
483 4926
483 5275
483 5525
483 5827
483 6090
484 1207
484 1319
484 1377
484 2439
484 2460
484 2760
484 2950
484 3165
484 3368
484 3956
484 4378
484 5208
484 5817
485 557
485 852
485 1073
485 1199
485 1229
485 1395
485 1480
485 1714
485 1769
485 1778
485 2000
485 2061
485 2332
485 2456
485 2491
485 2706
485 2759
485 3430
485 3457
485 3594
485 3862
485 3873
485 4033
485 4222
485 4244
485 4289
485 4342
485 4472
485 4488
485 4555
485 4658
485 4660
485 4693
485 4709
485 4838
485 4866
485 5169
485 5205
485 5405
485 5786
485 5917
485 6042
486 654
486 894
486 928
486 1569
486 1628
486 1723
486 1779
486 2267
486 2313
486 2926
486 3881
486 4159
486 4177
486 4295
486 4348
486 4941
486 5221
486 5277
486 5391
486 5959
487 1813
487 3491
487 4313
487 4850
487 5661
488 676
488 754
488 945
488 958
488 1269
488 1314
488 1358
488 1583
488 1617
488 1746
488 1858
488 1922
488 1962
488 2112
488 2207
488 2695
488 2858
488 3092
488 3121
488 3131
488 3191
488 3458
488 3608
488 3632
488 3653
488 4233
488 4293
488 4321
488 4741
488 4958
488 5385
488 5532
488 5565
488 5625
488 5894
488 5908
489 1160
489 1192
489 1887
489 1971
489 2076
489 2154
489 2490
489 2724
489 3446
489 3755
489 4516
489 5087
489 5136
490 2173
490 2385
490 2920
490 2956
490 3177
490 3486
490 3627
490 4820
490 5187
491 4203
492 589
492 2039
492 4659
