%%MatrixMarket matrix coordinate pattern symmetric
3469 3469 8649
1 19
1 1573
1 2120
1 2635
1 3042
1 3320
2 572
2 2118
2 2649
3 217
3 693
3 1643
3 1817
3 1818
4 3388
5 2746
6 95
6 115
6 185
6 245
6 341
6 415
6 448
6 503
6 631
6 632
6 689
6 690
6 928
6 977
6 1150
6 1394
6 1579
6 1723
6 1739
6 1764
6 1782
6 1973
6 2002
6 2022
6 2391
6 2542
6 2562
6 2566
6 2632
6 2795
6 2835
6 2870
6 2897
6 2949
6 3047
6 3078
6 3132
6 3315
6 3366
6 3414
7 95
7 115
7 245
7 341
7 415
7 448
7 503
7 631
7 689
7 928
7 977
7 1150
7 1394
7 1579
7 1723
7 1739
7 1782
7 1973
7 2002
7 2022
7 2391
7 2566
7 2632
7 2795
7 2835
7 2870
7 2897
7 2949
7 3078
7 3132
7 3315
7 3366
7 3414
8 412
8 975
8 1107
8 1825
8 2174
8 3195
8 3382
9 68
9 69
9 1616
9 2973
9 3415
10 722
10 2093
11 499
12 2334
13 1193
13 1277
13 1699
13 2360
14 1264
14 1636
15 802
15 2707
16 371
16 661
16 787
16 966
16 1088
16 1399
16 1454
16 2052
16 2082
16 2506
16 2556
16 2787
16 3295
17 605
17 2238
17 2369
17 2756
17 2916
18 460
18 2089
19 412
19 1573
19 2120
20 331
20 504
20 1842
20 3339
21 852
22 124
22 741
22 1023
22 1371
22 1866
22 2053
22 2097
22 2281
23 722
24 1078
24 1941
25 472
25 1027
25 1183
26 262
26 582
26 618
26 954
26 1401
26 1718
26 1762
26 1979
26 2699
26 3465
27 2348
27 2631
27 3020
27 3223
27 3240
28 1216
28 1933
28 2372
29 2090
29 2632
30 1583
30 2310
31 559
31 2328
32 151
32 189
32 1395
32 1438
32 1769
32 2797
32 3143
33 2666
33 2719
33 3175
34 784
35 587
35 3038
36 105
36 155
36 1169
37 3085
37 3096
37 3106
38 2725
38 2729
38 3004
39 1274
40 1893
40 2419
41 1037
41 1358
42 546
42 1213
42 1874
42 3189
42 3235
42 3265
43 472
43 966
43 1494
43 1917
43 2552
43 2607
43 2948
44 66
44 279
44 372
44 415
44 450
44 451
44 850
44 1000
44 1227
44 1241
44 1359
44 1741
44 2002
44 2012
44 2091
44 2294
44 2391
44 2516
44 2817
44 2835
44 3019
44 3047
44 3087
44 3143
44 3157
44 3225
44 3305
44 3315
44 3353
45 1744
46 1219
46 2224
46 2228
47 209
47 493
47 729
47 2014
47 2279
47 2446
48 2030
48 2293
49 1196
50 811
50 2842
51 412
51 881
51 1837
51 1917
51 2954
52 1198
52 1820
52 3253
53 186
53 1416
53 3403
54 440
54 2058
54 2581
54 2753
55 215
55 2083
55 2518
55 2786
55 3171
55 3230
56 2144
56 3227
57 956
58 559
58 973
59 1939
59 2550
59 2967
59 2969
59 3294
60 1601
60 1805
61 2072
61 2852
62 2874
63 236
63 854
63 908
63 2026
63 2374
63 2449
64 1014
64 2588
65 344
65 408
65 457
65 497
65 551
65 723
65 724
65 857
65 990
65 1384
65 1388
65 1547
65 1549
65 1654
65 2368
65 2371
65 2388
65 2663
65 2773
65 2878
65 3009
65 3373
66 104
66 450
66 503
66 1639
66 1723
66 1741
66 2562
66 2700
66 2817
66 2835
66 3047
66 3157
67 2331
67 2956
67 3170
68 1616
69 2973
70 1462
70 2050
70 2359
70 2921
71 1000
71 1401
71 2521
72 316
72 929
72 1125
72 2230
73 1451
74 580
74 968
75 2885
76 240
76 936
76 1152
76 1789
76 1959
76 2127
77 1942
78 683
78 1060
78 2050
78 2359
79 315
80 1845
81 1905
81 2315
82 1902
82 2613
83 2703
84 89
84 322
84 399
84 471
84 527
84 682
84 703
84 1056
84 1403
84 1457
84 1470
84 1498
84 1545
84 1687
84 1856
84 1916
84 1930
84 1996
84 2260
84 2782
84 2783
84 3076
84 3142
84 3272
84 3327
84 3342
85 1250
86 147
86 183
86 275
86 899
86 1887
86 1926
86 2024
86 2212
86 2285
86 2766
86 2841
87 176
87 268
87 694
87 874
87 1008
87 1141
87 1841
87 2301
87 2964
87 3158
88 280
88 432
88 1357
88 2434
89 1403
89 1470
89 1545
89 1856
89 1916
89 3327
90 1604
90 3251
91 1253
91 2781
92 295
92 337
92 519
92 679
92 847
92 884
92 957
92 1142
92 1212
92 1735
92 2034
92 2293
92 2335
92 2666
92 2818
92 3175
92 3188
92 3303
92 3469
93 2507
93 3204
94 272
94 679
94 2666
94 3175
95 115
95 245
95 341
95 415
95 448
95 503
95 631
95 632
95 689
95 690
95 928
95 977
95 1150
95 1253
95 1394
95 1579
95 1723
95 1739
95 1764
95 1782
95 1973
95 2002
95 2022
95 2391
95 2566
95 2632
95 2795
95 2835
95 2870
95 2897
95 2949
95 3047
95 3078
95 3132
95 3315
95 3366
95 3414
96 210
96 755
96 1818
96 2665
97 1831
97 2645
98 3174
99 153
99 1144
99 1207
99 1305
99 1728
99 1751
99 2265
99 2450
99 3211
100 432
100 691
100 879
100 1244
100 1338
100 1494
100 1614
100 1717
100 1746
100 1865
100 2123
100 2138
100 2163
100 2183
100 2427
100 2598
100 3111
101 190
101 408
101 510
101 552
101 723
101 990
101 1438
101 1508
101 2039
101 2157
101 2663
101 3258
101 3345
102 885
103 638
103 1064
103 1379
103 1430
103 2126
103 2623
103 3190
104 119
104 680
104 744
104 1028
104 1131
104 1469
104 1489
104 1638
104 1639
104 1688
104 1723
104 1742
104 1830
104 1854
104 2343
104 2371
104 2391
104 2547
104 2562
104 2700
104 2817
104 2943
104 2996
104 3019
104 3258
106 965
106 2159
106 2596
106 2945
107 346
107 950
107 1223
107 1225
107 2446
107 2462
108 2542
109 2618
109 2623
110 647
110 1071
110 1244
110 1382
110 1721
110 2427
110 2606
110 3466
111 3159
112 1994
113 2423
114 2406
115 185
115 245
115 304
115 341
115 415
115 448
115 503
115 631
115 689
115 690
115 774
115 928
115 977
115 1150
115 1344
115 1394
115 1579
115 1723
115 1739
115 1782
115 1814
115 1973
115 2002
115 2022
115 2391
115 2542
115 2562
115 2566
115 2632
115 2680
115 2795
115 2835
115 2870
115 2897
115 2949
115 3047
115 3078
115 3132
115 3157
115 3180
115 3315
115 3366
115 3414
116 194
117 961
117 1414
117 1664
117 2027
117 2163
117 2298
117 2649
117 3094
117 3164
118 387
118 1962
119 327
119 744
119 977
119 990
119 1558
119 1639
119 1799
119 1963
119 2352
119 2509
119 3144
120 3016
121 381
121 1596
122 1913
122 2258
122 2645
123 553
123 894
124 741
124 1371
124 2053
124 2097
124 3319
125 1798
125 2332
125 2685
125 3025
126 2928
127 253
128 1796
129 368
129 534
129 1997
129 2002
129 3015
130 1132
130 1682
130 1685
131 527
131 1270
131 1996
131 2334
132 3292
132 3301
133 2476
134 907
134 1376
135 1034
135 1121
135 1874
135 3036
135 3141
136 827
136 870
136 1508
136 1953
136 3057
137 1067
137 1195
137 2299
137 2562
137 2857
138 761
138 2174
138 3014
139 224
139 1306
140 2175
141 1080
141 1234
142 1007
142 1067
143 688
143 2326
143 3191
143 3431
143 3435
144 990
144 2021
144 2157
144 2798
144 3132
144 3326
144 3385
145 518
145 624
145 1240
145 2012
145 2478
146 785
148 505
148 696
148 1897
148 3114
148 3326
148 3379
149 245
149 1053
149 1439
149 2632
149 2870
149 2882
149 3097
150 580
150 903
150 2982
151 178
151 254
151 324
151 697
151 769
151 855
151 941
151 1396
151 1676
151 1686
151 1805
151 1856
151 1966
151 2167
151 2482
151 2804
151 2808
151 3045
151 3104
151 3139
151 3217
151 3249
151 3374
151 3438
152 1291
152 2181
153 1751
153 3211
154 786
154 1737
154 3429
155 234
155 386
155 662
155 707
155 753
155 939
155 1017
155 1464
155 1689
155 2031
155 2500
156 267
157 2474
158 2474
159 1409
159 2532
159 2551
159 2668
160 802
160 2340
161 506
161 883
161 1361
161 1465
161 1871
161 1995
161 2172
162 1275
163 248
163 497
163 545
163 1991
163 2052
163 2473
163 2654
163 3192
164 1511
164 3171
165 417
165 921
165 2805
166 1744
167 777
167 1847
167 2307
167 2494
168 1078
168 1903
168 1946
168 2451
168 2575
168 3128
169 1449
169 3181
170 659
170 685
170 936
171 1300
172 1131
172 1202
173 1657
174 1631
174 1777
175 182
175 944
175 1040
175 1126
175 2011
176 193
176 1008
176 2005
176 2301
176 3295
177 2809
178 219
178 634
178 697
178 1676
178 2188
178 2337
178 2497
178 2785
179 186
179 3241
179 3403
180 566
180 1008
180 2361
180 3084
181 2375
182 1040
183 513
183 1451
183 1586
183 2627
183 2841
183 2962
183 3405
184 2863
185 415
185 450
185 506
185 1134
185 1569
185 1723
185 1807
185 1871
185 2252
185 2542
185 2562
185 2567
185 2835
185 3087
186 242
186 332
186 588
186 837
186 910
186 1170
186 1416
186 1738
186 1775
186 1848
186 1965
186 1982
186 2125
186 2303
186 2689
186 2772
186 2932
186 2991
186 3124
186 3241
186 3403
187 1358
187 1561
187 1709
187 1788
187 2423
187 2820
187 3458
188 774
188 2816
188 2835
188 2889
188 3047
188 3157
188 3322
189 1438
189 2199
190 815
190 2773
191 1677
191 1745
191 1759
191 1785
192 277
192 1418
192 2208
192 2870
192 3432
193 2005
193 3295
194 933
194 2028
194 2257
194 2869
194 3067
195 264
196 295
196 2281
196 2740
197 742
197 1118
197 1937
198 443
198 688
198 1148
198 1312
198 1400
198 1986
198 2360
198 3117
198 3191
198 3435
199 253
199 2843
200 752
200 2423
200 2843
200 2844
201 984
202 936
202 1152
203 2898
204 475
204 2096
204 2209
204 2352
204 2771
205 933
205 1083
205 1954
205 2761
206 1274
207 2705
208 903
209 493
209 729
209 2446
210 1009
210 2190
210 2245
211 1071
211 1156
211 1813
211 1994
211 3291
212 462
212 1370
213 414
213 1312
213 1396
214 363
214 423
214 1034
214 1438
214 2395
214 2735
215 2786
216 527
216 2686
217 693
217 1643
217 1817
217 1818
217 2292
218 1322
218 2546
218 2761
219 721
219 1011
219 1063
219 2092
219 2653
219 2981
219 3203
219 3361
220 655
220 1552
221 2665
221 2843
222 2491
222 2720
222 2869
223 248
223 469
223 643
223 751
223 856
223 878
223 989
223 1086
223 1088
223 1324
223 1628
223 1707
223 1801
223 1817
223 1901
223 1917
223 2026
223 2366
223 2405
223 2692
223 2718
223 2732
223 2754
223 2787
223 2917
223 3043
223 3194
223 3331
224 374
224 1306
224 2011
225 994
225 2277
226 527
226 1996
227 1496
228 1067
228 1195
228 2562
229 2005
229 2486
229 2645
230 2936
230 3256
230 3377
231 769
231 1034
231 1237
231 1511
231 1530
231 1580
231 1705
231 2099
231 2100
231 2240
231 2968
231 3280
231 3443
231 3456
232 890
232 954
233 1917
234 662
234 707
234 939
234 2031
234 2500
235 867
235 898
235 1163
235 1293
235 1302
235 1502
235 1813
235 1901
235 2123
235 2195
235 2437
235 2515
235 2979
235 3093
235 3199
235 3222
235 3286
235 3291
235 3318
236 1013
236 1520
236 2026
236 2070
237 3279
238 1554
239 1924
240 936
240 1152
240 2636
240 3177
241 936
241 2802
242 3124
243 1855
243 2175
244 497
244 540
244 1119
244 2065
244 2878
244 3066
244 3232
245 341
245 415
245 448
245 503
245 631
245 689
245 690
245 862
245 928
245 977
245 1150
245 1388
245 1394
245 1579
245 1618
245 1723
245 1739
245 1782
245 1973
245 2002
245 2022
245 2391
245 2420
245 2566
245 2632
245 2728
245 2795
245 2835
245 2870
245 2882
245 2897
245 2949
245 3047
245 3078
245 3132
245 3228
245 3315
245 3366
245 3409
245 3414
246 804
246 907
246 1312
246 2667
246 2997
246 3220
247 2076
248 686
248 1917
248 1991
248 2052
248 2654
248 3192
249 742
250 1597
250 2261
250 2539
251 501
251 2379
251 2710
251 2956
251 3319
251 3385
252 1689
253 752
253 1115
253 2414
253 2763
253 2843
253 3446
254 697
254 855
254 941
254 1686
254 1739
254 1805
254 2542
254 3345
254 3374
255 349
255 2460
255 2554
256 478
256 584
256 995
256 1006
256 1505
256 1894
256 2715
256 2819
257 638
257 1395
257 1525
257 2190
257 2808
257 2825
257 3075
258 1158
259 292
259 1109
259 1487
259 1686
259 1964
260 1312
260 1617
261 1167
261 2025
261 2088
261 2174
261 2355
261 2673
261 2802
262 1979
262 2699
263 466
263 1507
264 1813
265 1267
265 1929
266 505
266 761
267 813
267 2222
267 2944
268 2301
269 964
270 2869
271 2602
271 3467
272 679
272 2666
272 3021
272 3175
273 1349
273 1388
274 1176
276 1451
276 1774
277 2208
277 2870
277 3432
278 2156
278 3291
279 450
279 1741
279 2835
279 3087
280 409
280 432
280 1357
280 1452
280 2434
280 2711
281 307
281 962
282 1682
283 671
283 2942
284 624
285 1788
286 309
286 2128
286 2167
286 2292
286 2672
286 2712
286 2761
286 2843
286 3116
287 989
288 3227
289 1133
289 1163
289 1294
289 1560
289 1980
289 2596
289 3110
289 3351
290 2026
290 2449
291 3279
292 1686
292 1964
293 407
294 638
294 1082
294 1432
294 2126
294 3030
294 3073
294 3330
295 337
295 679
295 884
295 1326
295 1612
295 1866
295 2281
295 2293
295 2666
295 2740
295 2818
295 3175
295 3188
295 3291
295 3303
295 3469
296 2094
297 1350
297 2848
298 1505
298 2359
299 1147
300 1305
301 679
301 2666
301 3175
302 1495
302 2617
303 3232
304 415
304 1814
304 2002
304 2835
304 2949
304 3047
304 3315
305 1149
305 2613
305 3118
306 2443
306 2869
307 763
307 962
307 1215
307 2095
307 2521
308 2158
309 543
309 567
309 999
309 1992
309 2128
309 2161
309 2167
309 2291
309 2292
309 2672
309 2712
309 2761
309 2801
309 2843
309 3116
310 534
310 2295
311 975
311 3265
312 3258
313 1723
313 2022
314 1639
315 667
315 972
315 1022
315 1051
315 1182
315 1225
315 1577
315 1798
315 1825
315 1969
315 2057
315 2143
315 2665
315 2998
316 2230
317 769
317 1928
318 2843
319 1244
319 2163
320 615
320 815
321 1098
322 471
322 1487
322 1498
323 453
323 662
323 666
323 939
323 1040
323 1853
324 726
324 803
324 838
324 1196
324 1250
324 1328
324 1539
324 1691
324 1697
324 1770
324 1896
324 2503
324 2537
324 2538
324 2808
325 3337
326 1633
327 744
327 977
327 990
327 1558
327 1799
327 1963
327 2352
327 2509
327 3144
327 3229
328 1833
328 2267
328 2826
329 3142
330 976
331 671
331 1366
331 1401
331 1818
331 1842
331 2269
331 2325
331 2730
331 3339
332 519
332 910
332 1738
332 1848
332 1941
332 1965
332 2196
332 2932
332 2991
332 3020
332 3124
332 3293
333 660
333 786
333 900
333 1203
333 1742
334 528
334 1106
334 1463
334 1999
334 2095
335 2151
335 3248
335 3444
336 925
336 2568
337 884
337 2293
337 3188
337 3303
338 1233
338 2716
338 2844
338 2968
339 1396
339 1705
340 2737
341 415
341 448
341 503
341 631
341 689
341 690
341 928
341 977
341 1150
341 1394
341 1431
341 1579
341 1723
341 1739
341 1782
341 1919
341 1973
341 2002
341 2022
341 2391
341 2566
341 2632
341 2795
341 2835
341 2870
341 2897
341 2949
341 3047
341 3078
341 3132
341 3315
341 3366
341 3414
342 623
342 631
342 3081
342 3325
343 902
343 1693
343 3302
344 408
344 723
344 724
344 857
344 1388
344 1547
344 2371
344 2773
344 3373
345 1081
345 1297
345 2268
345 2300
345 3252
346 761
346 950
346 1445
346 1483
346 1651
346 2522
346 2534
346 2742
346 2791
346 3133
346 3359
346 3373
347 459
347 2338
347 3279
348 2681
349 1236
349 2460
349 2554
349 3287
350 1220
350 1482
350 3261
350 3294
351 2157
351 3019
352 1391
352 2390
353 1668
353 1669
353 2283
354 440
354 938
354 1444
354 2058
354 2121
354 2586
354 3455
355 1805
356 370
356 1168
356 2280
357 449
357 869
358 1531
358 2155
358 2702
359 852
360 1535
361 3026
362 692
363 595
363 919
363 1438
363 1798
363 1836
363 2511
363 2735
363 3004
364 1535
364 3034
365 367
365 2567
366 546
366 3265
367 553
367 1858
367 2567
367 2973
368 534
368 1997
368 2002
368 2381
368 2835
368 3015
368 3315
369 857
369 1438
369 2157
369 2626
369 3439
370 1025
370 1118
370 1168
370 1179
370 1246
370 1846
370 1955
370 2072
370 2280
370 2383
370 2398
370 3097
371 661
371 780
371 966
371 1399
371 1454
371 2052
371 2506
371 2556
371 2986
371 3014
372 2835
373 2747
374 2011
375 2978
376 595
376 903
376 1193
376 1798
377 1902
377 2493
377 2761
378 1696
378 3300
379 723
379 1942
380 461
381 482
381 1577
381 1596
382 849
382 1001
382 1080
382 1238
382 2662
382 2981
382 3060
382 3189
382 3236
382 3279
383 1375
383 1736
384 2525
385 1234
385 1927
385 2484
385 2686
385 2954
386 1464
386 1689
388 1531
388 2702
388 2961
389 963
389 1014
389 1135
389 2950
389 3301
390 962
390 1215
391 2068
392 436
392 3032
392 3298
393 752
393 815
393 1202
393 1524
393 1855
393 1870
393 2026
393 2205
393 2378
393 2403
393 2435
394 2091
394 2954
395 2938
395 3234
396 629
396 1394
396 1821
396 2022
396 2235
396 2897
397 3455
398 916
398 1312
398 2266
399 1545
399 2260
399 3327
400 580
400 1285
400 1508
400 1831
400 2262
400 2512
401 595
401 1193
402 987
403 515
403 700
403 773
403 806
403 1356
403 1703
403 1773
403 2709
403 2933
403 3259
404 497
404 1513
405 519
405 958
405 1087
405 1428
405 1735
405 2393
405 2788
405 3263
406 3133
407 994
407 1104
407 1961
407 2454
408 490
408 510
408 579
408 723
408 724
408 744
408 857
408 990
408 1152
408 1388
408 1438
408 1547
408 1688
408 1716
408 1723
408 2157
408 2160
408 2197
408 2294
408 2368
408 2371
408 2509
408 2773
408 2817
408 2940
408 2951
408 3144
408 3373
410 1164
410 1567
410 1803
410 2016
410 3033
410 3144
410 3306
411 1098
412 449
412 540
412 719
412 779
412 845
412 881
412 882
412 975
412 1224
412 1497
412 1589
412 1808
412 1829
412 1886
412 1917
412 1922
412 1923
412 1979
412 2174
412 2552
412 2827
412 2898
412 2982
412 3182
412 3189
412 3434
412 3448
412 3452
412 3457
413 1828
413 2655
413 3319
414 1024
414 1312
415 448
415 450
415 503
415 506
415 631
415 689
415 690
415 704
415 928
415 977
415 1000
415 1150
415 1227
415 1359
415 1394
415 1401
415 1579
415 1723
415 1739
415 1782
415 1814
415 1871
415 1971
415 1973
415 2002
415 2022
415 2235
415 2391
415 2473
415 2542
415 2562
415 2566
415 2632
415 2795
415 2811
415 2835
415 2870
415 2897
415 2949
415 3047
415 3078
415 3087
415 3132
415 3143
415 3315
415 3366
415 3414
416 432
418 1934
418 2190
418 2623
418 2625
419 449
419 779
419 1979
419 2633
420 1002
420 1354
420 1758
420 1925
421 863
421 1877
421 3017
422 947
422 1230
422 2713
424 1077
424 1078
424 1903
424 2012
424 3398
425 1036
425 1254
425 1469
425 2014
425 2147
425 2305
425 2467
425 2754
426 1102
427 1935
427 3318
428 3310
429 485
429 1608
430 849
430 1080
430 2981
431 572
431 1276
431 1706
431 3120
432 594
432 1137
432 1289
432 1291
432 1357
432 1370
432 1534
432 1870
432 2434
432 2498
432 3182
433 1580
433 2511
434 1592
434 3382
435 746
436 1032
436 1325
436 1386
436 1758
436 2625
436 2764
436 3032
436 3298
436 3425
437 867
437 1961
437 2854
438 1389
439 2092
440 659
440 685
440 926
440 936
440 938
440 1188
440 1200
440 1444
440 1533
440 2058
440 2581
440 2586
440 2753
440 2885
441 1505
441 1822
441 2359
442 2158
443 1580
443 2360
444 2395
444 2997
445 1396
446 565
446 723
446 1697
446 1752
446 1875
446 1942
446 1966
446 2243
446 3414
447 808
448 503
448 631
448 689
448 690
448 928
448 977
448 1150
448 1394
448 1579
448 1723
448 1739
448 1782
448 1973
448 2002
448 2022
448 2391
448 2566
448 2632
448 2795
448 2835
448 2870
448 2897
448 2949
448 3047
448 3078
448 3132
448 3315
448 3366
448 3414
449 779
449 845
449 869
449 1224
449 1886
449 1991
449 2404
450 506
450 850
450 1000
450 1227
450 1359
450 1741
450 1871
450 1958
450 2002
450 2391
450 2516
450 2835
450 3019
450 3047
450 3087
450 3143
450 3157
450 3315
451 2091
451 3047
452 1253
452 1274
453 662
453 939
453 1040
453 1853
454 1629
454 3268
455 867
455 901
455 1106
455 1901
455 2005
455 2061
455 2124
455 2973
455 3107
455 3217
456 714
456 3387
457 892
457 996
457 1087
457 1126
457 1245
457 1907
457 2025
457 2174
457 3014
457 3040
457 3263
458 921
458 2080
459 2995
460 527
460 891
460 1563
461 855
461 993
461 2187
461 3053
463 1297
463 2081
463 2300
464 1689
465 2870
466 1153
466 1168
466 1507
466 1616
466 3019
467 600
468 533
469 966
469 1801
469 2917
470 607
470 761
470 996
470 1087
470 1091
470 1787
470 1913
470 2051
470 2329
470 2487
470 3222
470 3263
471 1487
471 1498
471 1687
472 660
472 974
472 1027
472 1201
472 1510
472 1621
472 2140
472 2197
472 2574
472 2607
472 2948
473 2087
474 897
474 1329
474 1562
474 1914
475 1273
475 1845
475 2352
475 2509
475 2960
476 2623
477 1942
479 505
479 679
479 760
479 2666
479 3175
480 1434
481 2823
482 663
482 897
482 1151
482 2305
482 3248
482 3444
483 1788
484 2012
484 2294
484 3065
485 584
485 1608
485 1993
485 2715
486 3383
487 1696
488 539
488 559
488 1608
488 1936
488 2083
488 2129
489 718
489 1194
489 1272
489 1377
489 1598
489 2687
489 2778
489 3005
490 1064
490 2899
491 625
491 1196
491 1477
491 1878
491 2198
491 2315
491 2962
491 3319
491 3449
492 1782
492 3148
493 2446
494 663
494 1608
494 2715
495 2921
496 3074
496 3322
497 551
497 580
497 776
497 1090
497 1119
497 1513
497 1742
497 1991
497 2878
497 3009
497 3014
498 1216
498 3197
499 3302
500 960
500 1008
501 1825
501 2379
501 2922
501 2956
502 511
502 800
502 904
502 1154
502 1159
502 1177
502 1279
502 1382
502 1516
502 2030
502 2598
502 2683
502 3018
502 3137
502 3269
503 631
503 689
503 690
503 928
503 977
503 1150
503 1394
503 1579
503 1723
503 1739
503 1782
503 1814
503 1973
503 2002
503 2022
503 2391
503 2566
503 2632
503 2795
503 2835
503 2870
503 2897
503 2949
503 3047
503 3078
503 3132
503 3157
503 3180
503 3315
503 3366
503 3414
505 761
505 1897
505 3114
505 3175
505 3379
506 1150
506 1395
506 1569
506 1688
506 1723
506 1871
506 2562
506 2705
506 2835
506 3087
506 3366
506 3460
507 899
507 2024
507 2212
508 1508
508 1907
508 2329
509 556
509 737
509 1078
509 1793
509 2739
510 1328
511 1382
511 1981
511 2978
511 3269
512 3167
513 866
513 1451
513 1767
513 1942
513 3468
514 2066
514 2841
515 3259
516 3454
517 519
517 1735
518 793
518 1240
518 1452
518 2137
518 2299
518 2543
518 2661
519 531
519 958
519 1415
519 1428
519 1735
519 1941
519 1960
519 1965
519 2393
519 2648
519 2692
519 2788
519 2809
519 2829
519 3028
519 3175
520 1622
520 2689
521 869
522 527
522 1996
523 1049
523 1750
523 1819
523 2076
524 1492
524 2382
525 3375
526 1788
527 898
527 1056
527 1996
527 2334
527 2492
527 2686
528 1463
529 714
529 1034
529 1192
529 1373
529 2068
529 2282
529 2887
529 2966
529 2970
530 706
530 1098
530 1942
530 2237
530 3117
530 3214
531 1735
531 3028
532 689
532 1579
532 2795
532 3132
533 1994
534 671
534 1997
534 2002
534 2295
534 2848
534 2942
534 3015
534 3266
535 671
535 1122
535 1147
535 1172
535 1265
535 1818
535 2269
535 3217
536 1130
537 2613
537 3118
538 577
538 887
538 948
538 969
538 1019
538 1097
538 1238
538 1349
538 1441
538 1523
538 2338
538 2360
538 2377
538 2568
538 2808
538 3038
538 3115
538 3311
539 1608
539 2083
540 779
540 1068
540 1742
540 2065
540 2462
540 2545
540 2547
540 2832
540 3232
541 693
541 1087
541 1397
542 1841
542 2301
542 2515
544 2490
544 2496
545 1991
546 717
546 933
546 975
546 1213
546 1269
546 2028
546 2079
546 3235
546 3265
547 2645
548 767
548 1377
548 3029
549 907
549 2631
550 840
550 2944
550 3227
551 2368
552 2039
552 2663
552 3258
552 3345
553 894
553 1060
553 1737
553 1755
553 1858
553 2864
554 729
554 2014
555 1180
555 2424
556 737
556 1078
556 1793
556 1970
556 2739
556 3100
557 3072
558 964
559 933
559 949
559 973
559 1014
559 2128
559 2328
559 3222
560 802
561 737
562 2090
563 2212
564 676
564 1972
564 3428
565 629
565 651
565 1378
565 1394
565 1875
565 1906
565 2043
565 2103
565 2243
565 2952
565 3161
566 687
566 1008
566 1298
566 1853
566 1957
566 2361
566 2489
566 3084
568 598
568 790
568 2204
569 1678
570 2236
571 1942
572 2649
573 770
573 1102
573 1571
573 1731
573 2092
573 2179
573 2726
573 3102
574 2843
574 2855
575 2434
576 867
576 1747
577 1349
577 2808
577 3038
578 1433
578 1730
578 2233
579 1152
579 1338
579 1688
579 1716
579 1723
579 2160
579 2509
579 3111
580 738
580 880
580 903
580 913
580 1119
580 1526
580 2231
580 2611
580 2889
580 2895
580 2982
580 3012
581 2611
582 618
582 805
582 871
582 1476
582 1493
582 3289
582 3465
583 1737
583 3303
584 961
584 1119
584 1505
584 1608
584 1993
584 2715
584 3298
585 586
585 1942
586 723
586 1369
586 1942
587 1942
587 3038
588 2125
588 2772
589 3435
590 604
590 2239
591 2094
591 2320
591 2976
592 1486
592 2243
592 3161
593 2756
595 903
595 1193
595 1836
595 2691
596 2093
597 815
599 1999
599 2575
600 859
600 2331
600 2656
601 1231
601 1478
601 3449
602 693
603 1827
604 1066
604 1267
604 1521
604 1929
604 2239
604 2718
604 2872
604 3204
604 3385
605 2756
606 1513
606 2800
606 3013
608 784
608 2128
609 2328
610 1267
610 1810
610 3047
611 1341
612 977
613 2511
614 1265
614 1424
614 1911
614 2181
614 2208
614 2210
614 2895
614 2959
614 3050
614 3096
614 3200
614 3392
614 3410
616 1651
616 1999
616 2000
617 649
618 1458
618 1718
618 1901
618 2064
618 2423
618 3458
618 3465
619 1842
619 2369
620 2473
620 3401
621 1800
621 3047
621 3169
621 3386
621 3420
622 3289
623 631
623 1934
623 2190
623 3081
624 1240
624 2218
624 3279
625 1774
626 1477
626 1586
626 1772
627 1334
627 1908
627 2401
628 788
628 1582
628 2312
628 2893
629 1394
629 1821
629 1906
629 2022
629 2235
629 2243
629 2897
630 1397
631 689
631 690
631 928
631 977
631 1150
631 1287
631 1337
631 1363
631 1394
631 1579
631 1723
631 1739
631 1782
631 1821
631 1973
631 2002
631 2022
631 2235
631 2324
631 2391
631 2540
631 2566
631 2632
631 2795
631 2835
631 2870
631 2897
631 2949
631 3047
631 3078
631 3132
631 3315
631 3366
631 3414
632 713
632 1432
632 2126
632 3414
633 2375
634 888
635 1034
635 1263
635 1744
635 1909
635 3267
636 816
636 1062
636 1630
636 1655
636 2390
636 2408
636 3239
636 3440
637 2300
637 2456
637 2799
638 791
638 1039
638 1064
638 1379
638 1432
638 1474
638 1790
638 1902
638 2126
638 2201
638 2203
638 2623
638 2931
638 2938
638 3311
639 1190
639 2896
640 1586
640 1588
641 1643
641 2645
642 731
642 2483
642 2773
643 856
643 878
643 989
643 3331
644 2928
645 1301
646 801
646 3305
647 1071
648 798
648 936
648 1083
648 2761
649 1427
649 2421
650 954
650 1818
650 3107
651 2952
652 1338
652 1746
653 3202
654 943
654 3274
654 3362
655 671
655 2341
655 2576
656 898
656 3289
657 1505
657 2584
658 797
658 2117
659 685
659 933
659 936
659 1066
659 1291
659 2170
659 3463
660 974
660 1203
660 2140
661 966
661 1399
661 1454
661 2052
661 2506
661 2556
662 666
662 707
662 939
662 1037
662 1040
662 1087
662 1853
662 2031
662 2358
662 2500
662 2744
662 3222
663 1608
663 1768
663 3248
663 3444
664 2236
665 1502
665 2481
665 2827
665 3347
666 939
666 1040
667 1225
667 3179
668 3267
669 928
670 1388
671 1147
671 1366
671 1401
671 1818
671 1950
671 2042
671 2269
671 2325
671 2341
671 2576
671 2824
671 2942
671 3217
671 3318
672 936
672 1083
672 1358
672 1561
672 1954
672 2491
672 2761
672 3260
673 1329
673 1850
673 1989
673 2848
674 899
674 2024
674 2212
675 752
675 1115
676 1120
676 1243
676 1690
676 1762
676 1972
676 2473
676 3107
676 3428
677 2870
677 3326
677 3432
678 2752
678 3259
679 760
679 2666
679 3175
680 803
680 1742
680 1828
680 2547
680 2889
681 739
684 761
684 860
684 951
684 2686
685 926
685 936
685 1052
686 1917
687 1298
687 1853
687 1957
687 2361
687 2489
687 3084
688 2326
688 3191
688 3435
689 928
689 977
689 1150
689 1394
689 1579
689 1723
689 1739
689 1782
689 1973
689 2002
689 2022
689 2391
689 2469
689 2566
689 2632
689 2795
689 2835
689 2870
689 2897
689 2949
689 3078
689 3132
689 3315
689 3366
689 3414
690 928
690 977
690 1150
690 1394
690 1579
690 1723
690 1739
690 1782
690 1973
690 2002
690 2022
690 2391
690 2566
690 2632
690 2795
690 2835
690 2870
690 2897
690 2949
690 3047
690 3078
690 3132
690 3315
690 3366
690 3414
691 1144
691 1244
691 1614
691 2163
691 2265
691 2427
691 2450
692 947
692 1476
692 1493
692 2369
692 2458
692 2936
692 3299
693 694
693 882
693 1087
693 1187
693 1397
693 1643
693 1726
693 1801
693 1817
693 1818
693 1899
693 2026
693 2292
693 2350
693 2718
693 3022
693 3318
694 2301
695 2736
695 3279
696 3326
697 705
697 735
697 1148
697 1676
697 2289
697 2482
697 2575
697 2628
697 2705
697 3045
697 3304
697 3438
698 3311
699 1452
699 1874
699 2592
700 1300
700 1356
700 1703
700 2026
700 3259
701 807
701 1119
701 1746
701 1801
701 2117
701 2879
701 2995
701 3003
701 3103
701 3209
701 3332
702 1712
703 1687
703 1856
704 1150
704 1394
704 1723
704 1782
704 1971
704 2022
704 2235
704 2562
704 2811
704 2897
704 3366
705 2575
707 939
707 2500
708 1141
708 2474
709 2988
710 2459
711 940
711 2014
712 3305
713 992
713 1095
713 1444
713 1765
713 1786
713 2058
713 2098
713 2386
713 2573
714 1979
714 2970
714 3387
715 1312
716 1899
717 1269
718 1194
718 1272
718 1377
718 2687
719 1922
719 3434
720 1549
721 2452
721 2686
721 3407
722 2093
722 3125
723 724
723 857
723 990
723 1388
723 1547
723 1942
723 2371
723 2663
723 2773
723 3144
723 3373
724 744
724 857
724 1388
724 1547
724 2371
724 2773
724 2817
724 3373
725 2258
726 1250
726 1328
727 2575
727 3307
728 3191
728 3435
729 1328
729 2014
729 2446
730 780
730 3014
731 2483
731 2531
731 2773
732 1013
732 2249
733 3023
734 2670
734 2678
734 3155
735 2705
735 3304
736 933
736 2087
736 2224
736 2226
736 2228
736 3090
737 1793
737 1986
737 2441
738 913
738 1175
738 1203
738 1508
738 1683
738 2599
738 2894
738 3126
739 1176
740 804
740 2528
741 1157
741 1371
741 1985
742 1118
742 1937
743 1371
744 865
744 977
744 990
744 1082
744 1489
744 1558
744 1799
744 1830
744 1963
744 2352
744 2371
744 2509
744 2817
744 3144
744 3229
744 3258
745 1582
745 1776
746 1745
746 2966
746 3323
746 3418
747 780
747 2966
748 1474
748 1581
748 1650
749 1093
749 1277
749 3312
750 1673
750 1738
751 1081
751 1309
751 1580
751 1679
751 1744
751 2548
751 2816
751 3080
751 3451
752 772
752 1115
752 1171
752 1476
752 1493
752 1524
752 1660
752 1765
752 1896
752 1901
752 2177
752 2178
752 2213
752 2278
752 2391
752 2414
752 2609
752 2630
752 2844
752 2935
752 3149
752 3206
752 3291
752 3391
754 1134
754 2203
755 1818
755 2665
756 2473
757 1029
757 1871
757 2203
757 3087
757 3243
758 2030
758 2123
759 1773
759 2249
760 2666
760 3175
761 804
761 875
761 919
761 951
761 1312
761 1445
761 1464
761 1495
761 2033
761 2174
761 2255
761 2479
761 2517
761 2623
761 2773
761 2789
761 2791
761 3263
761 3279
761 3296
761 3330
761 3359
761 3373
762 1193
763 962
764 2802
765 1567
766 1353
767 1377
767 2112
767 3029
768 1453
768 2114
768 2603
768 2730
768 2737
768 2849
768 3339
769 771
769 1098
769 1114
769 1119
769 1396
769 1543
769 1705
769 1928
769 1942
769 2009
769 2106
769 2406
769 2591
769 2767
769 3391
770 1731
771 1856
771 1928
771 2591
771 2767
772 1445
772 2935
773 1356
773 1773
773 3259
774 2002
774 2835
774 3047
774 3157
774 3322
775 1870
775 2981
776 3014
777 2307
777 2494
778 852
778 1944
778 2368
779 781
779 826
779 2455
779 2552
780 2966
780 3014
781 1880
781 2455
782 3331
783 1738
784 921
784 2128
784 2982
785 3292
786 870
786 900
786 1055
786 1266
786 1737
786 1742
786 1883
786 3232
786 3429
787 966
787 1399
787 1454
787 2052
787 2082
787 2787
787 3295
788 2734
788 2893
789 1942
790 1035
790 1099
790 2813
790 3234
791 1064
791 1379
792 1730
792 1942
793 1452
794 1166
794 1303
794 1734
794 2485
794 2573
794 2796
795 2083
796 1580
796 1722
796 2197
798 936
798 1083
798 2761
798 3458
799 977
800 904
800 909
800 1177
800 1705
800 3269
801 1113
801 3305
802 2300
802 2340
802 2707
802 2765
802 2814
802 3202
802 3321
803 838
803 1146
803 1539
803 1742
803 2174
803 2398
803 2633
803 3209
803 3232
804 1016
804 1119
804 1148
804 1312
804 1451
804 1802
804 2033
804 2528
804 2765
804 2822
804 2841
804 3012
804 3117
804 3119
804 3134
804 3220
804 3313
805 871
805 1476
805 1493
806 1356
806 3259
808 3348
809 1133
810 893
811 2309
811 2842
812 2123
813 2944
814 1019
814 2009
815 1306
815 1763
815 2229
815 2378
815 2544
815 2773
815 2845
815 3258
815 3285
816 899
816 2024
816 2212
816 2392
816 2394
816 3239
817 1301
817 1568
817 2490
818 1788
819 2488
820 1430
821 2282
822 2801
823 863
823 1843
824 1202
825 1000
825 1232
825 2171
825 3019
826 2552
827 870
827 1500
827 1508
827 1759
827 1953
827 2927
827 3057
828 1912
828 2912
829 1568
829 2490
830 1129
830 1253
830 1580
830 1885
830 2445
830 3037
831 1736
832 3301
833 1863
833 1967
834 1267
834 1929
835 1249
836 1090
836 3208
836 3354
837 1283
837 1775
837 1982
837 2303
838 1539
839 893
839 1575
839 2282
839 3427
840 3227
841 1061
841 1134
841 1144
841 1672
841 1881
841 2450
841 3148
842 1066
842 2410
842 2670
842 3121
842 3201
842 3461
843 1073
843 3173
844 1747
844 1806
845 1886
845 1991
845 2404
845 3269
846 1651
848 1093
848 1119
848 1121
848 1370
848 1534
848 1559
848 3060
848 3182
849 1080
849 1093
849 1119
849 1370
849 2981
849 3060
849 3135
850 1000
850 2391
850 2835
850 3019
850 3087
851 990
852 898
852 981
852 1275
852 1302
852 1944
852 2814
852 3202
852 3203
852 3321
853 3099
853 3203
854 2026
855 941
855 993
855 1114
855 1686
855 1805
855 3053
855 3374
856 989
856 3331
857 1388
857 1438
857 1547
857 1619
857 2157
857 2371
857 2509
857 2773
857 3373
858 1479
858 1809
858 2250
860 1312
861 3034
862 905
862 2870
862 2882
862 3228
863 1843
863 1877
863 2584
863 3017
864 947
865 1082
867 898
867 901
867 1096
867 1343
867 1747
867 1795
867 1961
867 2038
867 2650
867 2970
867 3025
867 3107
868 1772
869 1068
869 1087
869 1707
869 1754
869 1816
869 2052
869 2633
869 2735
869 3192
869 3263
869 3271
870 1055
870 1508
870 1642
870 1883
870 3279
871 1493
872 1066
873 2333
874 1141
874 1841
874 2964
876 1533
876 2701
876 2809
876 2938
877 1723
877 3466
878 989
878 3331
879 1244
879 2123
879 2163
880 1121
880 1337
880 1370
880 1534
880 1644
880 2566
880 3182
881 1589
882 1190
882 1592
882 1911
882 1923
882 2404
882 2896
882 3318
883 1871
884 2293
884 2793
884 2818
884 3188
884 3469
885 1350
885 1882
885 3274
886 2681
889 2823
889 3032
890 954
890 1071
890 2608
890 3259
891 2246
892 996
893 3427
894 2666
894 3175
895 1574
895 1949
895 2121
896 1866
896 2281
896 2740
897 1329
897 1914
897 2305
897 2664
898 901
898 1096
898 1147
898 1302
898 1795
898 1901
898 1944
898 1961
898 2038
898 2193
898 2195
898 2650
898 2680
898 2808
898 2914
898 2970
898 2978
898 3025
898 3052
898 3107
898 3217
898 3289
899 946
899 1508
899 1520
899 2024
899 2212
899 2329
899 2392
899 2766
899 3297
899 3369
899 3410
900 1742
901 1795
901 1818
901 1901
901 1961
901 2195
901 2646
901 2808
901 3107
901 3113
901 3217
901 3310
902 1123
902 1693
902 3302
903 1119
903 1193
903 1370
903 2197
903 2611
903 2716
903 2982
903 3122
904 3269
905 2870
906 2375
906 3001
907 1376
907 2001
907 2395
907 2578
907 2631
907 2667
907 2997
907 3365
908 2026
909 1705
909 1760
909 1942
910 1738
910 1848
910 2991
910 3124
911 2828
912 1168
912 1527
912 2270
912 2288
912 2632
912 2882
912 3019
912 3228
912 3231
912 3415
913 1203
913 2894
913 3126
914 1536
914 1704
915 2067
915 2214
915 2397
917 2678
918 1158
919 2511
919 3004
920 1089
920 3377
921 1124
921 1511
921 1965
921 2080
921 2100
921 2144
921 2488
921 2501
921 2515
921 2669
921 3028
922 1938
922 2052
922 2080
923 1297
923 2300
923 3184
924 2012
924 2294
925 1651
925 2568
925 2791
926 936
927 2828
927 2831
928 977
928 1150
928 1394
928 1579
928 1723
928 1739
928 1782
928 1973
928 2002
928 2022
928 2391
928 2566
928 2632
928 2795
928 2835
928 2870
928 2897
928 2949
928 3047
928 3078
928 3132
928 3315
928 3366
928 3414
929 1125
929 2230
929 3203
930 2662
931 968
932 2959
933 2028
933 2224
933 2226
933 2257
933 2869
933 3067
934 3263
934 3280
935 2602
936 1052
936 1083
936 1152
936 1402
936 1561
936 1789
936 1959
936 2127
936 2436
936 2491
936 2636
936 2735
936 2761
936 2869
936 2989
936 2997
936 3167
936 3177
936 3260
937 1275
938 2058
939 1037
939 1040
939 1853
939 2031
939 2358
939 2500
940 1094
940 2185
940 2347
940 2418
941 1686
941 1805
941 3374
942 1453
942 2114
943 2828
944 2011
945 1880
946 2024
946 2212
947 1230
947 2216
947 2458
947 2713
947 3299
948 1238
948 2338
949 963
949 1014
949 1135
949 2588
950 1445
950 1483
950 2522
952 2978
953 2435
954 1401
954 1707
954 1718
954 1762
954 1818
954 3107
954 3257
955 1033
955 1074
955 1191
955 1631
955 1831
955 3156
956 2272
956 2929
956 3437
957 1142
957 1953
957 2859
957 3357
958 1735
958 2393
958 2597
958 2788
958 3381
959 1947
960 1008
960 2361
960 2789
961 1119
961 1505
961 1664
961 3036
962 1215
962 1639
962 2005
962 2095
962 2419
962 2477
962 2521
962 2810
962 3467
963 1014
963 1135
963 2588
963 3301
964 1797
964 2864
964 2928
965 1225
965 1301
965 2159
966 1088
966 1399
966 1454
966 1494
966 2052
966 2082
966 2506
966 2552
966 2556
966 2760
966 2787
966 2917
966 3271
966 3295
967 3119
968 1328
968 3122
968 3268
968 3338
970 1866
970 2281
971 1173
971 1848
972 1225
973 1443
974 2140
975 1213
975 1572
975 1968
975 3235
975 3265
976 2502
976 2557
977 990
977 1150
977 1158
977 1377
977 1394
977 1558
977 1579
977 1723
977 1739
977 1763
977 1782
977 1799
977 1963
977 1973
977 2002
977 2022
977 2119
977 2177
977 2352
977 2391
977 2509
977 2566
977 2632
977 2663
977 2687
977 2778
977 2795
977 2835
977 2870
977 2897
977 2949
977 3029
977 3047
977 3067
977 3078
977 3132
977 3144
977 3315
977 3366
977 3414
978 2955
979 2539
979 3036
980 1416
982 1211
982 1704
982 3253
983 3291
983 3302
984 1532
984 3064
985 2012
986 1921
987 1607
987 3160
988 1934
988 2190
989 2902
989 3331
990 1388
990 1490
990 1558
990 1799
990 1963
990 1966
990 2157
990 2352
990 2353
990 2388
990 2509
990 2663
990 2798
990 3132
990 3144
990 3146
990 3213
990 3311
990 3326
991 1805
992 1765
992 2573
993 3053
994 1104
994 1961
994 2207
994 2362
994 2454
994 3166
996 1913
996 2025
996 3040
996 3222
997 1235
998 2898
999 2128
1000 1160
1000 1232
1000 1401
1000 1446
1000 1460
1000 1639
1000 2002
1000 2091
1000 2171
1000 2391
1000 2521
1000 2632
1000 2835
1000 2907
1000 3019
1000 3047
1000 3087
1000 3157
1001 1708
1001 2470
1001 2662
1001 3071
1001 3421
1002 1925
1003 2557
1003 3210
1004 1582
1004 2975
1005 1430
1005 1672
1006 1732
1006 1757
1006 2819
1007 1067
1007 2562
1008 1448
1008 2301
1008 2361
1008 2789
1008 3084
1009 2190
1010 3182
1012 2008
1013 1560
1013 2070
1013 2249
1014 1135
1014 2588
1014 2950
1014 3301
1015 3303
1016 2841
1017 2500
1018 1606
1018 2992
1018 3075
1019 2009
1019 2360
1019 2377
1020 1801
1021 1676
1021 2484
1021 2567
1021 2686
1022 1825
1023 1866
1023 2281
1025 1168
1025 1955
1025 2398
1026 2678
1028 1328
1028 1654
1028 1854
1028 1870
1028 2156
1028 2157
1028 2806
1028 2882
1028 3019
1028 3228
1028 3348
1028 3371
1028 3376
1029 1519
1029 2580
1029 2623
1029 3311
1030 1266
1031 2897
1032 1150
1032 1386
1032 1610
1032 1672
1032 1782
1032 2246
1032 2247
1032 2625
1032 2686
1032 2918
1032 3104
1033 1631
1033 1744
1033 1831
1034 1050
1034 1121
1034 1310
1034 1438
1034 1744
1034 1874
1034 1988
1034 2068
1034 2282
1034 2377
1034 2395
1034 2934
1034 2966
1034 2968
1034 3036
1034 3067
1034 3141
1034 3284
1034 3443
1035 2621
1035 2813
1037 1358
1037 1853
1037 2358
1038 1359
1038 1388
1039 1064
1039 1379
1040 1853
1040 2744
1041 1322
1041 2546
1042 3452
1043 3106
1043 3454
1044 3392
1044 3416
1045 1335
1045 1436
1045 1628
1045 2959
1046 1047
1046 2300
1046 2693
1046 2830
1046 3339
1048 1436
1048 1503
1048 1512
1048 1695
1048 2321
1050 2080
1050 2215
1050 3443
1051 2057
1051 2143
1053 1374
1053 1420
1053 1439
1053 2152
1053 2154
1053 2882
1053 3086
1053 3095
1053 3392
1053 3415
1054 1103
1054 1734
1055 1642
1055 1883
1056 1996
1057 3008
1057 3234
1058 2873
1059 1354
1059 3023
1060 2864
1062 2390
1063 2092
1063 2981
1063 3203
1063 3361
1064 1379
1064 2806
1064 3060
1064 3376
1064 3383
1065 1841
1065 2301
1066 1078
1066 1553
1066 1788
1066 1798
1066 2055
1066 2718
1066 2872
1066 3298
1066 3461
1067 1070
1067 1195
1067 1805
1067 1966
1067 2299
1067 2529
1067 2562
1067 2857
1068 2462
1068 2505
1068 2735
1068 3367
1069 3311
1070 2542
1070 2562
1071 1156
1071 1994
1071 2608
1072 1601
1074 1084
1074 1191
1074 1199
1074 1631
1074 1712
1074 1817
1074 1831
1074 1832
1074 1899
1074 2135
1074 2871
1074 3063
1074 3156
1074 3318
1075 1852
1075 2012
1075 2145
1075 2263
1075 2299
1075 2502
1075 2557
1075 2593
1075 2714
1076 2848
1078 1297
1078 1553
1078 1720
1078 1736
1078 1818
1078 1903
1078 1941
1078 1946
1078 2081
1078 2107
1078 2284
1078 2451
1078 2559
1078 2575
1078 2820
1078 2957
1078 2958
1078 3128
1078 3398
1079 2521
1080 2981
1080 3060
1081 1297
1081 2300
1082 1121
1082 1132
1082 1227
1082 1271
1082 1432
1082 1685
1082 1942
1082 1976
1082 2060
1082 2074
1082 2126
1082 2339
1082 3030
1082 3036
1082 3073
1082 3330
1083 1954
1083 2761
1083 3458
1084 1596
1084 1847
1084 2104
1084 2135
1084 2174
1084 2338
1084 2462
1084 2560
1084 2771
1084 3096
1084 3236
1084 3279
1085 1394
1085 1782
1086 2718
1087 1126
1087 1913
1087 1921
1087 2051
1087 2174
1087 2477
1087 2638
1087 2647
1087 2735
1087 3222
1087 3263
1088 1454
1088 1801
1088 2052
1088 2082
1088 2787
1088 2917
1088 3295
1089 2176
1089 3377
1090 3208
1091 1913
1091 2487
1091 3222
1092 2686
1093 1119
1093 1121
1093 1277
1093 1370
1093 1534
1093 2197
1093 3181
1093 3182
1093 3312
1094 1783
1094 1888
1094 2418
1094 3232
1094 3332
1095 1444
1095 1533
1095 2058
1095 2586
1095 3185
1096 1901
1097 3311
1098 1396
1098 1705
1098 1868
1098 1942
1098 1987
1098 3034
1098 3426
1099 1260
1100 1435
1100 2771
1100 2895
1100 3096
1101 1258
1101 1486
1101 2069
1102 1359
1102 1571
1102 1723
1102 2092
1102 2897
1102 3344
1103 1734
1103 2495
1103 3349
1104 1901
1104 1961
1104 2040
1104 2454
1104 3254
1105 2160
1106 1463
1106 1901
1106 2978
1107 1825
1108 2203
1108 2457
1108 2625
1109 1964
1110 1667
1110 2305
1110 3444
1111 2737
1112 2849
1113 3305
1114 1907
1114 2106
1114 2515
1114 3263
1114 3374
1115 2202
1115 2590
1115 2763
1116 1914
1117 1604
1117 1701
1117 1843
1117 2389
1117 2528
1117 2622
1118 1168
1118 1937
1118 2398
1119 1316
1119 1370
1119 1405
1119 1406
1119 1435
1119 1505
1119 1641
1119 1831
1119 2009
1119 2390
1119 2508
1119 2601
1119 2706
1119 2895
1119 3012
1119 3017
1119 3066
1119 3181
1119 3338
1119 3363
1121 1370
1121 1500
1121 1538
1121 1839
1121 1874
1121 2290
1121 2512
1121 2599
1121 3036
1121 3140
1121 3141
1122 1818
1123 1693
1123 3302
1124 1511
1124 1965
1124 2100
1124 2515
1124 3028
1126 2051
1126 2073
1126 2174
1126 2476
1126 2871
1126 3123
1126 3263
1127 2452
1128 2928
1129 1253
1129 2445
1129 3037
1130 1580
1130 1870
1130 1966
1130 3032
1130 3442
1132 1682
1132 1685
1133 2596
1133 2651
1134 1569
1134 1672
1134 1723
1134 2203
1134 2252
1134 2253
1134 2542
1134 2562
1134 3148
1135 3274
1136 1650
1136 2296
1138 1674
1138 2538
1139 1176
1140 1578
1140 2460
1141 1841
1141 2474
1141 2964
1141 3384
1143 2652
1143 2985
1144 1345
1144 1721
1144 1751
1144 2265
1144 2448
1144 2450
1145 2377
1145 3131
1146 1539
1146 2459
1146 2494
1146 3144
1147 1529
1147 2269
1147 2674
1147 3217
1148 1312
1148 1534
1148 1966
1148 1986
1148 3117
1148 3182
1149 2613
1149 3107
1149 3118
1150 1394
1150 1395
1150 1431
1150 1579
1150 1723
1150 1739
1150 1782
1150 1919
1150 1971
1150 1973
1150 2002
1150 2022
1150 2235
1150 2391
1150 2562
1150 2566
1150 2632
1150 2795
1150 2811
1150 2835
1150 2870
1150 2897
1150 2949
1150 3047
1150 3078
1150 3132
1150 3315
1150 3366
1150 3414
1150 3460
1151 2305
1152 1476
1152 1914
1152 1959
1152 2061
1152 2160
1152 2275
1152 2989
1152 3167
1152 3177
1153 1168
1153 1616
1153 3019
1155 3008
1155 3234
1156 1994
1156 2608
1158 1377
1158 1394
1158 1798
1158 2119
1158 2663
1158 2687
1158 2778
1158 3029
1158 3104
1159 3045
1160 1446
1160 2091
1160 2632
1160 2835
1160 3019
1160 3047
1160 3157
1161 1232
1161 1445
1161 1446
1162 2809
1163 1502
1163 1901
1163 3318
1164 1567
1164 2016
1164 3144
1164 3306
1165 2027
1165 3079
1166 1432
1166 1974
1167 2025
1167 3002
1168 1179
1168 1246
1168 1616
1168 1846
1168 1955
1168 2072
1168 2280
1168 2288
1168 2383
1168 2398
1168 3019
1168 3097
1168 3441
1169 1901
1169 1920
1170 1543
1170 3058
1170 3241
1170 3403
1171 1765
1171 2182
1171 2414
1171 2763
1171 3308
1172 1265
1173 1848
1173 1965
1173 3293
1174 2521
1175 1683
1175 2599
1175 3126
1176 1880
1176 2415
1178 2305
1179 1955
1179 3097
1181 2160
1182 2057
1182 2677
1183 1806
1183 3209
1184 3202
1185 2024
1186 1805
1186 3144
1186 3370
1187 2718
1188 1444
1188 2058
1189 1817
1189 1818
1190 1592
1190 2896
1191 1631
1191 1831
1191 3004
1191 3156
1193 1277
1193 1332
1193 1699
1193 1721
1193 2691
1193 2758
1193 2906
1194 1272
1194 1377
1194 1598
1194 2687
1194 2778
1194 2803
1194 2951
1194 3005
1195 2562
1195 2857
1196 2077
1196 2503
1197 1274
1198 3253
1199 1712
1199 2871
1201 1510
1201 1621
1201 2574
1201 3333
1202 1840
1202 1869
1202 1979
1202 2532
1202 2551
1202 2773
1204 1324
1204 2966
1205 1209
1205 1284
1205 1297
1205 1815
1205 1903
1205 1999
1205 2081
1205 2173
1205 2300
1205 2564
1205 3136
1205 3184
1206 2693
1207 1751
1207 3211
1208 2686
1208 3104
1209 1815
1209 2564
1210 2126
1211 1347
1211 1704
1211 3253
1212 3175
1213 3265
1214 1341
1214 1398
1214 2592
1215 2095
1215 2521
1216 1933
1216 2372
1216 3197
1216 3298
1217 3455
1218 1798
1220 3261
1220 3404
1221 3268
1222 2275
1223 2446
1225 1301
1225 1860
1225 1998
1225 2462
1225 2473
1225 3179
1226 1470
1227 1432
1227 1976
1227 2002
1227 2339
1227 2542
1227 2562
1227 2563
1227 2835
1227 3314
1227 3315
1228 2069
1229 1911
1229 2889
1230 2216
1230 2241
1230 2713
1230 3027
1231 3449
1232 1445
1232 1446
1232 2536
1232 3019
1233 2844
1235 2809
1236 1409
1236 2460
1236 2532
1236 2551
1236 2554
1236 3287
1237 3280
1237 3443
1237 3456
1238 2338
1238 3279
1239 2390
1240 2190
1240 2661
1241 2012
1241 2294
1241 2594
1241 3225
1241 3282
1241 3353
1242 2425
1242 2460
1242 2950
1243 1972
1244 1359
1244 1515
1244 1571
1244 1614
1244 2022
1244 2092
1244 2123
1244 2163
1244 2427
1244 2708
1244 2725
1244 3163
1246 1846
1246 1955
1246 2072
1246 2383
1246 3441
1247 2067
1248 2732
1249 2565
1249 3055
1249 3204
1250 1328
1250 1434
1250 1580
1250 1581
1250 1663
1250 3162
1251 1644
1251 2105
1252 1902
1252 2379
1252 2613
1252 2759
1252 3118
1253 2360
1253 2445
1253 3145
1253 3424
1253 3462
1255 1369
1255 3023
1256 1628
1256 2771
1256 3096
1256 3395
1257 1942
1257 2768
1258 1486
1258 2039
1258 2069
1259 1588
1261 2269
1261 3217
1261 3310
1262 1999
1263 1744
1264 1336
1264 1636
1265 1410
1265 1547
1265 1698
1265 1910
1265 2111
1265 2208
1265 2210
1265 2732
1265 2882
1265 2936
1265 3049
1265 3092
1265 3096
1265 3172
1265 3256
1266 1465
1266 3232
1266 3429
1267 1521
1267 1929
1268 2298
1269 2079
1270 2334
1270 2947
1270 2968
1271 1873
1272 1377
1272 1378
1272 1480
1272 1598
1272 2687
1272 2778
1272 2803
1272 2951
1272 3005
1272 3029
1273 2509
1274 1721
1274 1966
1274 2092
1274 2454
1274 3361
1275 3202
1275 3203
1276 1605
1276 1706
1276 3120
1277 1699
1277 3036
1277 3312
1278 3395
1280 2456
1281 3389
1282 1541
1282 1720
1282 1736
1284 1815
1284 1999
1285 1290
1285 1323
1285 1370
1285 1393
1285 1721
1285 1898
1285 2377
1285 2611
1285 2676
1285 3209
1286 1818
1288 2219
1288 2749
1288 2892
1291 1406
1291 1586
1291 1774
1291 2181
1291 2210
1291 2889
1291 2895
1292 1844
1293 1801
1293 1901
1293 3318
1295 1953
1295 3340
1296 1297
1296 2081
1296 2234
1297 1299
1297 1595
1297 1720
1297 1736
1297 1903
1297 1999
1297 2081
1297 2173
1297 2234
1297 2300
1297 2564
1297 2693
1297 2707
1297 2815
1297 2957
1297 2958
1297 3136
1297 3184
1297 3196
1298 2489
1300 2026
1301 1568
1301 2443
1301 2490
1301 2869
1302 1675
1302 1944
1302 2195
1302 3052
1303 1734
1303 2306
1304 1508
1304 3064
1305 1338
1305 1746
1305 2141
1305 3211
1306 2378
1306 3285
1307 3025
1307 3175
1307 3303
1308 1564
1310 1744
1311 1843
1311 3309
1312 1400
1312 1495
1312 2255
1312 2266
1312 2623
1312 2822
1312 3117
1312 3134
1312 3220
1312 3330
1312 3435
1313 2063
1314 1631
1314 2506
1315 1678
1315 1842
1317 1338
1318 3023
1319 1322
1319 1459
1319 1979
1319 1990
1319 2546
1319 2699
1319 2761
1320 1322
1320 2295
1321 1553
1322 1401
1322 1459
1322 1979
1322 1990
1322 2200
1322 2295
1322 2379
1322 2413
1322 2423
1322 2546
1322 2698
1322 2761
1322 2920
1322 3118
1322 3319
1323 2611
1323 3209
1325 1758
1325 2764
1325 3032
1325 3298
1326 3291
1327 1406
1327 1435
1328 1665
1328 2014
1328 3045
1328 3162
1328 3311
1328 3338
1329 1914
1329 2848
1330 2721
1330 2771
1330 3096
1330 3410
1331 1749
1331 2086
1331 2370
1331 3312
1331 3317
1333 1556
1334 1908
1335 2959
1336 1518
1337 1432
1337 1821
1337 1973
1337 3319
1337 3336
1338 1702
1338 1746
1338 1865
1338 3096
1338 3111
1339 1469
1340 1518
1340 1586
1340 1587
1340 1588
1340 1771
1340 2402
1340 2888
1341 2592
1342 1727
1344 2835
1344 2949
1344 3047
1345 1560
1345 1721
1345 2123
1345 2448
1345 2450
1345 2525
1345 3061
1345 3291
1345 3414
1346 2494
1347 1704
1348 1520
1348 2530
1349 1388
1349 2808
1349 3038
1351 2294
1351 2705
1352 3318
1353 2690
1353 3311
1354 1925
1354 3023
1354 3361
1355 1461
1356 1703
1356 1773
1356 2709
1356 2933
1356 3259
1357 2015
1357 2434
1358 1561
1358 1979
1358 2083
1358 2251
1358 2430
1358 2821
1358 3313
1359 1388
1359 1571
1359 1723
1359 2022
1359 2091
1359 2092
1359 2571
1359 2835
1359 2838
1359 2897
1359 3087
1359 3143
1359 3163
1359 3311
1359 3344
1360 1745
1360 3357
1361 2172
1362 2809
1364 1587
1364 1588
1364 2310
1364 2402
1365 3348
1366 1401
1366 2325
1366 2824
1366 3318
1367 2094
1368 1911
1369 1370
1369 1942
1369 3023
1370 1385
1370 1440
1370 1452
1370 1534
1370 1872
1370 1874
1370 1911
1370 1933
1370 1966
1370 2197
1370 2512
1370 2676
1370 2843
1370 2876
1370 3036
1370 3083
1370 3132
1370 3181
1370 3182
1370 3197
1370 3336
1370 3400
1372 1638
1373 1411
1373 1435
1373 1623
1373 1636
1373 2304
1373 2887
1373 3098
1374 1420
1374 1439
1374 1488
1374 1537
1374 2152
1374 2770
1374 2890
1374 3392
1374 3416
1376 3365
1377 1394
1377 1598
1377 2119
1377 2663
1377 2687
1377 2778
1377 3005
1377 3029
1378 2952
1378 3029
1380 1449
1380 2346
1380 2390
1380 3181
1381 1772
1381 1829
1381 3399
1381 3401
1381 3406
1382 1471
1382 1485
1382 1518
1382 1640
1382 2004
1382 2030
1382 2399
1382 2427
1382 2471
1382 2598
1382 2606
1382 2891
1382 2940
1382 3018
1382 3041
1382 3269
1382 3449
1383 2995
1383 3347
1384 2368
1385 2600
1386 2625
1386 2907
1387 1818
1387 3014
1387 3107
1387 3459
1388 1547
1388 1950
1388 2371
1388 2632
1388 2773
1388 2870
1388 2882
1388 3144
1388 3247
1388 3373
1389 2296
1389 2652
1390 3302
1391 1495
1391 2390
1392 1901
1392 2013
1393 2377
1394 1579
1394 1723
1394 1739
1394 1782
1394 1821
1394 1906
1394 1971
1394 1973
1394 2002
1394 2022
1394 2119
1394 2235
1394 2243
1394 2391
1394 2562
1394 2566
1394 2632
1394 2663
1394 2687
1394 2778
1394 2795
1394 2811
1394 2835
1394 2870
1394 2897
1394 2949
1394 3029
1394 3047
1394 3078
1394 3132
1394 3315
1394 3366
1394 3414
1395 1769
1395 3143
1395 3366
1395 3460
1396 1456
1396 1705
1396 1927
1396 1988
1396 2294
1396 2569
1397 1725
1397 2375
1399 1454
1399 2052
1399 2082
1399 2506
1399 2556
1399 2787
1399 3295
1401 1718
1401 1762
1401 2002
1401 2280
1401 2325
1401 2391
1401 2521
1401 2546
1401 2835
1403 1470
1403 1545
1403 3327
1404 2776
1406 1435
1406 2153
1406 2210
1406 2302
1406 2895
1406 3172
1406 3396
1407 2147
1407 2151
1408 2525
1409 2532
1409 2551
1410 1698
1410 2208
1410 2210
1410 2936
1410 3096
1410 3256
1411 1436
1411 1488
1411 1636
1411 1711
1411 1911
1411 2152
1411 2206
1411 2959
1411 2983
1411 3105
1412 2895
1413 1603
1413 1788
1414 3164
1414 3195
1414 3382
1416 3403
1417 2130
1418 2870
1419 2752
1420 3392
1421 3410
1422 2691
1423 1673
1424 2208
1424 3096
1424 3097
1425 3361
1426 1735
1426 2349
1426 2716
1426 3294
1426 3355
1427 1815
1427 1999
1427 2421
1428 1735
1428 2788
1428 3028
1429 1830
1429 2062
1430 1672
1430 1781
1430 1934
1430 2190
1430 2625
1430 2660
1431 1782
1431 1919
1431 3078
1431 3366
1432 1821
1432 1974
1432 2029
1432 2126
1432 2339
1432 2400
1432 2623
1432 3330
1432 3414
1433 1730
1433 2168
1433 2194
1433 2233
1433 3065
1434 1834
1435 1436
1435 1628
1435 1636
1435 1637
1435 1911
1435 2153
1435 2207
1435 2210
1435 2217
1435 2861
1435 2912
1435 3096
1435 3396
1436 1628
1436 1695
1436 2101
1436 2207
1436 2321
1436 2343
1436 2887
1436 2959
1437 2745
1438 2157
1438 2181
1438 2540
1438 2797
1438 2968
1438 3299
1439 2152
1441 2360
1442 3301
1444 1557
1444 1941
1444 2058
1444 2586
1444 3455
1445 1446
1445 1483
1445 1639
1445 2773
1445 3290
1445 3359
1445 3373
1446 1672
1446 2091
1446 2246
1446 2536
1446 2632
1446 2835
1446 3019
1446 3047
1446 3157
1447 3311
1449 2390
1449 3181
1450 2121
1450 2737
1451 1774
1451 3468
1452 1518
1452 1813
1452 2019
1452 2197
1452 2663
1452 3204
1452 3264
1452 3302
1453 2114
1453 2603
1454 1513
1454 2052
1454 2082
1454 2506
1454 2556
1454 2787
1454 3295
1455 2630
1457 1498
1457 1687
1458 1901
1458 2064
1458 2423
1458 3465
1459 1788
1459 2200
1459 2546
1459 2761
1459 3051
1459 3072
1459 3434
1460 2171
1460 2391
1461 1487
1462 2921
1463 1999
1463 2095
1463 2674
1463 3217
1464 1689
1464 2789
1464 2791
1464 2817
1464 2826
1466 2175
1467 2262
1467 2911
1468 2544
1469 1714
1469 1753
1469 1835
1469 1838
1469 2368
1469 2966
1470 1545
1470 3327
1471 2399
1472 1823
1472 2823
1473 2592
1474 1581
1474 1902
1475 3223
1476 1493
1476 1914
1476 2936
1476 3289
1477 1586
1477 1772
1477 2888
1477 2962
1481 3449
1481 3454
1482 3294
1484 1576
1484 2197
1486 2039
1486 2069
1486 2243
1486 3161
1488 2017
1488 2152
1488 2206
1488 3416
1489 1639
1489 3019
1490 3213
1490 3326
1491 1580
1492 1612
1492 2281
1492 2331
1492 2740
1492 2920
1493 1689
1493 1901
1493 2061
1493 2936
1493 3107
1493 3289
1494 1717
1494 2138
1494 2552
1495 2255
1495 2923
1496 1861
1496 3147
1496 3184
1496 3226
1498 1687
1498 1856
1498 3272
1498 3327
1499 2360
1499 2880
1499 3031
1500 1508
1500 1759
1500 2512
1500 2927
1501 3317
1502 1901
1502 3093
1503 2321
1504 2756
1504 3309
1505 1534
1505 1631
1505 1641
1505 1831
1505 1832
1505 2359
1505 2549
1505 2553
1505 2584
1505 3036
1505 3064
1505 3173
1505 3197
1506 1550
1506 1551
1507 1867
1507 2214
1507 2558
1507 2995
1507 3114
1508 1576
1508 1602
1508 1633
1508 1759
1508 1817
1508 1831
1508 1907
1508 1953
1508 2051
1508 2197
1508 2329
1508 2684
1508 2880
1508 2927
1508 3003
1508 3057
1508 3064
1508 3126
1508 3189
1508 3410
1509 1949
1510 1621
1510 2574
1511 1530
1511 1580
1511 1895
1511 2080
1511 2100
1511 2158
1511 2411
1511 2515
1511 2780
1511 3171
1513 1661
1513 1883
1513 2604
1513 2995
1513 3050
1513 3178
1513 3208
1513 3324
1514 1932
1514 2893
1516 2030
1517 2725
1517 2898
1518 2004
1518 2197
1518 2198
1520 1633
1520 1907
1520 2024
1520 2070
1520 2212
1520 2329
1520 2530
1520 2649
1520 3094
1520 3255
1520 3369
1521 1929
1521 2440
1521 3447
1522 1886
1524 1928
1524 2178
1524 2723
1524 2846
1524 2939
1524 3291
1526 2231
1527 2632
1527 3415
1528 1626
1528 1934
1529 2674
1529 2748
1531 2155
1531 2207
1531 2702
1531 2961
1533 1615
1533 2058
1533 2586
1533 2809
1533 2938
1533 3455
1534 1966
1534 2359
1534 3173
1534 3182
1535 3034
1535 3139
1536 1613
1536 1704
1536 1820
1536 3253
1536 3301
1538 2599
1539 1794
1539 1896
1539 2318
1539 2323
1539 2395
1539 2398
1539 2465
1539 3232
1540 2954
1542 3032
1543 1928
1543 3058
1544 2731
1544 2959
1545 3327
1546 3328
1547 2208
1547 2210
1547 2371
1547 2773
1547 2860
1547 2882
1547 3373
1548 1549
1549 2368
1549 2582
1549 3311
1550 2968
1553 3422
1554 1594
1554 1886
1554 1908
1554 2166
1555 1723
1555 1854
1555 2562
1555 2811
1555 2897
1555 3148
1556 1938
1556 2262
1557 1695
1557 2018
1557 2058
1557 2317
1557 2319
1557 2367
1557 2733
1557 2883
1557 3088
1557 3216
1557 3397
1558 1799
1558 1963
1558 2190
1558 2352
1558 2509
1558 3144
1559 2037
1560 3351
1560 3414
1561 1788
1561 1979
1561 2083
1561 3177
1564 1822
1564 2009
1564 2360
1565 2934
1565 3202
1565 3321
1566 1949
1567 1803
1567 2016
1567 3144
1567 3306
1568 2490
1568 2639
1569 1723
1569 1871
1569 2252
1569 2542
1569 2562
1569 2705
1570 2473
1571 1723
1571 2022
1571 2092
1571 2897
1571 3163
1572 1631
1572 1831
1572 3156
1573 2120
1574 1948
1574 1949
1574 2121
1574 2221
1574 2874
1575 1656
1575 2519
1576 2197
1576 2510
1577 2057
1578 1758
1578 2460
1578 3096
1579 1723
1579 1739
1579 1782
1579 1973
1579 2002
1579 2022
1579 2391
1579 2469
1579 2566
1579 2632
1579 2795
1579 2835
1579 2870
1579 2897
1579 2949
1579 3047
1579 3078
1579 3132
1579 3315
1579 3359
1579 3366
1579 3373
1579 3414
1580 1796
1580 1870
1580 1988
1580 2100
1580 2172
1580 2511
1580 2936
1580 3004
1580 3442
1581 1914
1582 1588
1582 1776
1582 2312
1582 2784
1582 2941
1582 2975
1583 1584
1583 1588
1583 1772
1583 1774
1583 1777
1583 2139
1583 2310
1583 2311
1583 3405
1583 3413
1584 1772
1584 1774
1584 2198
1584 2399
1584 3413
1585 1588
1585 1591
1585 1774
1585 2198
1586 1587
1586 1588
1586 1771
1586 1772
1586 1774
1586 1947
1586 2888
1586 2962
1586 3405
1587 1588
1587 2310
1587 2402
1587 2888
1587 3412
1588 1591
1588 1911
1588 2139
1588 2311
1588 2402
1588 2732
1588 2962
1590 1803
1590 2016
1590 3144
1590 3306
1592 2052
1592 2645
1592 2896
1592 3382
1593 2058
1593 2850
1593 3205
1594 1664
1594 1884
1594 3130
1594 3164
1595 2707
1595 2913
1597 2473
1597 2539
1597 2971
1598 2687
1598 2778
1598 2803
1598 2951
1598 3005
1599 2407
1599 2768
1600 2407
1600 2768
1601 1805
1601 3329
1602 1759
1602 2880
1603 1788
1603 2712
1604 1662
1604 1701
1604 2389
1604 2999
1604 3251
1605 1706
1605 2977
1606 2640
1607 2438
1607 2809
1607 2865
1608 1993
1608 2083
1608 2151
1608 2463
1608 2715
1608 3248
1609 2789
1610 2246
1610 2452
1611 2961
1612 1866
1612 2281
1612 2678
1612 2697
1612 2740
1612 2920
1613 1704
1613 2792
1613 3034
1614 2163
1614 2427
1615 2586
1615 2809
1616 3019
1619 2371
1619 2509
1620 1661
1621 1942
1621 2574
1623 1671
1623 2959
1624 1711
1624 1911
1624 2152
1624 2206
1624 2983
1625 2219
1625 2892
1627 2494
1627 3347
1628 2181
1628 2851
1628 2861
1630 1655
1630 2390
1630 2392
1630 2394
1630 2408
1630 3440
1631 1777
1631 1831
1631 2181
1631 2504
1631 2506
1631 2549
1631 3004
1631 3156
1631 3197
1632 1911
1633 2125
1633 2169
1633 2329
1633 2487
1633 2530
1633 2619
1633 2675
1633 3076
1634 1772
1635 3410
1636 1637
1636 1911
1636 2101
1636 2217
1636 2343
1636 2912
1636 3098
1636 3402
1637 2912
1638 1639
1638 1646
1638 2308
1638 3415
1639 1689
1639 1723
1639 2391
1639 2562
1639 2700
1639 2789
1639 2791
1639 2808
1639 2817
1639 2943
1639 3007
1639 3019
1640 2004
1640 2606
1641 2589
1643 1817
1643 1818
1643 2645
1643 2933
1643 3000
1643 3156
1643 3237
1645 2454
1645 2475
1647 2207
1647 3166
1648 1927
1649 3363
1650 2296
1651 1999
1651 2000
1651 2373
1651 2595
1651 2786
1651 2791
1651 2904
1651 3341
1652 1691
1652 2377
1653 3302
1654 3019
1655 2390
1655 2408
1655 3239
1657 2020
1657 2255
1657 2746
1658 2300
1659 2532
1661 2839
1661 3208
1662 2389
1662 3251
1663 1697
1664 1884
1666 1972
1669 2051
1669 2283
1670 2211
1670 3166
1671 1911
1671 2959
1672 1881
1672 2246
1672 2247
1672 2660
1672 2686
1672 3104
1673 1738
1675 2824
1675 2826
1676 2484
1676 2567
1676 2686
1677 1745
1677 1759
1677 2908
1677 3357
1678 1842
1678 3003
1678 3208
1679 3080
1680 2081
1681 2203
1681 2625
1684 1979
1686 1805
1686 1964
1686 3374
1687 1856
1688 1723
1688 1871
1688 2391
1688 2542
1688 3345
1689 2791
1689 2817
1689 2826
1689 3153
1690 1762
1691 2377
1692 3429
1693 3236
1693 3302
1694 1900
1695 1911
1695 2152
1695 3044
1695 3048
1695 3088
1695 3105
1695 3397
1696 1979
1696 3300
1697 2663
1697 3249
1698 3096
1700 2389
1701 2389
1702 1746
1703 3259
1704 1752
1704 1820
1704 3253
1704 3352
1705 1868
1705 1987
1705 2048
1705 2466
1705 2877
1705 3034
1706 2977
1706 3120
1707 2735
1707 3257
1710 3070
1710 3106
1710 3112
1711 1911
1711 2152
1711 2206
1711 2983
1711 3105
1712 1715
1712 1776
1712 2834
1712 2871
1712 3154
1712 3156
1712 3335
1713 2081
1713 2300
1713 2816
1715 2871
1715 3154
1716 2509
1717 2138
1718 1762
1719 1783
1719 1888
1719 2032
1720 1903
1720 2957
1721 1898
1721 1966
1721 2004
1721 2427
1721 2448
1721 2450
1721 3466
1722 2197
1723 1739
1723 1782
1723 1854
1723 1971
1723 1973
1723 2002
1723 2022
1723 2092
1723 2235
1723 2252
1723 2391
1723 2542
1723 2562
1723 2566
1723 2632
1723 2700
1723 2705
1723 2795
1723 2811
1723 2835
1723 2870
1723 2897
1723 2943
1723 2949
1723 3047
1723 3078
1723 3132
1723 3148
1723 3315
1723 3366
1723 3379
1723 3414
1723 3466
1724 2212
1725 2375
1726 3318
1727 3356
1727 3373
1728 1751
1728 2265
1728 3211
1729 3189
1729 3236
1730 2168
1730 2194
1730 2233
1730 2433
1730 2516
1730 2762
1731 2179
1732 1757
1732 2526
1733 1963
1733 2632
1733 2870
1735 2393
1735 2788
1735 2809
1735 3028
1735 3175
1735 3294
1736 1903
1736 2081
1736 2564
1736 2958
1737 1858
1737 2944
1737 3303
1737 3429
1738 1848
1738 2686
1738 2991
1738 3076
1738 3124
1738 3277
1739 1782
1739 1973
1739 2002
1739 2022
1739 2391
1739 2542
1739 2566
1739 2632
1739 2795
1739 2835
1739 2870
1739 2897
1739 2949
1739 3047
1739 3078
1739 3132
1739 3315
1739 3345
1739 3366
1739 3414
1740 1942
1740 2014
1741 2835
1741 3047
1741 3087
1741 3157
1742 1828
1742 1901
1742 1911
1742 2164
1742 2494
1742 2545
1742 2547
1742 2659
1742 2771
1742 2832
1742 2979
1742 3232
1742 3318
1743 3076
1744 1859
1744 1871
1744 1909
1744 2256
1744 2752
1744 3259
1744 3267
1745 1785
1745 2908
1745 3357
1747 1806
1748 2483
1748 2990
1749 2086
1749 3317
1751 2265
1751 2450
1751 3211
1752 3414
1753 2368
1756 2626
1758 1925
1758 3032
1758 3096
1758 3298
1759 1984
1759 2880
1759 2927
1760 2041
1761 1817
1762 2848
1762 3257
1762 3266
1763 2544
1763 2845
1765 1786
1765 1901
1765 1920
1765 2098
1765 2386
1765 2414
1765 2573
1766 1817
1766 1979
1766 2820
1767 1942
1769 3143
1771 1779
1772 1774
1772 3399
1772 3401
1772 3406
1773 2249
1773 3259
1774 2198
1775 1982
1775 2303
1775 2409
1776 1851
1776 2539
1776 3335
1778 2399
1780 3415
1781 2625
1782 1919
1782 1971
1782 1973
1782 2002
1782 2022
1782 2235
1782 2391
1782 2562
1782 2566
1782 2632
1782 2686
1782 2795
1782 2811
1782 2835
1782 2870
1782 2897
1782 2949
1782 3047
1782 3078
1782 3132
1782 3148
1782 3315
1782 3366
1782 3414
1783 1888
1783 2072
1783 3232
1783 3332
1784 2916
1784 3309
1787 1879
1787 1979
1787 2329
1787 2397
1787 3232
1788 2428
1788 2712
1788 3051
1788 3242
1788 3434
1789 2127
1791 2509
1791 3359
1792 2024
1795 1901
1795 2978
1795 3217
1796 2412
1796 2437
1796 2511
1796 2556
1796 2979
1796 3004
1798 2063
1798 2162
1798 2165
1798 2332
1798 2634
1798 3219
1798 3276
1798 3319
1798 3434
1799 1963
1799 2352
1799 2509
1799 3144
1800 1845
1800 3047
1800 3054
1800 3091
1800 3169
1800 3386
1800 3420
1801 2350
1801 2787
1801 2917
1803 2016
1803 2755
1803 3144
1803 3229
1803 3306
1804 2566
1805 1966
1805 2167
1805 2322
1805 2426
1805 2562
1805 3139
1805 3374
1806 3209
1808 1827
1808 1829
1808 3448
1809 3449
1809 3454
1810 3047
1811 3453
1812 3122
1813 2019
1813 2123
1813 2515
1813 2680
1813 2973
1813 3291
1814 2002
1814 2835
1814 2949
1814 3047
1814 3315
1815 1999
1815 2564
1817 1818
1817 1899
1817 1935
1817 1979
1817 2026
1817 2063
1817 2800
1817 2816
1817 2820
1817 3022
1817 3175
1817 3318
1818 1921
1818 2012
1818 2128
1818 2269
1818 2646
1818 2665
1818 3107
1818 3128
1818 3225
1818 3318
1819 2076
1819 3138
1820 3253
1821 1925
1821 2022
1821 2235
1821 2897
1822 2009
1822 2360
1824 2269
1824 3217
1824 3310
1825 1922
1825 1923
1825 1924
1825 2121
1825 2922
1825 3189
1826 2956
1827 2976
1827 3385
1828 2655
1828 3319
1829 3401
1829 3448
1830 2062
1830 2157
1830 2371
1830 2817
1830 3161
1830 3229
1830 3244
1830 3258
1831 1832
1831 2075
1831 2174
1831 2549
1831 2553
1831 2645
1831 2771
1831 3004
1831 3064
1831 3096
1831 3156
1831 3197
1831 3318
1831 3410
1832 2075
1832 3064
1833 2826
1837 1900
1837 2954
1840 2532
1840 2551
1840 2773
1841 2301
1841 2515
1841 2964
1842 1999
1842 2369
1842 2442
1842 2830
1842 3197
1842 3339
1843 2528
1843 2584
1843 3309
1844 1900
1844 3320
1845 2960
1845 3047
1845 3091
1845 3144
1845 3420
1846 1955
1846 2072
1846 2354
1846 2383
1846 2452
1846 2686
1847 2494
1847 3279
1848 1938
1848 1965
1848 2024
1848 2080
1848 2991
1848 3076
1848 3124
1848 3293
1848 3433
1849 2450
1851 2539
1853 2069
1853 2134
1853 2358
1853 2361
1853 2744
1853 2853
1853 3084
1854 2562
1854 2811
1854 2897
1854 3148
1855 2108
1855 2175
1855 2858
1856 2167
1856 2260
1856 3109
1856 3272
1857 2602
1857 2870
1858 2030
1858 2133
1858 2703
1861 3147
1861 3184
1862 3147
1862 3184
1864 2212
1866 1979
1866 2147
1866 2281
1866 2387
1866 2491
1866 2740
1866 2956
1866 2988
1866 3071
1870 1931
1870 1966
1870 2015
1870 2403
1870 2434
1870 2435
1870 2676
1870 2686
1870 2806
1870 2930
1870 2981
1870 3348
1870 3363
1870 3371
1871 2030
1871 2172
1871 2542
1871 2562
1871 2752
1871 2835
1871 3087
1874 1933
1874 2334
1874 2512
1874 2592
1874 3036
1874 3064
1874 3141
1874 3189
1874 3218
1875 2243
1876 2359
1877 2178
1877 3017
1877 3388
1878 3449
1879 1979
1879 2667
1879 2997
1879 3232
1880 2333
1883 3324
1883 3335
1886 2526
1887 2285
1887 3024
1888 2072
1888 2681
1888 3232
1888 3332
1889 2009
1890 3449
1891 2868
1891 3454
1892 1931
1893 1993
1893 2283
1893 2419
1893 2484
1893 2704
1894 2715
1896 2278
1897 3114
1897 3379
1899 1935
1899 2645
1899 2650
1899 3022
1899 3318
1899 3384
1901 1920
1901 1999
1901 2013
1901 2056
1901 2064
1901 2241
1901 2391
1901 2423
1901 2630
1901 2725
1901 2729
1901 2771
1901 2914
1901 2978
1901 3093
1901 3113
1901 3150
1901 3186
1901 3194
1901 3217
1901 3222
1901 3318
1901 3380
1901 3458
1902 2229
1902 2379
1902 2613
1902 2614
1902 2761
1902 2938
1902 3290
1903 2081
1903 2173
1903 2300
1903 2451
1903 2559
1903 2575
1903 2957
1903 2958
1903 3398
1904 3080
1906 2243
1907 2329
1907 3263
1908 2166
1908 2401
1908 2717
1909 3267
1911 1932
1911 2113
1911 2152
1911 2181
1911 2206
1911 2210
1911 2217
1911 2314
1911 2728
1911 2732
1911 2771
1911 2889
1911 2895
1911 2959
1911 2983
1911 2984
1911 3044
1911 3069
1911 3082
1911 3092
1911 3105
1911 3168
1911 3172
1911 3199
1911 3200
1911 3318
1911 3389
1911 3390
1911 3410
1912 2903
1912 2912
1913 2258
1913 2472
1913 2487
1913 2645
1913 3040
1913 3222
1913 3263
1915 2964
1917 2754
1917 2954
1917 3010
1918 2214
1918 2572
1919 3366
1920 3308
1921 3263
1922 3434
1924 2131
1924 2926
1925 3298
1927 2836
1927 2862
1927 2954
1928 2767
1928 2846
1928 2873
1928 2939
1930 3076
1931 3361
1932 2893
1932 3082
1932 3172
1933 2372
1933 3036
1934 1972
1934 2190
1934 2339
1934 2679
1934 2789
1934 2931
1935 3318
1937 2637
1938 2052
1938 2080
1938 2991
1938 3028
1939 3294
1940 1941
1940 2750
1941 1965
1941 2058
1941 2081
1941 2750
1942 2054
1942 2156
1942 2191
1942 2316
1942 2390
1942 2533
1942 2588
1942 2676
1942 2730
1942 2768
1942 2953
1942 2968
1943 3068
1943 3085
1943 3088
1944 2814
1944 3202
1944 3321
1945 1994
1945 2087
1945 2994
1946 3128
1948 2121
1949 2121
1949 2221
1949 2231
1949 2287
1949 2856
1950 3247
1951 3253
1952 2686
1953 2859
1953 3003
1953 3189
1953 3357
1954 2761
1955 2072
1955 2383
1955 2398
1955 3097
1956 2372
1957 2489
1960 2648
1961 2195
1961 2454
1961 2854
1961 3194
1962 2954
1963 2352
1963 2509
1963 2632
1963 2870
1963 3144
1965 2541
1965 2648
1965 2692
1965 2829
1965 2932
1965 3028
1965 3293
1966 2167
1966 2562
1966 2676
1966 2981
1966 3060
1966 3139
1966 3182
1966 3189
1966 3311
1967 2026
1968 3235
1968 3265
1970 3100
1971 2008
1971 2022
1971 2235
1971 2562
1971 2811
1971 2897
1971 3362
1971 3366
1972 1977
1972 2848
1972 2931
1972 3266
1972 3378
1972 3428
1973 2002
1973 2022
1973 2391
1973 2566
1973 2632
1973 2795
1973 2835
1973 2870
1973 2897
1973 2949
1973 3047
1973 3078
1973 3132
1973 3315
1973 3366
1973 3414
1975 2509
1977 2848
1978 2030
1979 1990
1979 2083
1979 2242
1979 2462
1979 2491
1979 2546
1979 2633
1979 2699
1979 2735
1979 2820
1979 2956
1979 3232
1981 3269
1982 2303
1982 2338
1982 2462
1982 2641
1982 2909
1982 2981
1982 3279
1983 2409
1983 2967
1986 2441
1986 3435
1988 2294
1988 3006
1990 2546
1991 2052
1991 2404
1991 2473
1991 2654
1991 2878
1991 3192
1993 2484
1993 2704
1993 2715
1994 2132
1994 2608
1996 2334
1997 2002
1997 2942
1997 3015
1999 2013
1999 2173
1999 2575
1999 2595
1999 2707
1999 2761
1999 2786
1999 3136
2001 2395
2002 2022
2002 2391
2002 2566
2002 2632
2002 2795
2002 2835
2002 2870
2002 2897
2002 2949
2002 3015
2002 3047
2002 3078
2002 3132
2002 3157
2002 3180
2002 3315
2002 3366
2002 3414
2003 3068
2004 2606
2005 2120
2005 2124
2005 2645
2005 2810
2005 2973
2005 3127
2005 3295
2005 3467
2006 3266
2007 2472
2007 2990
2008 3362
2009 2360
2010 2658
2012 2136
2012 2137
2012 2144
2012 2294
2012 2478
2012 2502
2012 2575
2012 2594
2012 3065
2012 3225
2012 3282
2012 3283
2012 3353
2013 3186
2013 3194
2014 2147
2014 2279
2014 3045
2015 2255
2015 3337
2015 3375
2016 3144
2016 3306
2017 3416
2021 3385
2022 2092
2022 2235
2022 2391
2022 2562
2022 2566
2022 2632
2022 2795
2022 2811
2022 2835
2022 2870
2022 2897
2022 2949
2022 3047
2022 3078
2022 3132
2022 3163
2022 3315
2022 3366
2022 3414
2023 2865
2024 2212
2024 2392
2024 2394
2024 2649
2024 2766
2024 3076
2024 3094
2024 3297
2024 3369
2026 2063
2026 2292
2026 2374
2026 2385
2026 2449
2026 2718
2026 2816
2026 2875
2026 3062
2026 3323
2027 2163
2030 2123
2030 2133
2030 2293
2030 2703
2030 2993
2031 2500
2033 2765
2033 3012
2035 2828
2035 2831
2036 2059
2038 3025
2039 2663
2039 3258
2039 3345
2042 2942
2044 2474
2045 2958
2046 2147
2047 2109
2047 2110
2047 2752
2047 3259
2049 2217
2049 3172
2050 2359
2051 2327
2051 3222
2051 3263
2052 2080
2052 2082
2052 2506
2052 2556
2052 2645
2052 2654
2052 2786
2052 2787
2052 2901
2052 3192
2052 3263
2052 3271
2052 3295
2057 2143
2057 2998
2058 2581
2058 2586
2058 2753
2058 3185
2058 3455
2059 2725
2059 2773
2061 2275
2061 3107
2062 2371
2064 3186
2065 3232
2066 2431
2066 2514
2066 2841
2067 2214
2067 2397
2067 2572
2068 2282
2068 2966
2069 2853
2071 2389
2071 3019
2072 2225
2072 2383
2072 2852
2072 3232
2073 2555
2073 2871
2076 3138
2078 2197
2080 2215
2080 2669
2080 2991
2080 3028
2081 2234
2081 2300
2081 2750
2081 2816
2081 2958
2081 3184
2082 2787
2082 3295
2083 2809
2084 2446
2085 2761
2085 2920
2085 3319
2086 2219
2086 3317
2087 2224
2090 2632
2091 2571
2091 2632
2091 2835
2091 2954
2091 3019
2091 3047
2091 3157
2092 2897
2092 2981
2092 3163
2092 3203
2092 3344
2092 3361
2093 3318
2094 2320
2095 2521
2096 2209
2096 2352
2096 2771
2096 2882
2096 3085
2096 3096
2098 2573
2099 3280
2099 3456
2100 2515
2101 2207
2101 2210
2101 2321
2101 2343
2101 2887
2102 2913
2103 2243
2109 2752
2109 3259
2110 2752
2110 3259
2111 3092
2111 3172
2112 3029
2113 3199
2115 2723
2116 3189
2117 2963
2117 3103
2119 2179
2119 2384
2119 2536
2119 2663
2119 2687
2119 2778
2119 3029
2120 2635
2121 2586
2121 2737
2122 2849
2123 2163
2123 2598
2123 3291
2124 2682
2124 2973
2125 3076
2126 2237
2126 3190
2126 3330
2127 2331
2127 2956
2128 2167
2128 2712
2130 2697
2130 3428
2135 2771
2135 3096
2136 2144
2137 2144
2137 2478
2137 2543
2137 2661
2137 2686
2137 3139
2137 3227
2137 3270
2138 2520
2139 3405
2140 2236
2142 2488
2143 2376
2144 2488
2144 2515
2144 3227
2144 3270
2145 2502
2146 3227
2148 2294
2149 2502
2149 3210
2150 2452
2151 3011
2151 3248
2151 3444
2152 2206
2152 2881
2152 2895
2152 2983
2152 3048
2152 3105
2152 3392
2153 2181
2153 2210
2153 3233
2153 3396
2155 2207
2155 2702
2156 3291
2157 2371
2157 2798
2157 3016
2157 3019
2157 3132
2157 3326
2158 2411
2160 2197
2160 2232
2160 2276
2160 2513
2160 2884
2160 2921
2160 3369
2163 2427
2167 2712
2167 3109
2167 3139
2168 2194
2169 2487
2169 2675
2171 2391
2171 2907
2172 2936
2174 2338
2174 2552
2174 2982
2174 3014
2174 3189
2174 3263
2174 3279
2177 2417
2177 3107
2178 3291
2178 3388
2179 2536
2180 2844
2180 2846
2180 3059
2181 2208
2181 2851
2181 2887
2181 2895
2181 3233
2182 2763
2182 3308
2184 2315
2184 3453
2185 2347
2186 2807
2187 3053
2188 2497
2189 3395
2190 2245
2190 2866
2192 2473
2193 2680
2194 2433
2194 2516
2194 2762
2196 3020
2196 3293
2197 2574
2197 2684
2197 3181
2198 2315
2198 3449
2199 2612
2199 2820
2200 2761
2203 2625
2206 2889
2206 2983
2206 3105
2206 3411
2207 2210
2207 2362
2207 3166
2208 2210
2208 2344
2208 2728
2208 2771
2208 2860
2208 2870
2208 2882
2208 2895
2208 3022
2208 3096
2208 3097
2208 3144
2208 3432
2209 2352
2209 2771
2210 2732
2210 2882
2210 2895
2210 2936
2210 3049
2210 3096
2210 3200
2210 3256
2210 3396
2211 2912
2211 3101
2211 3166
2211 3393
2211 3417
2212 2392
2212 2766
2212 3297
2212 3369
2213 3391
2214 2397
2214 2572
2214 2995
2214 3114
2217 3172
2217 3389
2218 2636
2218 3071
2218 3279
2219 2892
2219 3317
2220 2921
2220 3003
2220 3189
2221 2231
2221 2585
2223 2321
2223 2732
2223 2775
2223 2776
2224 2226
2224 2228
2224 3090
2225 2852
2227 2596
2228 3090
2229 3285
2229 3290
2231 2375
2231 2629
2233 2433
2234 2913
2235 2562
2235 2811
2235 2897
2235 3366
2237 2480
2237 2616
2238 2369
2238 2756
2239 3204
2239 3385
2239 3409
2239 3449
2239 3456
2241 3027
2242 2462
2242 2820
2243 2870
2243 3161
2244 3223
2246 2452
2246 2686
2246 2918
2246 3104
2248 2292
2248 2459
2248 2671
2248 3363
2252 2542
2252 2562
2253 2542
2253 2562
2254 3258
2255 2746
2255 3375
2257 3067
2258 2645
2259 2746
2260 2782
2260 3327
2261 2539
2262 2395
2263 2299
2263 2593
2264 2299
2264 2958
2264 3281
2265 2450
2265 3211
2269 3217
2269 3310
2270 3231
2271 2375
2271 2747
2273 3319
2274 2299
2274 2305
2278 2375
2278 3108
2281 2740
2281 2920
2282 2966
2286 2624
2288 3019
2289 2738
2289 3045
2292 2671
2292 3116
2293 2335
2293 2793
2293 2818
2293 3188
2293 3469
2294 2331
2294 2575
2294 2594
2294 2740
2294 2940
2294 3045
2294 3065
2294 3225
2294 3353
2296 2652
2297 2395
2299 2305
2299 2502
2299 2562
2299 2593
2299 2705
2299 2714
2299 2958
2299 3155
2299 3281
2300 2693
2300 2799
2300 2816
2300 3129
2300 3184
2301 2515
2302 2774
2302 2895
2302 3172
2303 2641
2303 2981
2305 2664
2305 3413
2305 3444
2307 2494
2307 3138
2310 2402
2313 2371
2313 2731
2313 3085
2314 3390
2315 2886
2315 3453
2317 2883
2317 3216
2318 2395
2319 2883
2321 2343
2321 2775
2321 2887
2325 3279
2326 3191
2326 3435
2329 2530
2329 3410
2330 3004
2331 2596
2331 2740
2331 2779
2331 2956
2331 3039
2331 3170
2331 3319
2335 3076
2336 3003
2338 2909
2338 3279
2340 2814
2340 3202
2340 3321
2342 3119
2343 2912
2344 2882
2345 2893
2346 2390
2347 3350
2348 2631
2348 3223
2349 2716
2349 3032
2349 3355
2351 3303
2352 2509
2352 2771
2352 2833
2352 3144
2354 3361
2356 2503
2357 2916
2357 3309
2359 3173
2360 2377
2360 3115
2360 3261
2361 2789
2361 3084
2362 3166
2363 2574
2364 3234
2365 3014
2367 2733
2367 2883
2367 3216
2368 3369
2369 2756
2369 3339
2370 3312
2371 2509
2371 2773
2371 2817
2371 3085
2371 3229
2371 3258
2371 3373
2372 3418
2375 2867
2375 3001
2375 3002
2375 3043
2377 2473
2378 3285
2379 2613
2379 2614
2379 2665
2379 2761
2379 2920
2379 2956
2379 3118
2379 3319
2380 2502
2385 2449
2387 3071
2388 2817
2388 2942
2389 2527
2389 3019
2389 3251
2390 2408
2390 3017
2390 3181
2391 2566
2391 2630
2391 2632
2391 2795
2391 2835
2391 2870
2391 2897
2391 2907
2391 2943
2391 2949
2391 2978
2391 2996
2391 3019
2391 3047
2391 3078
2391 3087
2391 3132
2391 3315
2391 3358
2391 3366
2391 3414
2392 2394
2393 2788
2393 2934
2393 3381
2395 2494
2396 2968
2396 3357
2398 3232
2399 3413
2400 3408
2402 2888
2402 2962
2403 2435
2403 2606
2403 2930
2404 2982
2406 3292
2407 2768
2409 2967
2410 2670
2410 3201
2412 2437
2412 2979
2414 3149
2416 3359
2417 2722
2417 3107
2419 2477
2419 2484
2419 3244
2420 2870
2422 3171
2423 2546
2423 2820
2423 3065
2423 3186
2423 3458
2423 3465
2424 3100
2425 2460
2425 2554
2425 2950
2427 2940
2427 3449
2427 3466
2429 3279
2430 2821
2430 3313
2432 3159
2432 3311
2433 2516
2433 2762
2435 3012
2436 2869
2437 2671
2437 2979
2437 3199
2439 3034
2440 2995
2440 3447
2443 2869
2444 2981
2444 3383
2445 2535
2446 3250
2446 3446
2447 3319
2450 2657
2452 2686
2453 2958
2454 2475
2454 3254
2459 2494
2459 3144
2460 2554
2460 2950
2460 3287
2461 2666
2461 3175
2461 3303
2462 2491
2462 2511
2462 2644
2462 2820
2462 3004
2462 3232
2464 2484
2466 2806
2466 2877
2468 3280
2469 2795
2469 3132
2470 2509
2470 2662
2472 2645
2472 2990
2473 2654
2473 2835
2473 2971
2473 3107
2473 3401
2473 3428
2474 2848
2474 2978
2474 3077
2475 2580
2475 3464
2477 3263
2481 2827
2481 3347
2483 2531
2483 2773
2483 2990
2484 2686
2484 2704
2487 3222
2488 2958
2488 3281
2490 2496
2490 2639
2490 2769
2490 3167
2491 2720
2491 2757
2491 2869
2491 2922
2491 2956
2491 3260
2494 2980
2494 3036
2494 3144
2496 2769
2496 3167
2497 2688
2499 3165
2502 2557
2502 2593
2502 3210
2503 3273
2505 3367
2506 2556
2506 2986
2506 3004
2509 2771
2509 3144
2509 3146
2509 3291
2509 3359
2511 2556
2511 3004
2512 3036
2512 3064
2512 3141
2512 3218
2513 3212
2513 3363
2515 3199
2515 3263
2515 3286
2516 2762
2516 2835
2516 3087
2518 2786
2519 2847
2521 2741
2523 3234
2524 3388
2525 3061
2532 2551
2532 2773
2533 2588
2537 2538
2539 3036
2540 3299
2541 2648
2541 3151
2542 2562
2542 2663
2542 2835
2542 3047
2542 3345
2543 2661
2544 2845
2546 2761
2550 2967
2551 2773
2554 3287
2556 3004
2557 3210
2559 2958
2559 3184
2560 3096
2561 3147
2561 3184
2562 2700
2562 2705
2562 2764
2562 2811
2562 2835
2562 2897
2562 3047
2562 3148
2562 3366
2564 2815
2564 2966
2564 3196
2566 2632
2566 2795
2566 2835
2566 2870
2566 2897
2566 2949
2566 3047
2566 3078
2566 3132
2566 3315
2566 3366
2566 3414
2570 2809
2573 2796
2575 2738
2575 3045
2575 3065
2575 3307
2577 3311
2579 2658
2579 3434
2580 3311
2580 3464
2582 3311
2583 3291
2586 2737
2586 2809
2586 3455
2587 3077
2590 2767
2590 2844
2591 3391
2593 2714
2595 2752
2595 2786
2595 3259
2598 3018
2598 3041
2599 3126
2602 2812
2602 2870
2602 3467
2604 2995
2604 3050
2605 2623
2606 2940
2607 2948
2607 3056
2610 2725
2610 2729
2610 3004
2611 2889
2611 2895
2612 2820
2613 2759
2613 3107
2613 3118
2614 3118
2615 3047
2615 3420
2616 3361
2618 2623
2618 2790
2620 2686
2623 2625
2623 2790
2623 3159
2623 3217
2623 3330
2624 2689
2626 2777
2631 3223
2632 2795
2632 2835
2632 2870
2632 2882
2632 2897
2632 2949
2632 3019
2632 3047
2632 3078
2632 3132
2632 3157
2632 3228
2632 3315
2632 3366
2632 3414
2632 3415
2632 3437
2633 2735
2633 2820
2633 3192
2633 3232
2635 3275
2636 3071
2641 2981
2642 3335
2643 2791
2644 3232
2645 3156
2646 2665
2646 3107
2646 3113
2649 3094
2649 3369
2650 2970
2653 3361
2654 3192
2655 2761
2655 3319
2658 3434
2663 2687
2663 2778
2663 3029
2663 3174
2663 3249
2663 3258
2663 3345
2665 2843
2665 2998
2665 3107
2666 2719
2666 3021
2666 3175
2666 3303
2667 2997
2670 2751
2670 3155
2670 3201
2674 2748
2674 3217
2678 2697
2678 2958
2678 3176
2680 2973
2683 3269
2685 3025
2686 2954
2686 3104
2686 3139
2686 3224
2687 2778
2687 3005
2687 3029
2689 2937
2691 2905
2691 2906
2691 3154
2692 2829
2694 3382
2695 3300
2696 3032
2697 3428
2698 2761
2700 3007
2701 2809
2702 2961
2703 3197
2705 3304
2705 3316
2709 2933
2709 3259
2710 3319
2710 3385
2713 2802
2713 3262
2714 3155
2716 2844
2716 2968
2716 3355
2719 3175
2719 3206
2721 2771
2724 3139
2724 3268
2724 3368
2725 2729
2725 2745
2725 2773
2725 2898
2725 2986
2725 3004
2727 2731
2727 2959
2728 2870
2728 2882
2728 2889
2728 3168
2729 3004
2730 3339
2731 2959
2731 3096
2731 3101
2732 2775
2732 2889
2732 3050
2732 3082
2732 3410
2734 2893
2735 3263
2737 2849
2738 3045
2740 2920
2742 3133
2743 3023
2745 2986
2752 2840
2752 3259
2754 3010
2756 2916
2756 3309
2759 3118
2760 3271
2761 2920
2761 3118
2761 3319
2763 3308
2764 3032
2764 3148
2764 3298
2764 3369
2771 2882
2771 2895
2771 3022
2771 3085
2771 3096
2771 3144
2771 3215
2771 3318
2771 3394
2771 3395
2773 3373
2778 2803
2778 2951
2778 3005
2778 3029
2779 2956
2779 3170
2780 3171
2782 2783
2786 2901
2786 3295
2787 2917
2787 3295
2792 3034
2793 3187
2794 3359
2795 2835
2795 2870
2795 2897
2795 2949
2795 3047
2795 3078
2795 3132
2795 3315
2795 3366
2795 3414
2798 2870
2798 3132
2798 3326
2800 3013
2803 2951
2806 3060
2806 3376
2806 3383
2807 2820
2807 3352
2808 3038
2808 3078
2808 3366
2809 2842
2810 3467
2811 2897
2811 3148
2811 3366
2814 3202
2814 3321
2816 3175
2817 2942
2817 3258
2817 3360
2818 3188
2818 3469
2820 3128
2820 3352
2820 3458
2823 3032
2824 2826
2827 3347
2827 3457
2828 2831
2828 3077
2830 3339
2835 2870
2835 2897
2835 2949
2835 3015
2835 3019
2835 3047
2835 3078
2835 3087
2835 3132
2835 3143
2835 3157
2835 3180
2835 3315
2835 3322
2835 3358
2835 3366
2835 3414
2837 3202
2838 3429
2840 3259
2843 2844
2843 2855
2843 2859
2844 2846
2844 2855
2844 2859
2846 2939
2846 3059
2848 2978
2848 3077
2848 3266
2859 3357
2863 2947
2867 3001
2868 3450
2868 3454
2869 2965
2870 2882
2870 2897
2870 2949
2870 3047
2870 3078
2870 3132
2870 3228
2870 3315
2870 3326
2870 3366
2870 3409
2870 3414
2870 3432
2871 3154
2871 3156
2878 3009
2880 3031
2881 2895
2881 3392
2882 2895
2882 3085
2882 3096
2882 3097
2882 3228
2883 3216
2884 3369
2886 3328
2888 2962
2889 2895
2889 3047
2889 3074
2889 3082
2889 3157
2889 3322
2889 3359
2889 3411
2890 3416
2892 3198
2895 3172
2895 3392
2896 3213
2897 2949
2897 3047
2897 3078
2897 3132
2897 3148
2897 3315
2897 3366
2897 3414
2898 3182
2898 3423
2900 3387
2901 3295
2903 2912
2909 3279
2910 3384
2912 3402
2915 3211
2916 3309
2917 3347
2919 3361
2920 3319
2921 3003
2921 3189
2924 2987
2925 2988
2926 2987
2930 3371
2933 3000
2933 3259
2934 3202
2934 3321
2936 3096
2936 3256
2936 3377
2938 3234
2941 2975
2942 3258
2944 3303
2945 3046
2946 2996
2946 3274
2947 2968
2949 3047
2949 3078
2949 3132
2949 3315
2949 3366
2949 3414
2954 2976
2955 3325
2956 3039
2956 3170
2958 3281
2959 3101
2959 3233
2962 3405
2967 2969
2972 2988
2973 3291
2974 3076
2974 3369
2978 3077
2979 3199
2981 3045
2981 3060
2981 3203
2981 3249
2981 3361
2981 3383
2983 3069
2983 3105
2984 3168
2987 3165
2991 3124
2991 3278
2991 3288
2995 3003
2995 3050
2995 3114
2996 3274
3001 3002
3003 3026
3003 3189
3003 3236
3004 3199
3004 3410
3008 3234
3014 3359
3014 3459
3019 3047
3019 3087
3019 3157
3020 3293
3021 3175
3022 3096
3022 3318
3025 3175
3026 3189
3032 3298
3033 3306
3035 3268
3036 3141
3036 3238
3042 3320
3042 3419
3044 3105
3045 3311
3045 3436
3047 3054
3047 3074
3047 3078
3047 3091
3047 3132
3047 3157
3047 3169
3047 3180
3047 3315
3047 3322
3047 3359
3047 3366
3047 3386
3047 3414
3047 3420
3050 3410
3051 3434
3054 3420
3058 3241
3060 3241
3060 3376
3060 3383
3064 3141
3064 3218
3065 3186
3065 3193
3067 3443
3068 3088
3068 3089
3068 3221
3070 3106
3070 3112
3070 3411
3074 3157
3074 3322
3074 3359
3076 3343
3076 3433
3078 3132
3078 3315
3078 3366
3078 3414
3082 3172
3085 3088
3085 3096
3085 3106
3087 3143
3088 3089
3088 3221
3088 3397
3091 3420
3092 3172
3092 3390
3093 3222
3094 3369
3096 3106
3096 3144
3096 3256
3096 3279
3096 3394
3096 3395
3104 3217
3106 3454
3107 3113
3107 3118
3107 3428
3114 3379
3117 3435
3118 3319
3121 3201
3130 3164
3132 3315
3132 3326
3132 3366
3132 3414
3133 3202
3139 3368
3141 3218
3142 3342
3144 3306
3144 3370
3147 3183
3147 3184
3152 3234
3154 3156
3157 3180
3157 3322
3157 3359
3159 3311
3161 3244
3164 3195
3164 3382
3166 3417
3169 3420
3171 3199
3171 3230
3172 3199
3172 3389
3172 3390
3174 3249
3175 3188
3175 3303
3175 3346
3181 3430
3182 3364
3186 3458
3188 3303
3188 3469
3189 3236
3191 3435
3194 3222
3195 3382
3197 3298
3199 3286
3199 3390
3199 3410
3202 3203
3202 3321
3203 3361
3204 3449
3204 3456
3207 3248
3209 3232
3212 3363
3213 3326
3217 3310
3222 3258
3222 3263
3223 3311
3225 3353
3227 3270
3228 3231
3228 3415
3232 3332
3232 3429
3235 3265
3236 3302
3241 3403
3245 3436
3246 3279
3246 3367
3248 3444
3249 3438
3250 3446
3252 3304
3256 3377
3258 3345
3263 3271
3263 3280
3274 3362
3278 3288
3278 3293
3279 3302
3279 3367
3280 3456
3292 3301
3298 3372
3303 3469
3307 3438
3307 3445
3311 3462
3315 3366
3315 3414
3319 3385
3320 3419
3322 3359
3326 3432
3334 3344
3359 3373
3366 3414
3366 3460
3376 3383
3392 3416
3401 3406
3449 3454
