%%MatrixMarket matrix coordinate pattern symmetric
282 282 555
1 2
1 3
1 4
1 13
1 38
1 94
1 110
1 198
1 204
3 4
3 10
3 11
3 12
3 13
3 38
3 39
3 40
3 53
3 106
3 107
3 121
3 126
3 127
3 197
3 198
3 217
3 248
3 252
3 257
3 277
3 279
3 280
4 12
4 13
4 38
4 39
4 40
4 163
4 165
4 167
4 185
4 188
4 189
4 190
4 197
4 198
4 200
4 235
4 248
4 279
4 280
5 6
5 7
6 7
6 155
6 156
6 157
7 23
7 54
7 55
7 56
7 114
7 154
7 263
7 264
8 9
9 58
9 59
9 60
10 11
10 12
10 13
10 14
10 15
10 16
10 17
10 217
11 12
11 13
12 13
12 39
12 40
12 219
12 259
12 275
13 39
13 40
13 127
13 197
13 198
13 248
13 252
13 277
13 279
14 15
14 24
14 50
14 142
14 165
14 203
14 206
14 274
15 50
15 142
15 165
15 203
15 206
15 274
16 17
16 171
18 19
18 20
18 21
18 28
18 90
18 178
18 179
18 186
18 211
18 226
19 20
19 21
20 21
20 43
20 44
20 45
20 47
20 178
20 182
21 69
21 117
21 178
21 183
21 186
21 211
22 23
23 34
23 78
23 85
23 86
23 87
23 88
23 89
23 104
23 105
23 128
23 161
23 162
23 185
23 187
23 216
23 233
23 234
23 242
23 249
25 26
25 27
25 28
25 29
25 30
25 44
25 67
25 177
26 27
26 28
27 28
27 29
27 30
27 44
27 67
27 176
27 177
27 243
27 276
28 29
28 30
28 90
28 177
28 178
28 179
29 30
29 177
31 32
32 240
32 241
33 34
34 143
34 144
34 191
34 222
34 254
35 36
35 37
35 192
36 37
36 45
36 140
36 192
36 218
36 273
37 218
38 57
39 40
39 252
41 42
42 58
42 65
42 148
42 149
42 181
43 44
43 45
43 46
44 45
44 67
44 78
44 81
44 133
44 139
44 140
44 243
44 244
44 251
45 67
45 81
45 97
45 98
45 139
45 140
45 210
45 229
45 273
46 140
48 49
48 81
48 91
48 158
48 159
50 51
50 52
51 52
52 240
52 269
54 55
54 56
56 208
56 209
56 236
56 237
56 238
56 265
57 81
57 82
57 83
57 91
57 92
58 59
58 60
58 61
58 62
58 63
58 64
58 65
58 66
58 70
58 71
58 102
58 103
58 139
58 196
58 224
58 272
59 60
59 70
59 71
60 61
60 62
60 66
60 70
60 71
60 224
61 62
61 63
61 64
61 66
61 100
61 124
61 175
61 239
61 256
61 267
61 282
62 63
62 64
62 66
63 64
63 100
63 239
64 124
66 224
67 139
67 140
68 69
70 71
71 102
71 103
72 73
72 74
73 74
73 207
74 87
74 205
74 207
75 76
76 109
76 110
76 111
76 153
77 78
77 79
77 80
78 79
78 80
78 145
78 146
78 147
78 225
78 244
78 261
78 271
79 80
79 118
80 145
80 271
81 82
81 83
81 84
81 91
81 92
81 120
81 158
81 159
82 83
82 84
82 246
83 132
83 220
83 270
85 86
85 87
85 88
85 89
86 87
86 88
87 88
87 151
87 205
88 89
88 223
88 278
89 105
89 128
89 129
89 131
91 92
91 158
91 159
93 94
93 95
93 96
94 95
94 96
94 110
94 112
94 113
94 154
94 204
94 247
94 268
95 96
95 110
95 112
95 247
96 142
96 266
97 98
97 250
99 100
99 101
99 172
100 101
100 175
100 239
100 267
102 103
103 139
103 196
104 105
105 187
105 201
106 107
106 108
106 255
106 257
107 108
107 255
107 257
107 262
109 110
109 111
110 111
110 112
110 113
110 204
111 153
112 154
112 268
114 115
114 263
116 117
117 169
117 170
117 183
117 184
119 120
120 158
121 122
123 124
123 125
123 213
123 231
124 125
124 213
124 214
124 231
124 232
128 129
128 130
128 131
133 134
133 135
133 136
133 251
134 135
135 136
137 138
137 139
137 140
138 139
138 140
138 168
139 140
139 168
139 196
139 227
139 228
139 229
139 230
140 210
140 260
140 273
141 142
142 253
142 266
143 144
144 222
145 146
145 147
148 149
149 181
150 151
150 152
150 245
151 152
151 245
155 156
155 157
158 159
158 160
163 164
163 165
163 166
163 167
163 203
164 165
165 166
165 167
165 193
165 199
165 200
165 203
165 235
167 193
167 235
169 170
170 281
173 174
173 175
174 175
174 180
175 239
175 267
178 179
185 186
185 187
185 188
185 189
185 190
185 191
185 194
185 202
185 234
186 211
189 190
189 191
189 193
189 194
189 195
189 202
191 194
191 202
191 254
193 194
193 195
193 235
194 195
194 202
198 248
208 209
209 236
209 237
209 238
212 213
212 214
212 215
213 214
213 215
213 231
213 232
214 232
220 221
220 270
227 228
228 229
228 230
236 237
236 238
239 256
239 267
239 282
240 241
240 269
258 259
259 275
279 280
