%%MatrixMarket matrix coordinate pattern symmetric
76 76 99
1 33
2 17
2 25
2 31
2 59
3 7
3 10
3 15
3 29
3 39
3 45
3 50
3 67
3 70
4 46
5 42
5 53
6 36
7 34
8 19
8 57
9 22
11 46
12 31
13 52
14 44
14 58
15 29
16 24
16 30
16 59
17 59
18 74
19 21
19 36
19 49
19 57
19 71
20 36
21 36
22 34
22 38
23 31
23 47
25 31
25 34
25 76
26 29
27 29
27 48
27 66
28 53
29 48
29 54
29 55
29 72
29 73
29 74
30 59
31 32
31 34
31 39
31 51
31 68
31 76
33 34
33 63
34 37
34 38
34 39
34 60
34 65
34 75
35 66
36 40
36 47
36 51
38 46
38 61
38 64
39 65
39 70
40 51
40 52
41 42
42 53
42 54
43 68
46 61
46 64
48 51
48 52
51 52
56 71
57 69
58 74
62 68
72 73
73 74
