%%MatrixMarket matrix coordinate pattern symmetric
317 317 2081
1 3
1 5
2 5
3 5
3 19
3 39
4 5
4 9
5 9
5 12
5 17
5 19
5 20
5 21
5 23
5 27
5 28
5 29
5 30
5 39
5 56
5 58
5 102
5 107
5 133
5 190
5 234
5 298
6 7
6 8
6 9
7 9
8 9
9 10
9 11
9 13
9 14
9 15
12 16
16 19
18 19
19 22
19 24
19 26
19 39
21 27
22 24
22 26
22 39
24 25
25 26
26 39
27 28
28 30
29 30
31 39
31 56
31 131
32 37
32 38
32 42
32 47
32 53
32 133
33 45
33 58
33 155
34 39
35 58
36 58
37 38
37 39
37 42
37 46
37 47
37 50
37 51
37 53
37 54
37 56
37 58
37 73
37 107
37 131
37 133
37 155
37 190
38 42
38 47
38 54
38 58
38 133
39 40
39 41
39 46
39 48
39 50
39 51
39 52
39 56
39 58
39 65
39 66
39 73
39 76
39 84
39 99
39 102
39 107
39 112
39 120
39 131
39 133
39 136
39 139
39 141
39 155
39 158
39 161
39 165
39 166
39 171
39 172
39 186
39 190
39 192
39 207
39 217
39 219
39 231
39 232
39 234
39 239
39 241
39 244
39 247
39 249
39 278
39 296
39 298
39 301
40 41
40 56
41 48
41 52
42 47
42 53
42 54
42 58
42 133
42 155
43 58
43 72
43 107
43 155
44 58
45 58
45 72
45 133
45 155
46 50
46 51
46 52
46 56
46 73
47 53
47 54
47 133
48 50
48 51
48 52
48 56
49 60
49 61
49 62
49 107
50 51
50 52
50 56
50 73
51 52
51 55
51 56
51 73
51 133
52 55
52 56
53 54
54 58
54 133
54 155
55 56
56 57
56 58
56 65
56 66
56 73
56 77
56 98
56 102
56 105
56 107
56 131
56 133
56 140
56 155
56 158
56 165
56 172
56 186
56 190
56 192
56 207
56 231
56 232
56 234
56 239
56 241
56 244
56 247
56 249
56 278
57 77
57 105
57 140
58 62
58 67
58 69
58 72
58 80
58 84
58 85
58 89
58 99
58 101
58 102
58 107
58 108
58 109
58 112
58 117
58 120
58 122
58 125
58 133
58 135
58 136
58 139
58 141
58 142
58 148
58 150
58 151
58 155
58 156
58 161
58 163
58 165
58 166
58 168
58 171
58 172
58 178
58 186
58 190
58 192
58 205
58 207
58 217
58 219
58 220
58 232
58 234
58 239
58 241
58 244
58 247
58 249
58 259
58 277
58 278
58 281
58 284
58 286
58 292
58 295
58 296
58 298
59 70
59 86
59 99
59 107
59 114
59 136
60 62
60 64
60 107
61 102
61 107
62 64
62 68
62 80
62 101
62 102
62 107
63 86
63 107
63 135
63 136
63 141
63 151
63 166
64 68
64 80
64 84
64 107
65 66
65 105
65 190
66 77
66 98
66 105
66 140
66 155
66 190
67 72
67 88
67 107
67 131
67 133
68 84
68 107
69 107
70 91
70 99
70 107
70 135
70 136
70 141
70 151
70 165
70 166
71 75
71 107
71 133
71 155
71 247
72 96
72 107
72 119
72 129
72 133
72 155
72 171
73 75
73 76
73 87
73 94
73 107
73 133
73 155
73 190
73 234
74 102
74 107
75 87
75 133
75 247
76 133
78 107
79 163
80 84
80 102
80 107
80 141
80 155
80 171
81 82
81 85
81 99
81 102
81 107
81 108
81 135
81 136
81 139
81 141
81 151
81 163
81 165
81 166
81 168
81 209
81 217
81 241
82 85
82 99
82 102
82 107
82 108
82 132
82 135
82 136
82 139
82 141
82 151
82 163
82 165
82 168
82 171
82 209
82 217
82 241
82 284
83 90
83 107
83 141
83 150
84 89
84 99
84 102
84 107
84 120
84 135
84 136
84 141
84 148
84 151
84 155
84 161
84 165
84 168
84 171
84 190
84 205
84 207
84 217
84 219
84 234
84 241
84 244
84 247
84 249
84 284
84 286
84 295
84 296
85 91
85 99
85 102
85 107
85 108
85 120
85 135
85 136
85 139
85 141
85 151
85 163
85 165
85 166
85 168
85 209
85 217
85 241
85 284
86 107
86 136
86 141
86 151
86 166
87 94
88 133
89 102
89 107
89 136
89 141
89 150
89 156
89 165
90 101
90 102
90 107
90 126
90 141
90 150
91 102
91 107
91 118
91 135
91 141
91 151
91 163
91 165
91 168
91 209
91 217
91 241
92 97
92 107
92 109
92 171
93 141
94 133
95 112
95 156
95 171
96 107
96 109
96 129
96 155
96 171
97 107
98 105
98 190
99 102
99 107
99 108
99 120
99 133
99 135
99 136
99 139
99 141
99 148
99 150
99 151
99 155
99 156
99 159
99 163
99 165
99 166
99 168
99 171
99 190
99 191
99 192
99 200
99 205
99 207
99 209
99 217
99 219
99 234
99 241
99 244
99 247
99 258
99 278
99 284
99 286
99 291
99 292
99 295
99 296
99 306
100 141
100 151
101 102
101 107
101 141
101 150
102 107
102 108
102 112
102 114
102 115
102 120
102 125
102 126
102 133
102 135
102 136
102 138
102 139
102 141
102 146
102 148
102 150
102 151
102 155
102 156
102 159
102 161
102 163
102 165
102 166
102 168
102 171
102 178
102 190
102 191
102 192
102 200
102 205
102 207
102 209
102 217
102 219
102 234
102 239
102 241
102 244
102 247
102 249
102 277
102 278
102 281
102 284
102 286
102 290
102 291
102 292
102 295
102 296
103 141
103 163
104 107
105 140
106 141
107 108
107 109
107 114
107 115
107 116
107 117
107 118
107 119
107 120
107 122
107 123
107 125
107 126
107 128
107 129
107 132
107 133
107 134
107 135
107 136
107 137
107 138
107 139
107 141
107 142
107 143
107 144
107 146
107 147
107 148
107 150
107 151
107 152
107 153
107 155
107 156
107 157
107 158
107 161
107 162
107 163
107 165
107 166
107 168
107 170
107 171
107 172
107 175
107 178
107 180
107 181
107 186
107 187
107 190
107 191
107 192
107 193
107 200
107 204
107 205
107 206
107 207
107 209
107 210
107 213
107 216
107 217
107 219
107 220
107 226
107 232
107 234
107 235
107 236
107 239
107 241
107 242
107 244
107 246
107 247
107 249
107 258
107 259
107 261
107 269
107 273
107 277
107 278
107 281
107 282
107 284
107 286
107 290
107 291
107 292
107 295
107 296
107 298
107 306
108 120
108 135
108 136
108 139
108 141
108 151
108 163
108 165
108 166
108 168
108 171
108 205
108 209
108 217
108 241
108 247
108 284
108 286
108 291
108 295
108 296
108 306
109 119
109 155
109 171
109 244
110 131
111 152
112 120
112 135
112 136
112 141
112 148
112 152
112 155
112 156
112 161
112 168
112 171
112 205
112 207
112 241
112 247
112 258
112 281
112 284
112 286
112 287
112 292
112 295
113 127
113 190
114 120
114 136
114 141
114 151
114 159
114 163
114 166
114 168
114 209
114 217
114 241
114 284
115 126
115 141
115 150
115 165
115 171
115 205
116 126
116 141
116 241
117 122
117 131
117 141
117 155
117 171
117 244
117 247
118 141
118 209
118 241
119 134
119 137
119 149
119 155
119 171
119 244
120 135
120 136
120 139
120 141
120 142
120 151
120 155
120 156
120 159
120 161
120 163
120 165
120 166
120 168
120 171
120 178
120 190
120 200
120 205
120 207
120 209
120 217
120 234
120 241
120 244
120 247
120 277
120 278
120 284
120 286
120 290
120 291
120 292
120 295
120 296
121 141
121 163
121 217
121 241
122 129
122 133
122 141
122 155
122 161
122 171
122 207
122 219
122 241
122 244
122 247
122 278
123 125
124 128
125 141
126 128
126 141
126 150
126 165
126 241
127 172
127 190
128 150
128 151
128 156
128 166
128 217
129 155
129 171
130 146
130 166
131 133
131 155
131 161
131 187
131 204
131 213
131 216
131 220
131 247
131 278
132 136
132 141
132 151
132 159
132 163
132 209
132 217
132 284
132 291
132 295
132 296
133 139
133 151
133 155
133 157
133 158
133 161
133 165
133 166
133 170
133 171
133 172
133 186
133 190
133 192
133 201
133 204
133 207
133 213
133 220
133 231
133 232
133 234
133 236
133 239
133 241
133 244
133 247
133 249
133 259
133 277
133 278
133 282
133 284
134 137
134 171
135 136
135 139
135 141
135 148
135 150
135 155
135 156
135 157
135 161
135 163
135 165
135 166
135 168
135 171
135 178
135 191
135 200
135 205
135 206
135 209
135 217
135 219
135 223
135 241
135 246
135 247
135 269
135 277
135 278
135 284
135 286
135 290
135 291
135 292
135 295
135 296
136 139
136 141
136 142
136 148
136 150
136 151
136 155
136 156
136 161
136 163
136 165
136 166
136 168
136 171
136 190
136 191
136 200
136 205
136 206
136 207
136 209
136 217
136 219
136 234
136 235
136 241
136 244
136 246
136 247
136 258
136 269
136 277
136 278
136 283
136 284
136 285
136 286
136 290
136 291
136 292
136 295
136 296
136 305
136 306
136 307
136 309
136 310
137 147
137 155
137 171
138 141
138 146
138 209
138 217
138 241
139 141
139 148
139 151
139 155
139 156
139 163
139 165
139 166
139 168
139 171
139 190
139 191
139 200
139 207
139 209
139 217
139 234
139 241
139 244
139 247
139 249
139 277
139 281
139 284
139 286
139 291
139 295
139 296
139 305
139 306
139 307
139 309
139 310
140 190
141 145
141 146
141 147
141 148
141 150
141 151
141 155
141 156
141 159
141 161
141 163
141 165
141 166
141 168
141 171
141 172
141 175
141 176
141 178
141 180
141 181
141 187
141 190
141 191
141 198
141 200
141 203
141 205
141 206
141 207
141 209
141 210
141 217
141 219
141 220
141 234
141 238
141 241
141 242
141 244
141 247
141 249
141 269
141 273
141 277
141 278
141 282
141 284
141 286
141 290
141 291
141 292
141 295
141 296
142 155
142 192
142 234
142 247
142 278
143 153
143 160
143 171
144 160
146 166
146 209
146 217
146 241
147 150
147 160
147 171
148 150
148 151
148 155
148 156
148 163
148 165
148 168
148 171
148 205
148 207
148 217
148 234
148 241
148 244
148 247
148 278
148 284
148 286
149 171
150 151
150 156
150 163
150 168
150 171
150 178
150 180
150 217
150 234
150 241
150 247
150 284
150 286
151 155
151 156
151 161
151 163
151 165
151 166
151 168
151 171
151 190
151 191
151 200
151 205
151 206
151 207
151 209
151 217
151 219
151 223
151 229
151 234
151 235
151 238
151 241
151 244
151 247
151 258
151 269
151 273
151 277
151 278
151 284
151 286
151 290
151 291
151 292
151 295
151 296
151 306
152 171
153 171
154 190
155 156
155 157
155 158
155 161
155 162
155 163
155 164
155 165
155 166
155 170
155 171
155 172
155 173
155 186
155 187
155 190
155 192
155 195
155 201
155 204
155 205
155 207
155 213
155 217
155 219
155 220
155 228
155 231
155 232
155 234
155 236
155 237
155 239
155 241
155 244
155 247
155 249
155 259
155 261
155 273
155 277
155 278
155 281
155 282
155 284
155 286
155 296
155 298
156 161
156 163
156 165
156 168
156 171
156 178
156 180
156 190
156 205
156 207
156 217
156 219
156 234
156 241
156 244
156 247
156 277
156 278
156 284
156 286
156 287
156 292
156 295
156 296
157 234
157 244
157 247
158 172
158 186
158 190
158 192
158 201
158 207
158 232
158 234
158 244
158 247
158 249
161 163
161 165
161 168
161 171
161 187
161 190
161 204
161 205
161 207
161 213
161 217
161 219
161 234
161 241
161 244
161 247
161 249
161 278
161 284
162 234
162 247
163 165
163 166
163 171
163 190
163 191
163 193
163 200
163 205
163 206
163 207
163 209
163 217
163 234
163 241
163 244
163 247
163 258
163 269
163 277
163 278
163 284
163 286
163 290
163 291
163 292
163 295
163 296
163 306
165 168
165 171
165 178
165 181
165 190
165 191
165 200
165 205
165 206
165 207
165 209
165 210
165 217
165 219
165 220
165 225
165 234
165 241
165 242
165 244
165 247
165 249
165 256
165 269
165 277
165 281
165 284
165 286
165 290
165 291
165 292
165 295
165 296
166 168
166 171
166 179
166 190
166 191
166 193
166 200
166 206
166 217
166 226
166 234
166 241
166 244
166 246
166 247
166 249
166 258
166 277
166 278
166 284
166 286
166 295
166 296
166 306
167 190
168 171
168 178
168 205
168 206
168 209
168 217
168 219
168 241
168 246
168 247
168 277
168 278
168 284
168 286
168 291
168 292
168 295
168 296
169 171
170 171
170 177
170 207
170 244
170 247
171 178
171 180
171 181
171 184
171 185
171 187
171 190
171 192
171 195
171 197
171 199
171 200
171 204
171 205
171 207
171 208
171 209
171 210
171 213
171 217
171 219
171 220
171 225
171 232
171 234
171 236
171 239
171 241
171 242
171 244
171 247
171 249
171 259
171 269
171 277
171 278
171 281
171 282
171 284
171 286
171 290
171 291
171 292
171 295
171 296
171 298
171 306
172 186
172 190
172 192
172 201
172 207
172 212
172 231
172 232
172 234
172 239
172 244
172 247
172 249
172 278
173 241
173 247
173 278
174 190
175 181
175 217
178 181
178 205
178 217
178 219
178 241
178 242
178 247
179 191
179 217
181 193
181 205
181 210
181 241
182 190
183 209
186 190
186 201
186 207
186 231
186 232
186 234
186 236
186 237
186 239
186 244
186 247
186 249
187 195
187 204
187 207
187 219
187 244
187 247
188 190
188 201
189 201
190 192
190 194
190 201
190 202
190 205
190 207
190 212
190 215
190 217
190 219
190 220
190 228
190 231
190 232
190 234
190 236
190 237
190 239
190 241
190 244
190 247
190 249
190 261
190 277
190 278
190 284
190 296
190 298
190 301
190 303
191 193
191 200
191 205
191 209
191 217
191 241
191 247
192 207
192 231
192 232
192 234
192 236
192 237
192 239
192 244
192 247
192 249
192 273
192 278
192 296
193 206
193 217
194 201
195 197
195 225
195 247
196 244
200 205
200 209
200 217
200 241
200 247
201 231
201 232
201 234
201 239
201 247
201 249
202 234
203 217
203 241
204 213
204 219
204 225
204 241
204 244
204 247
204 248
204 278
204 281
205 206
205 207
205 209
205 210
205 217
205 219
205 225
205 226
205 234
205 241
205 242
205 244
205 247
205 249
205 256
205 266
205 268
205 269
205 271
205 277
205 278
205 281
205 282
205 284
205 286
205 291
205 292
205 295
205 296
205 306
206 209
206 217
206 222
206 235
206 241
206 247
206 284
207 217
207 219
207 220
207 231
207 232
207 234
207 236
207 239
207 241
207 244
207 247
207 249
207 259
207 261
207 278
207 282
207 284
207 286
207 298
208 247
209 217
209 223
209 229
209 235
209 238
209 241
209 246
209 247
209 258
209 269
209 283
209 284
209 285
209 286
209 290
209 291
209 292
209 295
209 296
209 306
209 307
209 310
210 217
210 219
210 241
210 247
211 217
211 241
212 228
212 247
213 219
213 241
213 244
213 247
213 248
213 278
213 281
214 217
216 220
216 240
216 247
216 248
216 259
217 219
217 221
217 222
217 223
217 224
217 225
217 226
217 229
217 234
217 235
217 238
217 241
217 242
217 244
217 245
217 246
217 247
217 249
217 257
217 258
217 266
217 269
217 271
217 272
217 273
217 277
217 278
217 280
217 282
217 283
217 284
217 285
217 286
217 290
217 291
217 292
217 295
217 296
217 306
218 244
219 225
219 226
219 234
219 241
219 242
219 244
219 247
219 268
219 270
219 273
219 277
219 281
219 282
219 284
219 286
219 292
219 295
219 296
220 234
220 240
220 241
220 244
220 247
220 248
220 249
220 259
220 260
220 261
220 278
220 281
221 241
223 241
225 241
225 247
225 248
226 241
226 242
226 247
227 247
228 231
228 234
228 237
228 247
230 234
231 232
231 234
231 239
231 244
231 247
231 249
232 236
232 239
232 241
232 244
232 247
232 249
232 278
232 298
233 247
234 236
234 239
234 241
234 244
234 247
234 249
234 259
234 261
234 277
234 278
234 284
234 286
234 296
234 298
234 301
234 303
234 316
235 241
235 245
235 246
236 244
236 247
236 249
236 259
237 244
237 247
239 241
239 244
239 247
239 249
239 278
240 247
240 248
240 261
240 273
241 242
241 244
241 245
241 246
241 247
241 249
241 251
241 252
241 253
241 256
241 257
241 258
241 261
241 266
241 268
241 269
241 271
241 272
241 273
241 274
241 277
241 278
241 280
241 281
241 282
241 283
241 284
241 285
241 286
241 290
241 291
241 292
241 295
241 296
241 298
241 306
241 307
242 247
242 253
242 256
242 257
242 277
242 281
242 284
243 247
244 247
244 249
244 250
244 259
244 261
244 273
244 278
244 281
244 282
244 284
244 298
245 258
246 258
246 269
247 249
247 252
247 253
247 254
247 255
247 256
247 258
247 259
247 260
247 261
247 262
247 263
247 264
247 265
247 266
247 267
247 268
247 269
247 271
247 273
247 275
247 276
247 277
247 278
247 279
247 281
247 282
247 284
247 286
247 288
247 289
247 290
247 291
247 292
247 293
247 294
247 295
247 296
247 298
247 306
248 260
248 261
248 273
248 277
248 278
248 281
248 282
249 261
249 278
249 296
249 298
252 253
252 256
252 257
252 266
252 271
253 256
253 266
253 268
256 266
256 268
257 268
258 269
258 284
258 307
258 310
259 278
260 261
260 273
260 281
261 273
261 278
261 281
261 282
266 268
266 271
266 278
268 278
269 271
269 278
269 283
269 284
269 285
269 291
269 296
271 278
271 284
271 286
272 284
272 286
272 296
273 278
273 281
273 282
273 293
275 278
277 278
277 281
277 282
277 284
277 286
277 295
277 296
278 281
278 282
278 284
278 286
278 288
278 290
278 291
278 292
278 293
278 294
278 295
278 296
281 282
281 288
281 293
281 296
282 293
283 284
283 285
284 286
284 290
284 291
284 292
284 295
284 296
284 306
284 307
284 310
285 286
285 292
286 290
286 291
286 292
286 295
286 296
286 306
287 295
290 292
290 296
291 292
291 295
291 296
292 295
292 296
295 296
296 305
296 306
296 307
296 309
296 310
297 298
297 301
297 303
298 299
298 300
298 301
298 302
298 303
298 304
298 311
298 314
298 316
299 301
299 302
300 301
300 302
301 302
301 303
301 304
303 304
305 309
306 307
306 308
306 309
306 310
307 310
312 313
312 314
312 315
312 317
313 314
314 315
