%%MatrixMarket matrix coordinate pattern symmetric
1721 1721 2390
1 1415
2 1173
3 1105
4 1082
5 599
6 1503
7 529
8 9
9 91
10 11
11 485
12 14
13 14
14 285
15 598
16 1640
17 1640
18 1647
19 21
20 21
21 597
22 1580
23 1580
24 1567
25 596
26 27
27 28
28 595
29 594
30 32
31 32
32 593
33 34
34 592
35 591
36 1172
37 1152
38 489
39 1409
40 522
41 1171
42 43
43 590
44 589
45 589
46 47
47 1120
48 588
49 1680
50 587
51 1649
52 1623
53 1520
54 586
55 585
56 59
57 1657
58 59
59 966
60 1721
61 1604
62 1604
63 1604
64 1604
65 508
66 1170
67 1490
68 1590
69 70
70 71
71 1507
72 73
73 487
74 1167
75 1096
76 1166
77 1458
78 584
79 1626
80 1626
81 1626
82 1165
83 1090
84 1090
85 86
86 1090
87 1142
88 89
89 90
90 91
91 705
92 1539
93 583
94 1641
95 1160
96 97
97 482
98 1641
99 1564
100 580
101 582
102 1454
103 1538
104 1164
105 579
106 1162
107 578
108 578
109 112
110 112
111 112
112 113
113 1375
114 189
115 1539
116 1127
117 1447
118 1447
119 1447
120 1447
121 1447
122 123
123 1447
124 1161
125 126
126 1583
127 577
128 576
129 573
130 572
131 747
132 747
133 238
134 571
135 570
136 570
137 570
138 1160
139 1532
140 1636
141 1636
142 1636
143 1636
144 1664
145 1664
146 1664
147 567
148 566
149 150
150 1396
151 152
152 549
153 1159
154 565
155 1651
156 1479
157 1479
158 1479
159 1479
160 1479
161 564
162 1158
163 1158
164 1158
165 1688
166 1688
167 1688
168 169
169 562
170 171
171 1157
172 173
173 174
174 1276
174 1307
174 1463
174 1619
174 1678
175 560
176 551
177 1438
178 1091
179 558
180 1539
181 554
182 554
183 768
184 557
185 557
186 1681
187 188
188 189
189 1573
190 191
191 1488
192 555
193 554
194 553
195 1696
196 552
197 1156
198 1156
199 550
200 201
201 548
202 204
203 204
204 547
205 464
206 1598
207 546
208 545
209 1637
210 544
211 543
212 1154
213 540
214 215
215 1618
216 539
217 464
218 219
219 220
220 353
221 1152
222 1153
223 1066
224 225
225 226
226 227
227 228
228 536
229 1084
230 231
231 535
232 534
233 234
234 531
235 1654
236 1654
237 238
238 747
239 527
240 526
241 1152
242 1094
243 1094
244 525
245 525
246 524
247 249
248 249
249 492
250 523
251 523
252 254
253 254
254 1452
255 521
256 258
257 258
258 1151
259 1446
260 1446
261 1104
262 561
263 561
264 265
265 520
266 267
267 519
268 269
269 1150
270 271
271 1150
272 517
273 516
274 515
275 1149
276 277
277 278
278 1494
279 513
280 1645
281 1645
282 512
283 285
284 285
285 286
286 1375
287 511
288 509
289 507
290 507
291 506
292 504
293 503
294 1509
295 502
296 1011
297 298
298 1011
299 500
300 301
301 302
302 303
303 499
304 1354
305 1354
306 497
307 496
308 495
309 494
310 1148
311 493
312 1699
313 1148
314 1106
315 1147
316 1146
317 1146
318 492
319 492
320 322
321 322
322 490
323 488
324 1145
325 487
326 486
327 485
328 1144
329 484
330 484
331 484
332 483
333 483
334 482
335 1098
336 1098
337 1098
338 1098
339 1098
340 1685
341 1143
342 343
343 1696
344 1658
345 1658
346 1658
347 348
348 1658
349 1701
350 481
351 1564
352 353
353 354
354 1142
355 1611
356 1611
357 1414
358 1414
359 1657
360 1457
361 480
362 1456
363 1141
364 1141
365 479
366 1383
367 369
368 369
369 370
370 478
371 1708
372 1708
373 477
374 477
375 498
376 476
377 1539
378 1424
379 1420
380 475
381 1140
382 1140
383 1140
384 1140
385 474
386 1594
387 1139
388 1139
389 1138
390 1566
391 1566
392 1137
393 394
394 473
395 396
396 1437
397 1169
398 399
399 1658
400 401
401 1658
402 1449
403 1136
404 472
405 407
406 407
407 434
408 471
409 471
410 470
411 528
412 413
413 1135
414 1134
415 469
416 1449
417 1089
418 468
419 514
420 1133
421 1687
422 1687
423 467
424 1092
425 466
426 466
427 1356
428 429
429 465
430 464
431 1132
432 727
433 434
434 1251
435 1539
436 463
437 438
438 1530
439 1494
440 1131
441 1131
442 1130
443 1533
444 1533
445 1129
446 1129
447 1128
448 449
449 1702
450 1592
451 1592
452 1127
453 1499
454 462
455 462
456 458
457 458
458 461
459 460
460 1123
460 1533
461 619
461 1632
462 1595
462 1597
463 613
463 1580
464 1128
464 1562
465 1131
465 1653
466 692
466 1528
467 479
467 1371
468 1331
468 1361
469 1535
469 1651
470 1511
470 1539
471 638
471 1116
472 1258
472 1523
473 582
473 1641
474 830
474 1662
475 553
475 1451
476 1250
476 1564
477 1568
477 1708
478 1410
478 1584
479 1281
480 1338
480 1673
481 562
481 563
482 509
482 510
483 1126
483 1579
484 525
484 642
485 1210
485 1641
486 524
486 526
487 667
487 1113
488 489
488 1451
489 1451
490 491
490 878
491 878
492 1446
492 1692
493 1465
493 1699
494 933
494 1686
495 496
495 1138
496 1530
497 498
497 1681
498 1125
498 1681
499 886
499 896
500 501
500 641
501 641
501 1447
502 1563
502 1695
503 850
503 1444
504 505
504 870
505 592
505 870
506 919
506 1471
507 508
507 538
508 538
509 1491
510 1460
510 1491
511 900
511 1407
512 1486
512 1488
513 514
513 1705
514 566
514 1243
514 1244
514 1252
514 1563
514 1706
515 516
515 1665
516 1182
517 518
517 1420
518 1124
518 1420
519 595
519 1340
520 804
520 1497
521 522
521 1251
522 1251
523 1319
523 1321
524 1666
525 1094
526 1472
527 528
527 529
528 529
528 1577
529 530
529 1577
530 1454
530 1577
531 532
531 870
532 533
532 870
533 869
533 870
534 855
534 1490
535 1123
535 1533
536 537
536 538
537 538
538 599
538 1486
539 1450
539 1576
540 541
540 542
541 542
541 1484
542 1480
543 1047
543 1378
544 644
544 1651
545 546
545 1598
546 1435
547 1628
547 1646
548 549
548 1347
549 1347
550 551
550 1122
551 1122
552 1341
552 1696
553 1032
554 1066
554 1450
555 556
555 1121
556 1121
557 1551
557 1584
558 559
558 1091
559 1091
560 561
560 1120
561 583
561 1120
562 1490
563 1092
563 1490
564 1445
564 1692
565 625
565 1046
566 1119
567 568
567 569
568 569
569 1698
570 1226
570 1587
571 754
571 1108
572 573
572 574
573 574
574 575
575 1136
575 1396
576 1118
576 1587
577 1583
577 1640
578 878
578 1100
579 1117
579 1488
580 581
580 582
581 582
581 1377
583 784
584 1220
584 1237
585 966
585 1238
586 966
586 1238
587 1110
587 1111
588 1128
588 1355
589 794
589 1199
590 828
590 1623
591 642
591 687
592 871
593 752
593 871
594 1236
594 1534
595 664
596 1236
596 1534
597 1396
597 1506
598 1401
598 1489
599 1053
600 603
600 921
601 1369
601 1537
602 603
602 1323
604 1495
604 1690
605 1510
605 1691
606 1175
606 1691
607 721
607 1685
608 1172
608 1523
609 1274
609 1612
610 1058
610 1609
611 1238
611 1663
612 814
612 1402
613 1257
614 615
614 1157
615 907
616 1451
616 1494
617 1411
617 1499
618 1456
618 1503
619 1255
620 905
620 1282
621 1482
621 1484
622 899
622 1036
623 1234
623 1235
624 820
624 1575
625 1489
626 627
626 1452
627 1615
628 1027
628 1073
629 1003
629 1062
630 916
630 1543
631 677
631 1647
632 989
632 1434
633 798
633 1182
634 1086
634 1265
635 1155
635 1366
636 1186
636 1205
637 758
637 911
638 1061
639 971
639 1283
640 641
640 1495
641 1495
643 1189
643 1508
644 1500
645 772
645 1209
646 647
646 1390
647 1631
648 694
648 708
649 1039
649 1531
650 1088
650 1442
651 1221
651 1514
652 1195
652 1703
653 1116
653 1444
654 655
654 1626
655 689
656 993
656 1655
657 1085
657 1251
658 1632
658 1637
659 964
659 1095
660 1095
660 1700
661 1547
661 1700
662 1698
663 1114
663 1115
664 1645
665 1454
665 1575
666 667
666 1113
667 1507
668 1113
668 1396
669 674
669 1507
670 674
670 1507
671 674
671 1506
672 1506
672 1647
673 674
673 1506
675 1110
675 1111
676 1202
676 1647
677 1296
678 727
678 728
679 1141
679 1520
680 1103
680 1716
681 731
681 1105
682 1619
682 1676
683 1145
683 1411
684 1460
684 1720
685 943
685 1557
686 687
686 1094
687 1235
688 1161
688 1620
689 1225
690 1462
690 1721
691 758
691 1692
692 1623
693 909
693 1431
694 1023
695 1090
695 1387
696 1215
696 1367
697 1084
697 1487
698 1167
698 1556
699 1439
700 1456
700 1653
701 1151
701 1626
702 1427
702 1618
703 1604
703 1660
704 705
704 1086
705 1086
705 1378
706 1092
706 1614
707 714
707 1236
708 886
709 880
709 1434
710 840
710 1696
711 1160
711 1560
712 1259
712 1564
713 714
713 1236
714 776
714 1236
715 1396
715 1508
716 787
716 1240
717 1088
717 1443
718 719
718 1047
719 1046
720 1397
720 1544
721 1105
722 890
722 1693
723 1129
723 1631
724 967
724 1533
725 726
725 727
726 727
726 728
727 728
728 1055
728 1346
729 781
729 1209
730 1081
730 1448
731 764
732 1384
732 1686
733 734
733 1185
734 1558
735 1030
735 1652
736 815
736 974
737 927
737 1679
738 1634
738 1662
739 1583
739 1673
740 1109
740 1589
741 1247
741 1581
742 1634
742 1662
743 876
743 1323
744 790
744 995
745 1138
745 1700
746 747
746 1690
747 1227
747 1690
748 797
748 1207
749 1446
749 1699
750 934
750 1638
751 994
751 1693
752 869
753 754
753 1108
754 1554
755 1037
755 1069
756 1215
756 1477
757 1085
757 1381
759 1107
759 1618
760 1106
760 1627
761 1254
761 1583
762 1147
762 1455
763 764
763 1105
764 1680
765 904
765 923
766 799
766 1198
767 768
767 1527
768 908
768 1527
769 1085
769 1381
770 1635
770 1714
771 1315
771 1459
772 1206
773 984
773 1694
774 985
774 1416
775 881
775 1265
776 1234
777 1575
777 1577
778 1462
778 1491
779 1088
779 1442
780 1387
780 1455
781 1631
782 894
782 902
783 1198
783 1634
784 1208
785 1187
785 1574
786 1590
786 1639
787 906
788 832
788 1090
789 1592
789 1643
790 1685
791 1104
791 1643
792 1076
792 1077
793 1017
793 1308
794 1492
795 853
795 1328
796 1000
796 1695
797 1208
798 1421
799 1365
800 833
800 1716
801 827
801 1665
802 1590
802 1608
803 1641
803 1642
804 1423
805 1497
805 1665
806 1658
806 1693
807 1314
807 1600
808 1077
808 1081
809 1371
809 1610
810 1101
810 1592
811 1464
811 1484
812 911
812 1342
813 1089
813 1549
814 1175
815 1282
816 817
816 818
817 818
817 1291
818 1586
819 1119
819 1668
820 1454
821 1303
821 1554
822 932
822 1570
823 824
823 1528
824 1006
824 1528
825 1277
825 1364
826 827
826 1637
828 1426
829 1181
829 1597
830 989
831 889
831 1620
832 997
833 1103
834 1288
834 1503
835 836
835 1071
836 1070
837 838
837 1453
838 844
839 979
839 1359
840 841
841 842
842 1243
843 1234
843 1237
844 845
845 1382
845 1453
846 1618
846 1664
847 861
847 1095
848 1504
848 1684
849 1153
849 1565
850 1443
851 883
851 1494
852 918
852 1660
853 1431
854 988
854 1153
855 1142
856 1218
856 1627
857 858
857 1306
858 1033
859 1102
859 1635
860 1059
860 1484
861 1548
862 1432
862 1580
863 865
863 1500
864 865
864 988
866 867
866 1084
867 1053
867 1084
868 1607
868 1682
870 1064
871 962
872 888
872 1696
873 874
873 1101
874 1041
874 1101
875 876
875 1322
876 1322
877 878
877 1100
878 1470
879 890
879 1358
880 1098
881 1487
882 1450
882 1494
883 1576
884 1334
884 1670
885 1099
885 1636
887 1098
887 1553
888 1658
889 1415
891 1553
891 1637
892 1196
892 1393
893 1112
893 1194
894 967
895 1359
895 1675
896 1539
897 1024
897 1539
898 1066
898 1450
899 1524
900 1157
901 902
901 1661
903 1301
903 1679
904 1193
905 1197
906 1694
907 939
908 1698
909 1691
910 1297
910 1470
912 1495
912 1690
913 1143
913 1541
914 1197
914 1393
915 945
915 1303
916 1502
917 1230
917 1506
918 919
920 1299
920 1326
921 1326
922 1553
922 1666
923 929
924 1177
924 1529
925 926
925 1505
926 936
927 1607
928 1015
928 1639
929 1691
930 1452
930 1696
931 1452
931 1696
932 1500
933 1524
934 1471
935 961
935 1211
936 1211
937 978
937 1393
938 939
938 1674
940 1299
940 1514
941 1299
941 1637
942 1031
942 1326
943 1166
944 1557
944 1633
945 1365
946 1005
946 1458
947 1159
947 1356
948 1417
948 1419
949 1221
949 1329
950 951
950 1458
951 1633
952 1314
952 1600
953 962
953 1483
954 1020
954 1636
955 1448
955 1549
956 1034
956 1381
957 1076
957 1077
958 960
958 1668
959 960
959 1097
960 1097
961 1389
963 1096
963 1576
964 1700
965 966
965 1094
966 1094
968 974
968 1393
969 1015
969 1503
970 1313
970 1314
971 1632
972 1421
972 1424
973 1119
973 1615
975 1093
975 1437
976 1042
976 1310
977 1092
977 1614
978 1503
979 1351
980 1515
980 1655
981 1515
981 1655
982 1087
982 1442
983 1495
983 1690
984 1389
985 990
986 1316
986 1317
987 1245
987 1383
990 1129
991 1091
991 1576
992 993
992 1515
993 1515
994 1371
995 1246
996 1639
996 1658
997 1387
998 1102
998 1365
999 1089
999 1495
1000 1610
1001 1083
1001 1448
1002 1143
1002 1652
1003 1329
1004 1459
1004 1641
1005 1630
1006 1590
1007 1008
1007 1548
1008 1544
1008 1548
1009 1522
1009 1572
1010 1011
1010 1087
1011 1087
1011 1443
1012 1245
1012 1675
1013 1114
1013 1429
1014 1330
1014 1355
1016 1634
1016 1635
1017 1134
1018 1409
1018 1650
1019 1050
1019 1283
1020 1108
1021 1332
1021 1548
1022 1023
1022 1024
1023 1024
1025 1086
1025 1487
1026 1293
1026 1617
1027 1335
1028 1246
1028 1687
1029 1300
1029 1504
1030 1402
1031 1636
1032 1494
1033 1698
1034 1085
1035 1248
1035 1698
1036 1688
1037 1505
1038 1123
1038 1534
1039 1123
1040 1315
1040 1515
1041 1613
1042 1462
1043 1261
1043 1614
1044 1045
1044 1046
1045 1047
1047 1378
1048 1156
1048 1683
1049 1222
1049 1224
1050 1634
1051 1480
1051 1482
1052 1429
1052 1481
1054 1055
1054 1347
1055 1347
1056 1083
1056 1495
1057 1405
1057 1475
1058 1524
1059 1336
1060 1117
1060 1378
1061 1686
1062 1630
1063 1599
1063 1686
1064 1115
1065 1066
1065 1450
1066 1579
1067 1345
1067 1698
1068 1255
1068 1618
1069 1612
1070 1082
1071 1082
1071 1363
1072 1503
1072 1653
1073 1381
1074 1479
1074 1585
1075 1076
1075 1077
1076 1081
1078 1176
1078 1559
1079 1080
1079 1583
1080 1176
1080 1583
1081 1449
1081 1549
1082 1174
1082 1361
1083 1447
1083 1495
1084 1485
1084 1486
1085 1250
1086 1487
1087 1088
1088 1440
1088 1443
1089 1449
1089 1495
1089 1549
1090 1492
1090 1715
1091 1438
1091 1439
1091 1576
1092 1401
1093 1437
1093 1480
1093 1481
1094 1235
1094 1236
1095 1547
1096 1436
1096 1576
1096 1578
1097 1435
1097 1670
1098 1553
1098 1665
1099 1324
1099 1325
1099 1636
1100 1550
1100 1595
1101 1527
1102 1554
1102 1635
1103 1433
1103 1684
1104 1432
1104 1562
1104 1643
1105 1431
1106 1217
1106 1218
1106 1627
1107 1606
1107 1618
1107 1635
1108 1430
1109 1535
1109 1589
1109 1650
1110 1112
1110 1296
1111 1194
1111 1296
1112 1294
1113 1136
1113 1396
1114 1115
1114 1484
1115 1484
1116 1428
1116 1444
1117 1213
1117 1488
1118 1163
1118 1587
1118 1603
1119 1671
1120 1209
1120 1555
1121 1318
1121 1427
1121 1638
1122 1426
1122 1556
1122 1657
1124 1417
1124 1418
1124 1420
1125 1619
1125 1620
1125 1681
1126 1450
1126 1578
1126 1579
1127 1525
1127 1612
1127 1699
1128 1356
1129 1533
1130 1415
1130 1532
1130 1619
1131 1598
1131 1656
1132 1510
1132 1568
1132 1709
1133 1142
1133 1400
1133 1489
1134 1307
1134 1676
1135 1414
1135 1644
1135 1701
1136 1171
1137 1413
1137 1566
1137 1620
1138 1573
1139 1491
1139 1594
1139 1673
1140 1141
1140 1659
1140 1662
1141 1659
1142 1400
1143 1685
1144 1248
1144 1412
1144 1592
1145 1585
1145 1586
1146 1222
1146 1223
1146 1225
1147 1558
1147 1626
1148 1505
1148 1660
1148 1699
1149 1512
1149 1539
1149 1569
1150 1410
1150 1665
1150 1666
1151 1550
1151 1597
1152 1170
1152 1530
1152 1690
1153 1409
1154 1155
1154 1602
1154 1603
1155 1602
1155 1603
1156 1408
1156 1501
1157 1599
1158 1465
1158 1497
1158 1663
1159 1357
1159 1358
1160 1639
1160 1693
1161 1406
1161 1552
1162 1163
1162 1587
1162 1603
1163 1226
1164 1405
1164 1477
1164 1538
1165 1508
1165 1578
1165 1579
1166 1531
1166 1629
1167 1168
1167 1169
1168 1169
1168 1556
1169 1621
1169 1655
1170 1404
1170 1690
1171 1396
1171 1648
1172 1403
1172 1622
1173 1522
1173 1574
1173 1689
1174 1363
1174 1607
1175 1719
1176 1561
1177 1614
1177 1673
1178 1649
1178 1677
1178 1679
1179 1400
1179 1401
1179 1718
1180 1399
1180 1595
1180 1624
1181 1624
1181 1625
1182 1339
1183 1526
1183 1640
1183 1656
1184 1567
1184 1649
1184 1676
1185 1398
1185 1605
1186 1397
1186 1502
1187 1495
1187 1689
1188 1247
1188 1581
1188 1583
1189 1396
1189 1506
1190 1528
1190 1608
1190 1621
1191 1395
1191 1512
1191 1616
1192 1527
1192 1593
1192 1688
1193 1402
1193 1609
1194 1295
1195 1366
1195 1516
1196 1197
1196 1370
1197 1370
1198 1283
1199 1605
1199 1664
1200 1391
1200 1392
1200 1683
1201 1354
1201 1543
1201 1544
1202 1296
1202 1385
1203 1229
1203 1230
1203 1231
1204 1418
1204 1419
1204 1424
1205 1502
1205 1542
1206 1208
1206 1390
1207 1209
1207 1390
1210 1526
1210 1594
1211 1660
1212 1374
1212 1376
1212 1419
1213 1488
1213 1490
1214 1461
1214 1462
1214 1491
1215 1289
1216 1388
1216 1559
1216 1582
1217 1218
1217 1472
1218 1472
1218 1624
1218 1627
1219 1460
1219 1461
1219 1600
1220 1238
1220 1629
1221 1629
1222 1225
1223 1224
1223 1387
1224 1387
1226 1525
1227 1386
1227 1689
1228 1403
1228 1517
1228 1623
1229 1231
1229 1385
1230 1231
1230 1385
1230 1506
1231 1385
1231 1697
1232 1353
1232 1470
1232 1595
1233 1469
1233 1537
1233 1538
1235 1237
1238 1534
1239 1611
1239 1644
1239 1678
1240 1384
1240 1644
1241 1413
1241 1566
1241 1567
1242 1565
1242 1570
1242 1702
1243 1244
1244 1358
1245 1382
1246 1524
1247 1640
1248 1592
1249 1588
1249 1650
1249 1651
1250 1251
1251 1564
1251 1689
1252 1357
1252 1563
1253 1380
1253 1570
1253 1702
1254 1379
1254 1581
1255 1637
1256 1257
1256 1542
1256 1580
1257 1545
1258 1536
1258 1590
1259 1522
1259 1573
1260 1292
1260 1366
1260 1516
1261 1651
1261 1670
1262 1516
1262 1521
1262 1602
1263 1441
1263 1442
1263 1445
1264 1320
1264 1322
1264 1325
1265 1488
1266 1377
1266 1581
1266 1582
1267 1518
1267 1588
1267 1671
1268 1644
1268 1694
1268 1701
1269 1436
1269 1493
1269 1575
1270 1409
1270 1565
1270 1569
1271 1373
1271 1375
1271 1419
1272 1370
1272 1394
1272 1610
1273 1598
1273 1654
1273 1696
1274 1520
1274 1604
1275 1600
1275 1655
1275 1720
1276 1407
1276 1675
1277 1362
1277 1607
1278 1372
1278 1519
1278 1591
1279 1389
1279 1660
1279 1701
1280 1519
1280 1674
1280 1682
1281 1282
1281 1370
1284 1637
1284 1663
1284 1664
1285 1455
1285 1492
1285 1558
1286 1518
1286 1589
1286 1650
1287 1513
1287 1538
1287 1585
1288 1394
1288 1653
1289 1368
1289 1477
1290 1517
1290 1536
1290 1621
1291 1469
1291 1661
1292 1366
1292 1602
1293 1512
1293 1539
1294 1296
1294 1507
1295 1296
1295 1507
1297 1353
1297 1648
1298 1498
1298 1687
1298 1698
1300 1541
1300 1684
1301 1566
1301 1567
1302 1418
1302 1420
1302 1422
1303 1632
1304 1331
1304 1360
1304 1364
1305 1347
1305 1595
1305 1648
1306 1571
1306 1616
1307 1308
1308 1407
1309 1422
1309 1423
1309 1665
1310 1669
1310 1721
1311 1359
1311 1694
1311 1701
1312 1313
1312 1314
1312 1515
1313 1515
1313 1600
1314 1315
1315 1600
1316 1318
1316 1633
1317 1318
1317 1633
1318 1633
1319 1320
1319 1325
1320 1322
1321 1322
1321 1323
1321 1325
1323 1324
1324 1326
1327 1540
1327 1616
1327 1702
1328 1609
1328 1685
1329 1514
1330 1357
1330 1563
1331 1364
1332 1333
1332 1546
1333 1354
1333 1548
1334 1617
1334 1708
1335 1564
1335 1577
1336 1485
1336 1672
1337 1608
1337 1654
1337 1658
1338 1589
1338 1614
1339 1423
1339 1665
1340 1611
1340 1678
1341 1452
1341 1561
1342 1546
1342 1580
1343 1374
1343 1375
1343 1424
1344 1513
1344 1537
1344 1601
1345 1593
1345 1702
1346 1353
1346 1595
1347 1353
1347 1648
1348 1511
1348 1569
1348 1571
1349 1596
1349 1597
1349 1667
1350 1510
1350 1540
1350 1616
1351 1675
1351 1703
1352 1509
1352 1643
1352 1695
1353 1646
1354 1546
1354 1548
1355 1356
1356 1563
1360 1362
1360 1363
1361 1362
1363 1683
1364 1681
1367 1368
1367 1369
1367 1479
1368 1369
1368 1476
1368 1479
1369 1476
1372 1674
1372 1679
1373 1374
1373 1376
1375 1419
1375 1421
1376 1421
1376 1422
1377 1642
1379 1561
1379 1582
1380 1539
1380 1617
1381 1564
1381 1700
1382 1681
1383 1453
1383 1681
1383 1703
1384 1599
1386 1560
1386 1610
1387 1455
1388 1615
1388 1640
1390 1555
1390 1618
1390 1659
1391 1504
1391 1607
1392 1504
1392 1680
1393 1394
1393 1503
1395 1511
1395 1571
1397 1547
1398 1625
1398 1628
1399 1596
1399 1627
1403 1517
1404 1530
1404 1572
1404 1575
1404 1690
1405 1479
1406 1619
1406 1678
1408 1680
1408 1685
1410 1551
1411 1587
1412 1498
1412 1593
1413 1676
1414 1611
1414 1645
1415 1676
1416 1531
1416 1557
1417 1422
1420 1423
1423 1424
1424 1425
1426 1622
1427 1555
1428 1445
1428 1446
1429 1482
1430 1630
1430 1633
1432 1496
1433 1591
1433 1674
1434 1638
1435 1671
1436 1493
1437 1483
1437 1485
1438 1467
1438 1578
1439 1467
1439 1549
1440 1441
1440 1445
1441 1443
1441 1445
1441 1613
1442 1444
1445 1446
1445 1613
1445 1692
1447 1448
1447 1549
1447 1575
1448 1449
1448 1575
1449 1575
1450 1494
1450 1576
1451 1454
1451 1493
1451 1575
1452 1559
1453 1552
1453 1681
1454 1493
1454 1577
1455 1626
1456 1503
1456 1639
1456 1696
1457 1594
1457 1655
1457 1656
1457 1673
1458 1557
1458 1629
1459 1515
1459 1657
1460 1600
1461 1720
1463 1675
1463 1681
1463 1701
1464 1480
1464 1481
1464 1482
1465 1551
1465 1663
1466 1542
1466 1543
1466 1546
1466 1580
1467 1574
1467 1578
1468 1482
1468 1483
1468 1488
1468 1669
1469 1537
1469 1586
1470 1550
1471 1692
1471 1704
1472 1605
1473 1624
1473 1625
1473 1626
1473 1627
1474 1529
1474 1535
1474 1589
1474 1614
1475 1476
1475 1479
1475 1538
1476 1477
1476 1538
1478 1645
1478 1677
1478 1680
1478 1684
1479 1513
1479 1537
1479 1538
1479 1713
1480 1482
1480 1484
1481 1482
1483 1486
1484 1669
1486 1669
1488 1669
1493 1494
1495 1690
1496 1562
1496 1563
1496 1695
1497 1551
1497 1647
1498 1687
1498 1695
1499 1587
1499 1602
1499 1603
1501 1611
1501 1677
1502 1545
1508 1647
1509 1593
1509 1613
1509 1687
1511 1512
1514 1630
1514 1635
1515 1600
1515 1642
1515 1657
1516 1604
1517 1523
1518 1668
1519 1649
1520 1661
1521 1601
1521 1603
1521 1604
1525 1601
1526 1655
1528 1658
1529 1535
1529 1588
1530 1572
1530 1690
1532 1620
1532 1649
1532 1683
1534 1661
1536 1608
1536 1653
1540 1568
1540 1617
1541 1680
1542 1545
1543 1545
1544 1547
1545 1548
1545 1717
1549 1575
1550 1596
1551 1584
1552 1681
1553 1636
1555 1606
1556 1657
1556 1673
1559 1582
1560 1654
1564 1572
1564 1577
1565 1571
1566 1567
1566 1682
1566 1707
1567 1682
1568 1617
1568 1691
1570 1651
1570 1670
1571 1702
1572 1577
1573 1577
1574 1575
1574 1578
1574 1689
1579 1646
1582 1583
1583 1640
1583 1658
1583 1673
1584 1628
1584 1646
1584 1647
1585 1586
1587 1601
1587 1612
1590 1658
1591 1677
1592 1593
1592 1643
1594 1720
1595 1596
1598 1656
1599 1645
1600 1641
1601 1699
1604 1699
1606 1632
1606 1634
1606 1638
1607 1683
1608 1656
1613 1688
1614 1651
1614 1673
1615 1640
1615 1696
1615 1705
1618 1635
1619 1676
1620 1649
1621 1622
1623 1696
1624 1628
1625 1626
1627 1628
1629 1659
1629 1664
1631 1633
1632 1637
1632 1638
1632 1663
1634 1635
1634 1638
1640 1642
1641 1642
1642 1673
1652 1716
1653 1654
1654 1656
1662 1699
1663 1664
1673 1710
1680 1685
1685 1711
1688 1712
1720 1721
