%%MatrixMarket matrix coordinate pattern symmetric
492 492 582
1 16
1 46
1 267
2 4
3 52
3 186
4 8
4 120
4 158
4 428
4 431
5 115
6 150
6 432
7 18
7 165
7 366
7 425
9 421
10 205
10 277
11 411
11 435
12 13
12 14
12 16
15 16
16 17
16 19
16 57
17 20
17 21
17 281
17 334
22 23
22 140
23 140
23 155
23 197
24 25
25 157
25 170
26 99
26 424
27 28
28 85
28 173
29 307
29 316
30 31
31 182
31 186
32 375
32 443
33 34
33 239
35 222
36 325
36 418
37 147
37 262
38 39
38 397
39 40
39 281
40 416
41 47
41 328
41 412
42 172
42 328
43 175
44 102
44 286
45 174
45 203
45 264
45 285
46 253
47 153
47 285
48 205
48 271
48 283
48 306
49 50
49 114
49 454
50 238
50 331
50 441
51 82
51 408
52 396
53 271
53 310
54 162
54 405
55 269
55 362
56 124
56 224
57 84
58 59
58 60
59 346
59 376
61 332
61 417
62 437
63 64
63 89
63 190
63 393
65 66
65 427
65 435
67 69
67 70
67 71
68 70
68 72
68 73
68 214
70 71
70 72
70 142
70 311
70 320
71 74
71 75
71 76
71 91
71 352
72 212
72 213
72 439
72 463
77 78
77 187
77 264
78 123
78 265
79 80
79 214
79 420
80 147
80 252
80 354
80 392
80 436
81 395
81 456
82 287
83 386
83 422
84 173
85 88
85 116
85 275
85 453
86 88
87 88
87 236
89 326
90 91
90 385
91 93
91 94
91 95
91 370
92 95
92 386
95 96
97 326
97 421
98 150
98 156
99 224
100 158
100 220
100 390
101 102
102 178
102 233
102 286
103 306
103 428
104 105
104 191
104 257
104 263
106 255
107 246
107 334
108 191
108 379
109 112
110 112
111 112
112 123
112 179
112 298
113 263
113 337
113 377
113 415
114 115
114 285
115 353
116 117
117 119
118 124
118 345
119 345
120 428
121 123
122 123
122 187
122 264
122 297
123 179
123 265
125 126
126 384
127 129
127 226
128 225
128 437
130 141
131 141
132 141
133 142
134 143
135 140
136 141
136 142
136 144
137 141
137 142
137 145
138 199
138 340
139 147
142 143
142 472
142 477
142 485
143 242
146 183
146 245
146 339
148 433
148 442
149 150
149 217
150 396
151 153
151 154
151 155
152 153
152 154
152 155
153 203
155 241
156 157
159 160
159 183
159 248
159 387
159 391
160 368
160 398
161 409
162 354
163 167
163 246
164 167
164 231
164 416
164 469
166 422
168 169
169 343
169 399
170 325
171 172
173 202
174 175
174 285
176 463
177 226
178 340
180 181
181 233
183 184
183 185
183 248
188 198
188 212
189 190
190 400
191 192
191 195
191 196
191 373
191 379
191 415
192 193
192 194
197 464
198 201
199 363
200 280
202 247
203 297
204 205
204 206
204 207
205 208
205 283
205 356
205 368
207 278
208 209
210 211
211 456
211 464
213 443
215 389
215 439
216 217
216 218
216 219
217 277
217 286
217 428
219 235
220 271
220 448
221 366
221 463
222 240
222 435
223 344
223 397
223 406
224 376
224 453
225 226
225 282
225 376
227 228
228 419
229 230
230 315
230 435
231 385
231 472
232 233
232 234
232 235
236 301
236 398
237 300
237 308
238 294
239 322
240 421
241 329
242 258
242 430
242 479
243 244
243 309
245 300
247 333
248 249
249 250
249 251
252 362
253 256
254 256
255 256
255 384
257 266
257 336
257 401
257 426
258 259
258 260
258 261
258 430
258 465
262 442
263 336
263 377
264 265
267 406
268 269
269 421
270 371
270 403
271 272
271 310
271 376
272 273
272 274
275 344
275 374
275 406
276 315
276 393
277 431
278 279
278 430
278 478
280 281
284 285
284 287
284 288
285 289
285 290
286 289
286 290
289 291
290 292
293 294
294 418
295 446
296 297
296 298
296 299
297 455
300 371
301 302
301 304
301 306
301 310
301 323
301 428
302 303
302 491
304 305
304 492
306 310
307 433
308 372
309 408
310 317
310 318
310 319
310 390
311 317
311 318
311 319
311 320
312 317
313 318
314 319
316 427
320 321
321 400
322 323
323 340
323 434
324 325
327 328
329 395
330 331
332 335
333 391
335 433
337 342
338 393
339 341
342 415
344 347
344 349
344 351
344 352
345 346
345 348
345 350
345 352
345 374
351 394
352 402
353 419
355 384
356 357
356 358
356 360
356 398
357 359
357 361
364 437
365 366
366 375
366 425
367 368
367 369
367 370
368 371
368 372
372 391
373 407
376 394
378 379
378 380
378 382
379 383
380 416
380 429
381 383
387 388
389 438
391 403
392 438
395 456
395 464
399 441
401 402
404 405
407 426
409 417
410 411
411 436
413 414
413 415
413 416
419 423
420 421
420 434
428 430
429 430
433 436
434 435
440 441
444 445
444 446
444 448
445 449
445 454
446 454
447 449
448 450
448 451
448 452
453 454
455 456
455 457
456 458
456 459
456 460
456 461
456 462
465 466
465 479
466 480
467 471
467 477
468 472
468 477
469 470
470 471
472 473
472 474
472 475
472 476
479 480
479 482
480 481
480 482
482 483
482 484
486 488
486 491
486 492
487 488
487 489
488 490
