%%MatrixMarket matrix coordinate pattern symmetric
679 679 1269
1 4
1 5
1 10
2 3
2 7
2 159
3 6
3 9
4 12
4 183
7 10
7 215
8 9
8 215
8 227
10 11
11 184
12 13
12 17
12 52
12 174
13 15
13 174
14 17
14 19
14 158
15 22
16 160
16 176
17 18
17 19
18 19
19 52
19 54
20 22
20 122
20 176
21 22
21 23
21 135
21 176
23 123
24 48
24 50
25 27
25 28
25 161
26 43
26 187
26 206
27 43
27 180
28 43
28 180
28 187
29 30
29 46
30 31
30 32
30 187
31 35
32 51
33 35
33 47
33 181
34 46
34 47
36 38
36 173
37 38
37 209
38 40
38 57
39 40
40 41
40 537
42 171
43 46
43 187
44 45
44 47
44 49
44 50
45 46
45 47
45 51
45 180
46 155
48 49
49 180
52 53
53 54
53 183
55 59
55 60
55 187
56 60
56 188
57 58
58 60
59 209
61 63
62 63
62 64
62 65
63 64
63 182
65 612
66 86
66 88
66 92
67 68
67 69
67 72
67 89
67 101
68 91
68 96
68 124
68 127
68 141
68 169
68 205
69 89
69 94
69 95
69 104
70 73
70 105
70 150
71 79
71 81
71 87
72 76
72 78
73 101
73 105
73 121
73 125
74 99
74 129
74 151
75 93
75 115
75 130
75 156
76 83
76 94
76 95
76 104
77 79
77 82
77 86
77 115
77 149
78 80
78 83
78 95
78 99
79 81
79 146
79 149
80 94
80 99
81 101
81 125
81 147
82 84
82 97
82 102
82 146
83 95
83 104
83 144
84 85
84 86
85 97
85 100
85 103
85 108
85 109
85 146
85 147
86 93
86 100
87 90
87 94
88 129
88 156
88 157
89 142
90 115
90 144
91 96
91 175
91 191
92 129
92 152
93 102
93 103
93 115
93 149
93 157
94 144
95 96
95 104
96 126
96 127
97 98
97 100
97 103
98 116
98 132
98 140
98 145
100 108
100 109
100 134
101 142
101 150
102 149
103 130
105 106
105 113
105 121
106 112
106 113
106 119
106 121
106 122
107 109
107 113
107 114
107 121
108 109
108 111
108 134
108 138
109 110
109 111
109 114
109 118
109 136
109 138
109 139
110 111
110 132
110 134
111 114
111 120
111 131
111 132
111 133
111 136
111 138
112 113
112 120
112 133
112 137
113 114
113 117
113 119
113 121
113 122
114 121
114 136
114 138
115 116
115 130
116 143
116 148
116 153
117 118
117 121
117 123
117 124
117 135
117 139
117 141
118 148
119 123
120 133
120 137
120 138
124 125
125 150
126 127
126 151
127 143
127 145
128 129
128 151
128 153
129 152
131 132
131 136
132 138
133 136
133 137
136 138
137 138
140 148
141 142
143 144
145 146
146 147
148 149
153 154
154 156
154 157
158 183
159 203
160 186
161 162
161 163
161 186
161 201
163 199
164 165
164 217
165 192
165 193
166 176
166 181
167 168
167 169
167 170
167 214
168 187
168 209
169 182
169 191
169 208
170 171
170 172
170 182
170 191
170 624
170 627
171 172
171 173
171 188
173 188
173 662
175 191
177 178
177 206
178 182
178 190
178 210
178 622
179 186
179 213
180 202
181 213
183 186
183 204
184 203
184 211
185 192
186 189
188 514
189 203
189 204
190 191
191 208
191 212
192 194
193 201
194 195
194 196
194 679
195 287
196 197
196 198
197 417
198 199
198 202
200 201
200 207
200 211
203 210
205 212
205 213
205 214
210 211
210 213
215 216
215 265
216 217
216 218
216 235
216 666
216 667
217 667
218 264
218 665
218 666
219 231
219 233
219 234
220 253
221 222
221 224
221 262
221 668
222 223
223 227
223 262
223 263
223 668
224 225
224 226
224 228
224 668
225 229
225 230
225 231
226 234
226 263
227 253
227 262
227 263
227 265
228 229
228 230
228 232
228 233
228 234
228 253
228 262
231 232
234 250
235 236
235 249
235 266
236 237
236 238
236 250
236 258
237 238
237 239
237 240
237 250
237 258
237 670
238 239
238 258
238 259
238 670
239 241
239 250
239 256
239 259
239 670
239 672
240 261
240 669
241 244
241 252
241 674
241 675
242 243
242 671
242 673
243 258
243 671
243 672
243 673
244 245
244 251
244 252
244 671
244 674
244 675
245 246
245 252
245 256
245 675
245 676
246 251
247 256
248 252
249 253
249 257
250 265
250 672
251 255
251 266
252 674
252 675
252 678
254 255
255 256
257 260
257 265
257 664
258 259
259 261
259 670
259 672
260 261
262 263
267 268
267 270
267 273
267 274
267 275
267 277
267 280
267 284
267 294
268 272
268 274
268 277
269 271
270 271
270 274
270 275
270 277
271 274
271 275
272 274
272 275
273 277
273 278
273 280
273 281
274 275
274 277
275 276
275 284
275 294
276 287
278 279
278 280
278 281
278 286
278 287
278 292
279 293
279 298
279 307
279 308
279 309
280 286
280 287
280 292
280 294
282 283
282 285
282 286
282 288
282 290
282 292
282 293
282 294
282 295
283 292
283 294
283 295
283 312
284 290
284 292
284 294
285 288
285 290
285 295
285 304
286 287
286 290
286 292
286 294
286 295
287 289
287 292
287 306
288 289
288 291
288 295
288 312
289 306
290 291
292 293
292 294
292 295
292 308
293 298
293 307
293 308
293 309
294 295
296 297
296 300
296 302
296 311
297 302
297 303
297 305
298 307
298 308
298 309
299 310
300 302
301 305
301 310
302 303
302 309
303 305
303 309
303 310
304 307
305 306
307 308
307 309
307 312
308 309
309 310
313 405
314 315
314 321
314 336
314 340
314 341
314 354
314 360
314 370
314 427
314 431
314 437
314 442
315 431
315 442
316 317
316 357
316 360
316 361
317 318
317 319
318 319
318 320
318 321
318 423
318 434
318 438
320 433
320 434
320 436
320 438
320 442
321 423
321 438
321 442
322 336
322 423
322 441
322 442
323 325
323 336
323 441
324 325
325 327
325 426
325 432
326 333
326 420
326 426
327 328
327 333
328 333
328 420
328 432
329 330
329 344
330 331
330 332
330 333
330 420
331 333
332 333
332 420
333 334
333 335
333 341
334 335
334 342
334 346
335 342
336 337
336 338
337 338
337 423
338 339
338 354
338 357
338 359
338 424
338 437
339 344
340 341
340 342
340 354
340 427
340 437
341 342
341 370
342 343
342 351
342 372
343 345
344 349
344 439
345 346
346 350
346 351
346 429
346 430
346 439
347 348
347 365
347 378
347 379
347 429
347 430
348 350
349 350
349 373
350 378
351 372
352 353
352 363
352 364
352 367
352 370
352 425
352 427
353 355
354 355
354 357
354 425
354 437
355 357
355 425
356 357
356 358
356 360
356 363
356 425
357 437
358 360
360 361
361 362
362 396
363 364
363 399
363 425
364 366
364 399
364 401
364 425
366 369
367 369
368 369
368 427
369 395
369 401
370 372
370 427
371 375
372 374
372 395
372 407
373 375
373 389
373 444
374 377
374 378
374 381
374 382
374 387
374 443
375 376
375 385
375 387
375 443
376 384
377 378
378 380
379 380
380 381
382 387
382 443
383 385
384 385
384 390
384 443
385 386
385 390
386 387
386 390
387 388
388 391
389 390
389 403
390 391
390 392
390 395
390 400
390 401
390 407
390 427
391 392
391 393
392 395
392 401
392 407
393 394
394 406
395 400
395 401
395 407
396 398
396 399
397 398
397 400
398 405
399 425
400 401
400 404
400 407
401 407
401 425
402 404
402 405
403 404
403 417
403 424
404 406
404 408
404 409
405 412
406 407
406 410
406 413
408 409
409 410
409 413
410 411
410 413
411 412
411 413
411 421
412 413
413 414
413 415
414 418
415 416
415 418
416 419
417 418
420 426
422 423
422 520
423 438
424 425
428 440
428 442
431 440
431 442
433 434
434 500
435 436
435 452
436 452
440 441
440 442
443 444
445 459
445 461
445 498
446 462
446 463
446 478
447 453
447 456
447 663
448 449
448 450
448 451
448 530
449 450
449 482
449 508
449 529
450 467
450 471
451 458
451 531
452 462
452 480
452 500
453 457
454 462
454 463
454 538
455 456
455 475
455 663
456 457
456 458
456 514
457 461
457 473
457 538
458 459
458 461
459 553
460 469
460 475
460 660
461 473
461 514
463 468
463 473
463 480
463 539
464 472
464 477
464 497
465 470
465 660
465 662
466 474
466 481
466 542
466 593
466 594
467 471
467 543
468 473
468 478
468 485
468 519
469 474
469 479
469 661
470 475
470 521
470 661
471 593
472 477
472 484
473 527
474 573
474 593
475 476
476 521
476 662
477 485
477 519
477 522
478 485
478 515
478 519
479 481
480 515
481 541
481 542
482 483
482 491
482 493
482 495
482 496
482 497
482 508
483 498
483 517
483 534
484 485
484 495
485 487
485 488
485 499
485 504
485 515
485 519
485 532
486 510
486 517
486 523
486 525
487 498
487 518
488 494
488 499
488 504
488 516
488 532
488 536
489 502
489 505
489 511
490 507
491 513
491 540
492 493
492 505
492 516
493 494
493 496
493 517
494 516
494 536
495 496
497 498
498 522
499 536
500 501
501 504
502 504
503 504
504 532
505 525
506 511
506 513
507 508
507 513
507 524
509 511
509 540
510 512
510 528
510 534
511 512
513 540
514 527
516 523
518 519
518 522
518 527
520 533
520 539
521 554
523 525
523 526
526 532
527 539
528 529
529 530
530 531
531 553
532 533
534 540
535 573
535 594
537 538
541 542
541 543
541 544
541 545
544 593
545 593
546 547
546 551
546 559
546 608
546 632
546 639
546 650
547 649
548 549
548 550
548 575
548 626
548 637
549 579
549 580
549 587
549 601
549 645
549 646
550 574
550 587
550 603
550 608
550 613
550 619
550 630
550 653
551 610
551 623
552 554
552 608
552 623
552 628
552 631
553 554
553 635
555 557
555 573
555 597
555 613
556 558
556 573
556 574
556 596
557 562
557 563
557 575
558 559
558 561
558 573
558 599
559 560
559 644
560 561
560 566
560 609
560 610
561 566
561 620
561 639
562 564
562 565
562 621
562 638
563 565
563 572
563 641
564 566
565 566
565 609
565 610
566 567
566 636
566 658
567 589
567 648
568 569
568 589
568 655
569 612
569 643
569 644
570 597
570 614
570 633
571 573
571 596
571 597
572 614
572 654
574 586
574 591
575 601
575 621
576 577
576 579
577 578
577 582
577 607
577 615
578 579
578 645
579 599
579 602
580 602
580 618
581 615
581 618
581 642
582 583
582 656
583 585
583 602
584 585
584 640
584 642
585 586
585 588
585 605
586 613
586 619
586 653
587 599
587 625
587 649
588 590
588 591
588 604
589 648
590 591
590 592
590 598
592 593
592 598
592 603
593 598
595 600
595 607
595 615
595 642
595 647
596 643
599 620
600 601
600 646
601 640
601 647
603 604
603 617
604 605
605 606
605 619
605 653
606 618
606 657
607 645
607 656
608 641
608 659
609 610
609 641
611 612
611 632
611 644
612 614
612 616
612 633
612 654
614 648
615 646
616 648
618 656
620 621
620 625
621 626
622 623
622 629
623 632
624 633
624 650
625 626
627 641
628 634
628 635
628 661
629 630
629 651
633 643
634 652
634 659
636 641
637 638
637 641
640 657
641 654
641 659
649 658
649 659
651 652
664 665
666 667
669 670
671 673
673 674
674 675
676 677
677 678
