%%MatrixMarket matrix coordinate pattern symmetric
1130 1130 1437
1 5
1 558
2 10
2 558
3 11
3 33
3 34
3 102
3 471
4 7
4 27
4 100
4 101
5 9
6 7
6 36
6 97
6 101
7 36
7 100
7 101
8 26
8 34
8 718
9 10
9 102
10 102
11 12
11 37
11 561
13 33
13 102
14 409
15 16
15 17
15 18
15 19
15 407
20 21
20 36
20 100
21 22
21 23
21 24
21 25
26 34
27 28
27 29
27 30
31 99
32 99
33 102
33 548
34 102
34 705
35 706
36 100
37 38
37 97
37 408
38 98
39 40
39 42
39 44
40 41
40 43
42 144
43 481
44 48
45 47
46 47
47 53
47 501
48 49
48 52
49 50
49 51
51 123
52 53
52 54
53 421
53 441
53 443
55 62
56 65
57 69
58 66
59 67
60 128
61 127
62 63
62 64
63 70
63 129
63 224
64 1087
65 66
65 67
65 73
65 181
65 224
66 67
66 68
67 73
67 89
67 199
68 69
69 180
69 194
69 1055
69 1057
69 1066
70 71
71 72
71 119
73 74
73 75
73 77
73 79
73 117
74 202
74 802
74 910
75 76
75 77
75 125
76 1042
77 78
77 448
78 412
78 413
78 450
79 80
79 443
79 448
80 444
80 446
80 460
81 93
82 93
83 94
84 86
84 124
85 86
85 239
85 248
85 250
85 264
85 266
85 280
85 288
85 290
85 291
85 299
85 312
86 87
88 103
88 113
89 90
90 91
90 106
90 113
90 114
91 92
92 93
92 249
92 261
92 268
92 285
92 289
92 290
92 291
92 319
92 320
92 321
92 322
92 323
93 95
93 261
93 315
93 322
94 96
94 259
94 265
94 297
95 143
95 699
95 700
96 265
98 409
99 719
99 724
100 101
101 474
103 104
103 107
105 106
106 108
107 1021
108 109
108 325
108 364
108 367
109 364
109 365
109 696
110 111
110 367
110 681
111 112
111 113
111 685
112 1001
114 115
114 124
116 117
117 121
118 119
119 120
119 499
120 121
120 122
121 123
122 123
122 125
123 124
123 127
123 541
124 127
125 126
128 131
128 171
128 211
129 130
129 131
129 134
130 142
130 734
131 132
133 134
133 137
133 732
134 139
135 137
135 139
135 753
136 139
136 869
136 874
137 138
138 821
138 822
140 255
140 363
141 142
141 735
141 737
141 818
142 819
143 315
143 698
144 145
145 146
147 164
148 171
149 173
150 178
151 181
152 205
153 196
154 211
155 217
156 224
157 180
157 203
158 170
158 231
159 220
159 735
160 161
160 167
160 207
160 221
160 230
161 184
161 199
161 225
162 164
163 164
163 165
163 173
163 192
164 190
164 199
164 216
165 173
166 178
166 207
167 185
168 186
168 192
169 176
169 215
170 171
170 220
170 747
171 182
172 209
172 214
173 177
174 175
174 176
174 205
175 205
176 212
176 215
177 201
178 207
179 181
180 181
180 203
180 219
181 182
181 199
181 224
182 191
182 211
183 185
184 185
184 216
185 186
185 204
185 207
187 209
187 214
188 197
189 193
189 195
189 196
189 209
190 197
190 216
190 218
191 196
191 197
191 206
192 214
193 209
195 210
198 199
198 200
199 216
200 201
203 219
204 214
205 206
205 222
208 213
208 215
208 216
209 210
211 499
212 215
214 216
217 218
217 228
219 220
219 223
220 223
220 231
220 735
221 230
222 1018
225 226
226 227
226 229
226 230
229 230
232 234
232 304
233 234
233 241
233 267
233 269
233 295
233 296
234 283
235 258
235 284
235 306
235 363
235 697
236 237
236 267
237 267
237 278
238 256
239 240
239 244
239 250
239 254
239 263
239 272
239 276
239 286
239 288
239 289
239 290
239 291
239 296
239 307
239 318
239 324
240 242
240 243
242 269
243 295
244 307
245 252
246 279
247 254
247 260
247 286
247 314
248 264
249 307
249 310
251 252
251 282
252 255
252 257
252 260
253 287
253 314
253 318
255 258
255 324
256 275
257 286
259 265
259 273
259 311
261 308
262 273
262 297
263 304
264 279
264 281
264 299
265 267
265 298
266 281
267 272
267 276
267 277
267 315
267 317
270 271
270 300
270 312
271 309
274 282
274 286
275 306
280 289
285 288
292 295
293 294
294 296
297 691
298 311
300 309
301 302
301 312
301 326
302 312
303 319
305 320
308 323
309 312
312 313
312 316
312 320
313 319
315 699
316 326
321 322
327 332
328 333
329 334
330 347
331 347
332 334
333 334
334 335
334 336
334 337
335 337
336 337
337 338
337 339
338 339
339 340
339 341
339 342
339 367
340 343
341 343
342 343
343 344
343 346
343 364
344 345
345 346
346 347
348 363
349 350
349 404
349 405
350 360
350 379
351 379
351 380
352 372
353 380
353 394
354 391
355 475
356 470
357 710
358 475
359 399
359 709
360 361
360 362
360 370
360 371
360 385
360 391
360 403
360 470
363 694
364 365
364 369
366 368
368 369
372 373
372 374
372 375
372 376
372 377
372 378
372 386
372 400
380 381
380 382
380 383
380 384
380 389
385 386
385 387
385 388
385 391
385 397
385 401
389 391
390 470
390 475
391 394
391 395
391 401
391 402
391 403
391 470
392 402
392 711
393 711
396 469
397 398
397 709
400 405
402 475
402 478
402 711
406 407
406 408
406 723
407 472
407 473
407 481
408 409
408 474
408 704
408 718
410 427
410 429
411 428
411 429
412 429
412 458
413 429
413 458
414 415
414 540
416 417
416 418
416 466
419 421
419 511
420 462
420 511
421 422
421 423
421 462
422 433
422 514
424 425
424 426
424 427
424 428
429 430
429 505
429 559
431 505
432 529
433 434
433 435
433 437
433 454
435 436
435 456
437 438
439 440
439 466
439 501
439 511
440 454
441 442
441 443
443 445
443 532
444 460
445 446
446 447
448 449
450 451
452 453
452 559
454 455
454 456
456 457
458 459
460 461
460 540
461 960
462 463
464 539
465 538
467 468
467 474
467 476
467 487
467 702
467 703
469 470
471 705
471 718
472 477
473 474
474 703
474 704
475 709
475 720
476 479
476 480
476 486
476 487
476 725
477 478
479 704
479 725
480 486
481 723
482 486
483 486
484 487
485 487
486 487
486 726
487 702
488 702
489 500
490 508
491 516
492 517
493 518
494 495
494 811
494 906
496 497
496 500
496 502
496 516
496 526
496 531
497 602
497 604
497 608
497 929
498 502
498 508
498 548
499 500
500 516
500 521
500 573
502 503
502 504
502 510
502 516
502 517
502 542
503 614
503 634
503 773
504 506
504 510
504 515
504 529
505 515
506 906
506 918
507 515
508 509
508 535
509 782
509 787
510 511
510 512
510 513
510 531
510 542
512 985
512 987
514 949
514 959
516 517
517 518
518 577
518 762
518 771
518 794
519 528
519 977
519 993
520 563
521 522
521 526
522 913
522 925
522 1060
522 1065
522 1066
522 1116
523 524
523 801
523 811
525 573
525 578
525 772
525 789
525 795
526 527
526 529
527 549
527 642
527 647
527 658
527 663
527 667
527 668
527 672
527 900
527 904
527 910
527 1039
529 530
529 531
529 537
530 877
531 532
531 533
531 534
531 537
533 801
533 906
533 940
533 945
533 956
535 792
536 538
537 538
537 540
537 541
538 539
543 546
544 558
545 561
546 547
546 550
546 561
547 553
547 555
548 556
548 705
549 569
549 901
550 551
550 552
550 559
550 561
551 554
551 574
551 616
551 895
552 553
553 971
553 972
553 978
553 981
553 983
553 990
553 992
554 574
555 972
556 557
556 561
557 558
558 562
560 562
561 562
563 765
563 787
564 777
565 574
566 768
567 775
568 788
570 576
571 577
571 776
572 778
572 794
572 1082
573 772
574 575
574 774
574 775
574 887
574 919
575 582
576 768
576 788
576 789
576 791
578 772
578 795
579 580
579 1060
580 602
580 608
580 654
581 592
582 593
582 609
583 590
583 592
584 586
585 590
585 611
586 596
587 606
588 599
589 595
591 592
591 598
591 602
594 1097
595 596
595 774
596 597
596 628
597 635
598 599
598 600
598 1084
599 607
599 610
600 602
601 605
603 605
603 1093
604 1060
606 610
612 1115
613 624
613 634
614 615
615 627
616 619
616 1053
617 620
617 636
618 634
618 637
619 633
620 630
621 629
621 630
622 634
623 626
623 637
624 632
624 638
625 626
625 630
625 788
627 629
627 636
630 631
631 1086
639 647
639 657
640 645
640 1052
641 659
641 1043
642 1033
643 673
643 1034
644 667
644 1047
645 648
646 665
646 1037
647 648
647 658
647 661
647 663
647 671
647 1046
648 1040
649 672
649 1049
650 652
650 660
651 673
652 1047
653 666
653 667
654 672
655 1042
655 1050
656 672
657 667
659 1048
660 677
661 676
662 1043
664 674
664 1050
665 1113
666 674
667 668
667 677
667 1041
667 1042
667 1044
667 1050
667 1113
669 670
669 1038
670 1042
671 1035
672 673
672 1033
672 1051
675 1039
675 1049
676 1045
678 684
679 684
680 686
681 682
681 683
683 684
683 689
683 694
683 695
683 697
684 688
685 686
685 689
685 692
686 687
686 690
688 690
689 690
692 693
694 695
701 702
702 720
703 704
706 718
706 726
707 709
708 709
709 710
709 726
712 718
713 718
714 718
715 718
716 718
717 718
718 719
718 726
721 723
722 723
727 735
728 734
729 735
730 734
731 736
732 733
732 734
732 736
733 741
733 751
734 735
735 738
736 748
737 738
739 740
739 750
740 749
741 745
742 743
742 751
744 749
744 754
746 749
746 757
747 756
748 749
752 753
753 758
753 759
754 755
758 760
760 761
760 764
762 815
763 764
765 766
765 787
765 793
765 794
767 768
767 773
768 773
768 788
768 789
768 1119
769 785
769 787
769 792
770 771
771 772
771 779
772 789
772 941
774 775
776 794
777 778
777 780
777 788
777 789
777 794
778 1120
779 941
780 781
780 788
780 1124
781 1086
782 783
782 787
784 791
784 1102
785 786
785 817
786 787
786 792
788 791
789 790
789 795
789 797
789 1111
790 1106
794 1129
795 796
797 1130
798 813
799 879
800 889
801 912
802 803
802 910
804 901
805 877
805 932
805 1114
806 807
806 901
806 910
808 809
808 919
809 810
809 899
811 812
813 880
813 889
813 913
814 872
814 877
814 927
816 817
820 829
820 830
820 866
821 825
821 831
822 825
822 832
823 833
823 861
824 834
824 861
825 835
826 836
826 866
827 837
827 854
828 838
828 861
830 851
830 852
839 840
840 865
841 846
841 855
841 856
842 847
842 865
843 848
843 850
844 849
844 861
845 868
850 865
852 853
854 855
855 861
856 857
856 861
858 861
858 869
859 870
860 861
860 863
860 869
861 862
862 863
862 869
864 874
865 874
866 870
867 868
867 874
869 870
869 875
871 874
873 874
876 929
876 1115
877 906
877 910
878 887
878 919
878 929
879 888
879 889
880 916
881 909
882 883
882 900
882 909
884 885
884 891
884 919
886 913
886 928
886 1118
887 1117
888 889
889 905
889 909
889 936
890 906
890 918
891 892
891 900
893 905
893 1121
894 898
895 979
896 897
896 931
896 936
898 914
898 931
899 915
900 904
900 909
900 919
901 902
903 904
906 927
906 930
906 955
907 918
908 983
909 910
909 922
910 911
910 1122
911 932
913 915
913 916
913 919
913 925
913 929
914 922
914 1125
916 917
919 920
919 929
920 921
920 929
922 923
924 941
925 926
925 934
927 939
928 929
928 1126
932 946
933 946
935 936
937 953
938 957
940 944
940 947
940 949
940 950
940 956
942 943
942 947
942 948
943 957
943 961
943 967
944 952
945 947
946 951
949 950
949 959
949 965
952 965
953 954
953 955
953 960
954 958
955 964
957 960
957 961
958 963
961 962
963 964
966 975
968 969
968 981
968 993
970 981
971 975
973 974
973 976
973 990
975 978
977 979
977 981
979 991
980 985
980 987
981 982
983 984
985 986
987 989
987 990
988 989
989 990
994 1019
995 1027
996 1024
997 1031
998 999
998 1005
998 1011
998 1013
998 1022
998 1027
1000 1015
1001 1002
1001 1010
1001 1011
1001 1013
1001 1014
1001 1032
1003 1032
1004 1032
1005 1015
1005 1021
1005 1022
1005 1029
1005 1030
1005 1031
1006 1031
1007 1021
1008 1016
1008 1026
1009 1021
1011 1025
1012 1013
1015 1016
1015 1017
1015 1019
1016 1026
1017 1020
1018 1019
1019 1020
1019 1027
1022 1023
1024 1026
1024 1028
1027 1028
1035 1042
1036 1042
1036 1045
1037 1039
1038 1050
1041 1046
1042 1043
1042 1044
1043 1048
1047 1048
1047 1050
1051 1053
1054 1064
1054 1077
1055 1066
1056 1067
1056 1079
1057 1069
1057 1072
1058 1060
1059 1063
1060 1061
1060 1084
1061 1078
1062 1069
1062 1105
1063 1080
1064 1067
1065 1066
1066 1067
1066 1073
1066 1078
1067 1074
1068 1069
1069 1070
1069 1072
1069 1080
1069 1087
1070 1076
1070 1077
1071 1109
1075 1079
1081 1098
1081 1104
1082 1083
1083 1085
1083 1100
1085 1090
1087 1088
1087 1092
1087 1097
1087 1105
1088 1095
1088 1099
1088 1104
1089 1092
1090 1091
1092 1093
1093 1112
1094 1104
1096 1110
1096 1111
1098 1101
1102 1106
1103 1111
1106 1107
1106 1108
1109 1112
1114 1128
1116 1127
1121 1127
1123 1128
