%%MatrixMarket matrix coordinate pattern symmetric
4907 4907 6516
1 3520
1 3553
1 3554
1 3604
2 3550
3 4896
4 88
5 13
5 120
6 8
7 8
8 9
9 10
9 61
9 75
9 205
9 208
10 50
11 94
11 125
12 13
13 14
13 15
13 83
14 16
14 17
14 29
14 147
18 19
18 190
19 20
19 130
20 199
21 51
21 176
22 4411
23 4412
24 53
24 4427
25 58
25 136
26 94
26 131
26 139
26 203
27 161
27 166
28 98
29 130
29 160
30 123
30 140
31 62
31 104
32 155
32 174
33 34
34 35
34 97
35 36
35 69
35 141
35 142
36 37
36 38
36 39
36 47
36 157
40 97
40 202
41 42
41 58
41 167
41 218
41 232
42 98
42 181
43 94
43 163
44 47
45 47
46 47
46 184
47 171
48 75
48 101
48 106
49 4414
50 139
50 205
51 120
51 194
52 111
52 119
52 172
53 231
54 109
54 147
55 88
55 107
56 119
56 149
56 152
56 175
56 198
57 98
57 2557
58 59
58 167
59 60
60 154
61 188
61 209
62 154
63 68
64 68
65 68
66 69
67 70
68 69
68 978
68 4859
69 70
69 1029
69 1051
69 2339
70 108
71 86
71 224
72 73
72 112
72 215
73 91
73 231
74 98
76 77
76 86
76 110
76 185
77 170
77 191
78 79
78 109
79 80
80 184
80 199
80 988
81 82
81 2557
82 98
83 218
83 221
84 4412
84 4427
85 151
85 4414
86 110
87 88
87 89
88 90
88 172
88 178
88 195
88 198
91 495
91 4412
92 94
92 123
92 174
93 94
94 95
94 131
95 129
95 171
96 144
96 148
98 100
98 125
98 135
98 205
99 100
99 4425
101 123
101 210
102 140
103 145
103 153
103 190
104 174
104 222
105 184
105 1029
105 1054
106 186
107 178
108 116
108 207
108 4086
111 148
111 192
111 204
112 113
112 215
113 129
113 3736
114 115
115 205
116 117
116 118
116 207
116 521
119 148
119 175
121 122
122 123
123 140
124 153
124 173
124 194
124 232
125 208
126 129
127 129
128 129
129 207
129 235
129 4078
131 139
132 4427
133 2557
134 222
134 236
135 236
136 146
137 223
137 224
137 229
138 139
138 140
138 143
138 150
138 205
138 4848
139 140
140 141
140 186
141 142
143 151
143 202
143 234
144 192
145 194
145 196
146 153
149 198
150 181
150 191
152 198
153 154
153 156
153 157
153 158
154 155
154 157
154 159
154 173
156 189
157 193
161 196
162 163
162 165
163 164
163 191
166 176
168 170
168 229
169 170
169 187
169 227
170 171
174 189
177 178
177 179
177 180
179 199
179 206
182 184
183 184
184 200
184 996
185 187
187 228
187 230
188 205
192 193
195 204
197 201
198 200
198 201
199 201
205 207
206 207
210 211
210 212
210 213
214 215
214 498
216 225
216 228
217 218
219 224
220 221
221 225
223 227
226 229
226 230
233 234
236 237
238 252
238 317
238 4389
239 240
239 332
239 353
240 315
240 326
240 336
241 242
241 350
242 283
242 362
242 363
242 364
242 365
243 341
243 354
244 334
244 360
245 247
246 247
246 257
246 297
246 370
246 377
247 329
248 250
249 250
249 280
249 304
249 311
249 312
249 359
251 252
251 288
251 318
251 366
251 369
252 253
252 288
252 321
252 375
253 336
253 4328
254 255
254 283
254 328
255 284
255 298
256 259
257 259
257 309
257 359
257 367
257 380
258 298
258 305
258 310
260 261
260 286
260 349
260 368
260 381
261 262
261 267
261 333
262 343
262 344
263 320
263 4381
264 333
265 307
266 267
266 349
268 269
269 345
269 361
270 274
271 274
272 274
272 371
273 274
274 275
274 324
274 361
276 285
276 350
277 313
277 341
278 297
278 334
278 377
279 280
279 281
279 294
279 301
279 312
280 304
280 311
280 312
280 359
281 283
281 294
281 301
281 312
282 283
283 284
283 295
283 304
283 365
284 305
284 315
284 1177
286 350
287 289
289 335
289 4401
290 291
291 324
291 361
292 297
293 299
294 295
294 301
294 312
295 364
296 299
296 307
296 339
297 298
297 334
297 342
298 315
298 361
300 301
301 312
302 306
302 315
303 304
304 305
304 312
305 315
307 322
307 339
308 352
308 357
308 4397
309 310
309 367
310 343
310 344
311 312
313 314
313 325
314 315
314 355
315 336
316 317
316 1118
317 335
318 319
318 321
318 369
319 320
320 4307
323 324
325 4394
326 327
326 378
328 329
329 356
330 339
330 379
331 332
331 352
331 354
333 351
334 372
335 336
335 337
337 338
339 340
340 345
341 342
341 354
346 351
347 351
348 349
349 368
350 351
352 353
352 354
352 373
352 4391
353 4392
354 355
356 376
358 360
359 380
360 361
366 369
370 377
374 377
382 383
382 428
382 444
382 453
382 454
382 461
383 392
383 425
383 446
384 385
385 386
385 444
385 445
385 2303
385 4907
387 429
388 436
388 2279
389 390
390 391
390 393
390 408
390 422
391 401
391 405
391 424
391 435
392 394
392 395
392 446
392 2220
393 441
393 456
394 418
394 2210
394 2388
394 4907
395 396
395 397
395 398
395 399
395 419
395 2228
395 2280
400 401
401 402
401 410
401 434
401 435
401 438
403 404
404 405
404 430
404 456
404 459
406 407
407 436
407 450
407 455
408 430
409 410
410 1215
411 472
411 1247
412 413
412 414
412 451
412 458
412 461
412 463
412 467
413 424
415 416
415 429
415 443
415 449
415 468
417 420
418 420
418 455
419 420
419 425
419 2280
421 438
421 1423
421 1782
422 429
423 424
423 442
423 443
424 425
425 426
425 446
425 3953
426 1124
427 451
427 458
428 445
428 469
429 440
429 468
430 431
430 432
430 471
431 435
433 434
434 460
434 1296
437 438
437 471
437 472
439 440
440 441
441 465
442 463
442 467
447 448
448 464
448 466
449 467
450 452
450 4907
452 462
453 454
453 469
454 458
455 464
456 459
457 460
462 466
463 468
470 471
473 480
473 4139
474 4079
474 4412
475 476
476 479
476 483
477 478
477 491
477 497
478 479
478 480
479 492
480 490
480 4077
481 484
481 488
481 493
481 494
482 483
482 3735
483 484
483 492
483 495
484 485
484 488
484 496
484 497
485 493
486 490
487 1182
487 1200
489 2421
489 2537
489 2538
489 2543
489 2675
489 2792
489 2825
489 2827
489 2828
489 2829
489 2942
491 492
491 496
492 4412
494 495
495 498
499 500
500 548
500 569
500 572
501 503
502 503
503 522
503 555
503 563
504 547
504 550
505 538
505 545
505 564
506 538
506 545
506 565
507 564
507 565
508 544
508 570
508 571
509 560
510 511
510 512
510 533
510 537
510 549
510 550
513 4424
514 518
515 519
516 519
517 519
517 3948
518 519
519 2308
520 521
520 827
520 831
520 4414
520 4424
521 569
521 4086
522 523
522 524
522 531
523 527
524 529
525 526
525 531
525 4111
527 528
527 529
529 530
531 532
531 547
531 555
531 563
531 567
531 572
532 569
533 537
533 549
534 535
534 558
534 573
535 536
535 556
537 550
538 539
538 540
538 541
538 542
538 543
539 568
540 568
541 549
542 544
542 560
542 564
543 544
543 560
543 565
545 552
545 553
545 557
545 558
546 547
546 554
547 548
547 550
547 551
547 567
549 550
551 554
552 554
553 554
555 562
556 557
556 562
557 561
559 560
561 562
563 1480
563 1481
563 4177
566 567
568 569
568 4424
569 4130
574 656
574 658
574 659
574 729
575 581
575 624
575 639
576 577
577 593
577 609
578 663
578 701
579 719
579 724
580 584
580 625
581 582
581 583
581 611
581 644
583 584
583 651
583 666
583 671
583 679
584 613
585 586
586 617
586 623
586 668
586 678
586 702
587 596
588 589
588 590
588 593
588 691
591 592
591 596
591 629
593 594
593 595
593 627
593 704
596 597
596 598
596 599
596 600
596 601
596 619
596 656
602 603
603 604
603 605
603 656
603 690
604 657
604 665
606 609
607 608
608 609
608 610
608 656
608 661
609 721
611 612
611 639
611 699
612 613
613 618
613 635
613 675
614 615
615 638
615 724
616 617
617 667
618 625
620 621
621 652
621 735
622 623
623 654
623 667
623 707
626 627
627 657
628 629
629 695
630 631
631 633
631 638
631 667
631 688
631 717
632 633
633 724
634 635
635 647
636 670
636 708
636 712
636 727
637 638
638 652
638 680
638 684
638 724
639 640
641 657
642 643
643 647
643 686
644 645
644 703
646 647
648 649
649 724
650 652
651 652
651 679
651 725
652 684
652 724
653 654
654 668
654 688
655 657
656 657
656 695
657 711
657 737
660 661
661 690
662 663
664 665
665 691
666 667
666 679
666 725
667 717
669 703
670 671
670 712
671 672
671 673
674 675
674 701
676 719
676 724
677 678
678 680
679 680
679 681
679 682
679 692
679 725
680 684
680 686
680 701
680 707
683 684
685 686
687 688
688 731
689 690
691 693
691 725
691 737
691 3735
693 694
693 725
695 696
697 698
697 727
699 701
700 701
701 733
703 712
705 706
705 708
708 709
710 711
711 721
712 713
714 715
715 719
716 717
718 719
719 724
719 726
720 721
721 722
723 724
724 725
725 3747
727 728
730 731
732 733
733 735
734 735
736 737
738 739
738 748
738 762
739 747
739 749
739 756
739 814
740 743
741 742
741 758
741 761
741 778
742 743
742 744
742 759
742 776
742 803
743 745
743 801
743 814
743 1229
746 779
747 749
747 750
747 774
747 804
748 751
748 804
749 752
749 756
749 775
751 2408
752 2409
753 763
753 782
753 802
754 756
755 756
755 786
756 757
756 790
757 811
757 812
757 822
757 823
758 759
758 761
758 777
759 813
760 761
761 777
761 779
761 788
762 776
762 813
762 814
763 773
763 819
764 765
765 802
766 770
767 771
768 771
769 770
769 784
769 796
770 771
770 772
770 785
771 822
771 823
773 780
773 816
775 785
775 4894
776 2412
777 813
778 788
778 794
779 780
779 782
779 783
779 788
779 798
779 802
781 802
781 4900
782 790
782 799
784 785
786 790
786 802
787 788
789 2300
789 2412
790 802
791 792
792 793
792 810
792 1213
793 803
794 795
794 803
794 807
797 798
799 800
799 1229
799 1256
801 2204
802 806
802 820
803 1401
805 806
807 808
808 821
809 810
810 821
810 1123
811 1226
812 1227
814 815
816 817
817 818
818 819
818 4906
821 1123
824 825
824 843
825 828
825 4428
826 827
826 844
826 857
826 876
827 836
828 833
828 835
828 4424
829 4410
830 831
830 854
830 866
830 867
830 868
830 894
830 902
830 903
830 904
830 905
830 909
830 918
830 919
830 931
832 833
832 853
832 861
832 865
832 873
832 890
834 835
834 891
834 895
836 852
836 870
836 871
836 4424
837 838
837 852
838 839
839 2346
840 841
841 4145
842 860
842 861
842 862
842 4423
843 845
843 864
844 876
844 902
845 846
845 859
845 869
845 879
845 883
845 893
845 899
845 911
846 847
846 910
847 878
847 885
847 886
847 887
847 888
848 854
848 906
848 907
848 908
849 853
849 897
850 853
851 852
851 864
851 872
851 899
851 901
853 854
853 858
853 860
853 862
853 863
853 890
854 855
854 859
855 4424
856 881
856 892
856 901
857 884
858 859
858 863
858 880
858 882
863 882
863 920
868 894
868 898
870 884
870 927
871 928
872 929
873 884
873 896
873 900
874 875
874 877
874 880
874 892
875 893
875 894
877 891
877 927
877 928
877 929
879 899
880 890
881 882
881 930
882 883
884 927
889 901
889 928
891 895
892 893
894 895
894 896
898 929
900 927
901 927
901 928
901 930
911 916
911 917
912 916
913 916
914 917
915 917
920 925
920 926
921 925
922 925
923 926
924 926
927 928
932 1013
932 1052
933 934
933 935
933 968
934 968
935 940
936 937
936 953
936 1009
936 1049
938 939
938 955
938 960
938 983
939 1015
939 1035
939 1050
940 941
940 993
940 1013
941 945
941 958
942 943
942 1002
942 1004
942 1027
943 944
943 994
943 1027
944 1005
944 1057
945 946
947 948
947 949
947 963
947 1046
947 1047
948 950
948 961
948 1042
949 950
949 969
949 1033
950 970
950 977
950 999
951 952
951 974
951 1022
951 1023
951 1055
952 982
952 1010
952 1029
952 1051
953 972
953 1049
954 982
955 956
955 1014
955 1049
957 958
957 992
957 1048
958 1005
959 964
959 986
960 1054
961 992
962 990
962 1012
962 1029
963 1024
964 965
964 972
964 1020
965 996
966 967
966 1025
967 1005
967 1056
968 994
968 1020
969 970
969 995
970 1025
970 1036
971 972
972 1020
973 1022
973 1023
973 1030
974 1009
974 1053
975 1033
975 1047
976 991
976 1046
977 1004
978 979
978 1035
979 4821
980 981
980 1014
980 1054
983 984
983 1049
985 1009
985 1011
985 1043
986 987
986 988
988 996
989 993
990 1010
990 1053
991 992
991 997
991 1046
992 1048
993 998
994 1027
995 1000
996 1005
996 1056
997 1033
999 1025
1000 1001
1001 1004
1002 1044
1003 1020
1003 1027
1004 1005
1004 1006
1004 1007
1004 1008
1004 1013
1004 1025
1004 1036
1004 1048
1005 1056
1009 1010
1009 1055
1011 1012
1011 1043
1014 1015
1015 1016
1017 1018
1017 1021
1018 1030
1018 1045
1018 1049
1019 1020
1021 1045
1021 1049
1021 1058
1022 1049
1022 1058
1023 1049
1023 1058
1024 1025
1025 1026
1025 1042
1025 1044
1028 1029
1029 1032
1029 1037
1029 1038
1029 1039
1029 4860
1030 1031
1030 1045
1031 1051
1032 4868
1033 1034
1034 1048
1040 1041
1040 1043
1040 1055
1045 1058
1049 1050
1049 1051
1051 1057
1059 1060
1059 1061
1059 1541
1059 2000
1059 2033
1060 1443
1061 1443
1062 1064
1062 1159
1062 1330
1062 1624
1062 1807
1063 1175
1064 1090
1064 1118
1065 1850
1065 1899
1065 2067
1066 1067
1066 1417
1066 1967
1067 1418
1068 1069
1068 1195
1068 1196
1068 1299
1068 1496
1068 1497
1068 1565
1069 1268
1069 1370
1070 1552
1070 1614
1070 2026
1071 1072
1071 1190
1071 1207
1071 1279
1071 1313
1071 1468
1071 1553
1072 1191
1072 1312
1073 1075
1073 1158
1073 1505
1074 1075
1074 1216
1074 1903
1076 1223
1077 1078
1077 1243
1077 1305
1077 1312
1077 1458
1079 1333
1079 1558
1080 1153
1080 1559
1080 1940
1081 1223
1081 1509
1081 1726
1081 1748
1082 1294
1082 1445
1082 1502
1083 1097
1083 1223
1084 1085
1084 1086
1084 1350
1084 1366
1084 1419
1084 1477
1085 1087
1085 1090
1085 1096
1086 1087
1086 1089
1086 1219
1086 1222
1086 1623
1087 1090
1087 1400
1088 1310
1088 1445
1088 1555
1089 1090
1089 1107
1089 1164
1089 1495
1089 1629
1089 1957
1089 2015
1090 1091
1090 1165
1090 1352
1090 1428
1090 1503
1090 1524
1091 1487
1092 1093
1092 1094
1092 2093
1092 2132
1093 1176
1093 1446
1094 1385
1094 1445
1094 2069
1094 2088
1094 2156
1095 1096
1095 1284
1095 2106
1096 1342
1096 1378
1097 1098
1097 1192
1097 1489
1097 1676
1097 1711
1097 1729
1097 1912
1098 1333
1099 1100
1099 1275
1099 1529
1099 2060
1099 2173
1099 2176
1100 1276
1100 2136
1101 1102
1101 1225
1101 1337
1101 1421
1101 1572
1102 1142
1102 1441
1103 1459
1103 1555
1103 1715
1103 1751
1103 2059
1103 2118
1104 1105
1104 1144
1104 1178
1104 1665
1104 1946
1105 1106
1105 1135
1105 1142
1105 1179
1105 1248
1105 1316
1105 1322
1105 1808
1105 1875
1106 1136
1106 1266
1106 1364
1107 1239
1107 1495
1108 1209
1108 1470
1108 1494
1109 1110
1110 1458
1111 1578
1111 1580
1112 1115
1113 1835
1113 1930
1114 1542
1114 1602
1114 1967
1115 1452
1115 1453
1115 1498
1115 1551
1116 1188
1116 1435
1116 1460
1116 1462
1116 1583
1116 2192
1117 1118
1117 1823
1118 1175
1118 1428
1118 4403
1119 1823
1119 1954
1120 1121
1121 1162
1121 1274
1122 1242
1122 1312
1122 1458
1123 1575
1123 2019
1124 1475
1125 1126
1125 1127
1126 1861
1127 1352
1127 1400
1128 1186
1128 1225
1129 1828
1129 1940
1130 1242
1130 1307
1130 1329
1130 2552
1131 1134
1131 1492
1131 1604
1132 1241
1132 1322
1132 1608
1133 1415
1133 1530
1133 1609
1134 1450
1134 1533
1135 1136
1135 1137
1135 1138
1139 1300
1139 1331
1139 1344
1139 1360
1139 1457
1139 1485
1139 1618
1139 1619
1140 1141
1141 1473
1141 1872
1142 1433
1142 1621
1143 1221
1144 1490
1144 1953
1145 1147
1146 1147
1146 1165
1146 1206
1146 2061
1146 2062
1147 1166
1147 1339
1147 1451
1148 1149
1148 1695
1149 1274
1149 1282
1150 1334
1150 1355
1150 1472
1150 1488
1150 1529
1151 1169
1151 1356
1151 1483
1152 1404
1152 1728
1153 1196
1154 1155
1154 1772
1154 1969
1155 1160
1155 1220
1155 1259
1156 1325
1156 1734
1156 1747
1157 1158
1157 1504
1157 1683
1157 1768
1157 1903
1158 1165
1158 1169
1158 1321
1158 1415
1158 1505
1159 1954
1159 2089
1160 1259
1160 1500
1161 1162
1161 1240
1161 1516
1161 1640
1162 1298
1163 1434
1163 1863
1163 2181
1163 2186
1164 1165
1164 1775
1164 1851
1164 2013
1165 1166
1165 1167
1165 1412
1165 1437
1165 1524
1165 1645
1166 1243
1166 1540
1168 1169
1168 1402
1169 1170
1169 1174
1169 1200
1169 1308
1169 1483
1169 1485
1169 1530
1170 1402
1171 2177
1172 1467
1172 1483
1172 1485
1172 1486
1172 1530
1172 1648
1173 1183
1173 1517
1174 1200
1174 1466
1175 1503
1176 1177
1176 1264
1176 1386
1177 1339
1180 1733
1180 2161
1181 1189
1181 1397
1182 1466
1183 2442
1184 1441
1185 1947
1185 2048
1185 2073
1186 1468
1187 1188
1188 1233
1189 1190
1189 1843
1190 1191
1190 1245
1190 1406
1191 1329
1192 1527
1193 1194
1193 1677
1194 1415
1194 1451
1194 1520
1195 1196
1197 1348
1197 1511
1198 1199
1198 1347
1198 1889
1199 1890
1200 1308
1201 1202
1201 1203
1202 1363
1203 1252
1203 1487
1204 1289
1204 1448
1204 2084
1205 1206
1205 1358
1205 1703
1205 1864
1205 1987
1205 2035
1207 1440
1207 1792
1208 1308
1208 1466
1208 1678
1209 1210
1209 1535
1209 2074
1211 1212
1211 1768
1212 1345
1213 1772
1214 1215
1215 1511
1216 1424
1217 1246
1217 1384
1217 1449
1217 1686
1218 1406
1218 1416
1218 1688
1218 1765
1218 1910
1219 1250
1220 1291
1221 1253
1222 1523
1223 1224
1223 1261
1223 1431
1223 1593
1223 1646
1223 1725
1223 1744
1223 1797
1223 2191
1224 1325
1225 1707
1226 1230
1227 1230
1228 1253
1228 1477
1228 1523
1229 1230
1229 1401
1230 1487
1231 1238
1231 1245
1232 1233
1233 1460
1234 1235
1234 1576
1234 1721
1234 1900
1235 1236
1236 1333
1236 1808
1237 1238
1237 1531
1238 1328
1238 1482
1240 1354
1241 1290
1241 1723
1241 1724
1241 1993
1242 1266
1242 1307
1242 1382
1242 1422
1243 1266
1243 1305
1243 1364
1243 1506
1244 1504
1244 1677
1246 1383
1247 1911
1248 1255
1249 1288
1249 1500
1250 1388
1250 1419
1251 1252
1251 1296
1251 1342
1251 1348
1252 1303
1254 1569
1254 1760
1254 1796
1255 1325
1255 1761
1256 1257
1256 1291
1256 1352
1256 1401
1256 1990
1257 1487
1258 1259
1260 1262
1262 1431
1263 1797
1265 1266
1266 1312
1266 1458
1267 1268
1267 1409
1267 1471
1267 1774
1267 2179
1268 1372
1269 1270
1270 1633
1271 1272
1271 1273
1271 1568
1271 1585
1271 1625
1271 1926
1272 1360
1273 1449
1274 1306
1275 1276
1275 1277
1275 1351
1275 1465
1275 1488
1276 2200
1277 1278
1277 1434
1277 1488
1277 2117
1278 1308
1278 1462
1279 1280
1279 1522
1279 1784
1280 1312
1281 1282
1281 1699
1282 1376
1283 1473
1283 1525
1283 1683
1283 1833
1284 2138
1285 1299
1285 1534
1285 1798
1286 1288
1287 1288
1287 1799
1288 1352
1288 1932
1289 1408
1290 1801
1290 1992
1292 1293
1293 1303
1293 1305
1295 1296
1295 1349
1295 1425
1295 1628
1297 1298
1297 1301
1297 1531
1297 1561
1297 1803
1297 2155
1298 1328
1298 1803
1299 1300
1299 1805
1301 1397
1302 1303
1304 1305
1305 1432
1306 1307
1306 1810
1306 2058
1307 1475
1307 2589
1308 1309
1308 1315
1308 1435
1308 1812
1308 2135
1308 2136
1308 2182
1309 1539
1310 1311
1310 1445
1310 2034
1310 2188
1310 2189
1311 1446
1312 1372
1312 1442
1313 1314
1313 1910
1314 1814
1315 1466
1315 1815
1316 1405
1316 1817
1317 1318
1318 1331
1318 1457
1319 1439
1319 1526
1320 1411
1320 1504
1320 1521
1320 2153
1321 1415
1322 1323
1322 1337
1322 1373
1322 2094
1322 2095
1323 1364
1324 1325
1324 1820
1324 1879
1325 1326
1325 1327
1325 1423
1325 1578
1325 1579
1325 1819
1326 1432
1326 1458
1328 1329
1328 1482
1330 1633
1331 1344
1332 1333
1332 1345
1332 1630
1332 1676
1332 2014
1333 1368
1333 1390
1333 1395
1333 1437
1333 1501
1333 1505
1333 1514
1334 1355
1334 1557
1335 1336
1336 1662
1336 1995
1337 1829
1338 1339
1338 1340
1338 1461
1339 1539
1340 1447
1341 1342
1341 1363
1341 1426
1341 1507
1341 1858
1343 1344
1344 2177
1345 1759
1346 1446
1346 1460
1346 1840
1347 1348
1347 1425
1347 1448
1347 1628
1349 1363
1350 2015
1351 1434
1351 1465
1351 2186
1352 1353
1352 1378
1352 1857
1354 1561
1355 1356
1355 1488
1355 1529
1355 1557
1355 2005
1355 2117
1356 2136
1357 1733
1357 1763
1358 1717
1358 1865
1358 2042
1359 1360
1359 1362
1359 1773
1359 1927
1359 1948
1360 1361
1360 1443
1360 1449
1360 1486
1360 1862
1361 1370
1362 1470
1362 1917
1364 1372
1364 1499
1365 1489
1365 1515
1366 1387
1366 1399
1366 1623
1367 1368
1367 1901
1367 1973
1368 1551
1369 1370
1369 1494
1370 1402
1370 1444
1370 1537
1370 1538
1371 1372
1371 1373
1371 1450
1373 1450
1374 1375
1375 1421
1376 1381
1376 1405
1377 1378
1377 1399
1377 1592
1377 2019
1377 2101
1379 1501
1379 1505
1379 1891
1380 1381
1380 1396
1381 1382
1382 1475
1383 1893
1384 1893
1385 1386
1385 2093
1385 2156
1387 1398
1388 1477
1388 1631
1389 1390
1389 1424
1389 1438
1390 1412
1391 1425
1392 1396
1392 1403
1393 1514
1394 1395
1398 1399
1399 1400
1399 1850
1402 1484
1402 1539
1402 1540
1404 1405
1405 1421
1407 1796
1407 1978
1407 1981
1408 1469
1409 1418
1409 1497
1409 2110
1410 1411
1411 1504
1412 2190
1413 1415
1414 1415
1414 1521
1414 1842
1414 1872
1415 1918
1416 1919
1417 1418
1417 1454
1417 1826
1418 1452
1418 1453
1418 1534
1418 1921
1418 1961
1420 1421
1421 1422
1423 1922
1424 2014
1426 1448
1427 1428
1427 2067
1429 1430
1429 1431
1429 1972
1430 1432
1433 1928
1434 1435
1434 2181
1435 1461
1436 1781
1436 1933
1437 1809
1438 1439
1438 1515
1438 1525
1438 1882
1439 1809
1440 1441
1440 1792
1441 1442
1441 1536
1441 1547
1441 1985
1443 1444
1445 1446
1445 2075
1446 2192
1447 1460
1450 1471
1450 2115
1450 2116
1451 1540
1452 1455
1453 1456
1454 1455
1454 1456
1454 1597
1457 1950
1459 1460
1459 2070
1459 2072
1459 2079
1459 2092
1459 2102
1459 2105
1459 2120
1459 2141
1460 2121
1460 2122
1461 1462
1462 1951
1463 1465
1464 1465
1465 1906
1466 2135
1467 1483
1467 1746
1467 1952
1467 2185
1469 2109
1470 2170
1470 2185
1471 1496
1471 2125
1471 2126
1472 1529
1472 2128
1473 1474
1473 2040
1476 1477
1477 2048
1477 2084
1478 1479
1479 1534
1483 1484
1483 2154
1486 1530
1488 2117
1488 2135
1488 2136
1488 2176
1490 1620
1490 1758
1490 1982
1491 1492
1491 1564
1491 1708
1491 1984
1493 1522
1493 1536
1493 1986
1494 1917
1495 2008
1498 1499
1498 1875
1498 1992
1498 1993
1501 1997
1505 1506
1505 1511
1505 1513
1505 1816
1505 2199
1506 1540
1507 1874
1508 1509
1509 1978
1510 1593
1510 1889
1510 2017
1511 1512
1511 2018
1512 1734
1512 2020
1514 1816
1515 1923
1515 2025
1516 1517
1518 1520
1519 1520
1519 1587
1521 1842
1522 1977
1522 2029
1523 1524
1523 1631
1523 1947
1525 1924
1526 2190
1527 1528
1527 1693
1527 1694
1527 1760
1527 2123
1528 1558
1529 1530
1529 1532
1529 1535
1529 2074
1529 2170
1531 2155
1535 2173
1541 1643
1541 1936
1542 1610
1543 1546
1543 1830
1544 1574
1544 2038
1545 1552
1545 1886
1546 1547
1546 1594
1546 1637
1546 1706
1546 1731
1546 1742
1548 1780
1548 2107
1549 1621
1549 1929
1550 1777
1550 1991
1553 1652
1553 1669
1553 1718
1553 1738
1553 1837
1553 1888
1553 1955
1553 2139
1554 1560
1554 1839
1556 1710
1556 1844
1559 1779
1560 1817
1561 2155
1562 1688
1562 1785
1562 1855
1563 1568
1563 1948
1564 1743
1565 1566
1565 1567
1569 1617
1570 1726
1570 1879
1571 1684
1571 1738
1572 1573
1572 2051
1573 2096
1573 2112
1574 1684
1574 1944
1575 1592
1576 1630
1577 1644
1577 1983
1578 1656
1579 1985
1580 1581
1581 1762
1582 1690
1582 1916
1582 2085
1583 1598
1583 1853
1583 1854
1583 1949
1583 1998
1583 2010
1584 1719
1584 1743
1585 1700
1585 1926
1586 1587
1586 1865
1588 1598
1588 1678
1588 1998
1588 2147
1589 1714
1589 1852
1590 1621
1590 1928
1591 1699
1591 2046
1595 1958
1595 2036
1596 1597
1597 1685
1598 2010
1599 1600
1599 1920
1599 2094
1599 2095
1600 1836
1600 1970
1601 1999
1601 2127
1601 2148
1602 1685
1603 1647
1603 1771
1603 1821
1604 1698
1604 1818
1604 2041
1605 1644
1606 1673
1606 1771
1607 1968
1607 1996
1608 1723
1608 2063
1608 2145
1610 1758
1611 1612
1611 1626
1611 1779
1612 1845
1613 1653
1613 1952
1613 2154
1614 1658
1615 1832
1615 2000
1616 1619
1617 1900
1618 1880
1620 1946
1621 1622
1621 1691
1622 1661
1622 2012
1622 2096
1622 2112
1624 2002
1625 2001
1626 1663
1627 1662
1627 1807
1629 1727
1632 1811
1632 1846
1632 1962
1634 1666
1634 1701
1635 1736
1635 1822
1636 1736
1637 1928
1638 1909
1638 2089
1639 1764
1639 1802
1641 1688
1641 1802
1642 1698
1642 2065
1643 1749
1643 1907
1643 2033
1645 1862
1646 1914
1647 1805
1648 1750
1648 1952
1648 2066
1649 1786
1649 2013
1650 1793
1650 1795
1651 1757
1651 1877
1652 1740
1652 1788
1652 2036
1652 2037
1653 1750
1653 1881
1654 1895
1655 1895
1657 1769
1657 1784
1658 1824
1659 1825
1659 1890
1660 1661
1660 1818
1660 1848
1661 1720
1661 2065
1663 2160
1664 1860
1664 1913
1665 1666
1667 1806
1667 1888
1668 1669
1668 1752
1669 1684
1670 1787
1670 2011
1671 1814
1672 1686
1672 1895
1673 1798
1674 1704
1675 1676
1675 1904
1679 1732
1679 1801
1680 1873
1680 2035
1681 1832
1681 1927
1682 1776
1684 1784
1684 1876
1684 1913
1686 1687
1686 1895
1686 2164
1688 1712
1688 1855
1689 1690
1689 1859
1689 2094
1690 1916
1691 1867
1692 1856
1692 1905
1693 1729
1694 1965
1695 1824
1696 2029
1697 1774
1697 1980
1698 1774
1700 2001
1700 2164
1701 1778
1701 1839
1702 1722
1702 1974
1703 1851
1704 2005
1705 1827
1705 2017
1706 1793
1707 1795
1707 1868
1707 2097
1708 1828
1709 1894
1709 1919
1710 1902
1711 1841
1711 2191
1712 1737
1713 1959
1713 2108
1714 1887
1714 1919
1715 2133
1716 1953
1717 1847
1719 1720
1719 1928
1721 1973
1722 1793
1723 1943
1723 2078
1724 1753
1724 1975
1725 1776
1727 1995
1728 1911
1730 2110
1730 2114
1730 2127
1731 2050
1732 1756
1732 1800
1732 2049
1735 1736
1737 1783
1739 1741
1739 1791
1739 2023
1740 1741
1740 2159
1742 1868
1745 1746
1745 1902
1745 2006
1745 2180
1747 1820
1747 1883
1750 2154
1751 1863
1752 1788
1752 1831
1753 1754
1753 2078
1754 2085
1755 1845
1755 1880
1755 1907
1756 1780
1757 1780
1758 1896
1759 1997
1761 1878
1763 2040
1764 1765
1766 1838
1767 1831
1767 2030
1769 1897
1770 1876
1770 2050
1773 1948
1774 1867
1774 1884
1774 1960
1775 1847
1777 1846
1778 1945
1780 2009
1781 1898
1783 1908
1784 1905
1784 2039
1785 1894
1786 1957
1787 1814
1789 1791
1790 1791
1791 2023
1792 1794
1793 1794
1793 1974
1798 1805
1799 1994
1800 1999
1804 1845
1805 2160
1806 1837
1810 1849
1811 2009
1812 1918
1813 2021
1813 2029
1815 2146
1815 2147
1818 2041
1819 1921
1821 1962
1822 1912
1825 2018
1825 2044
1826 2004
1827 2032
1829 1836
1829 2152
1830 1928
1834 1950
1835 2047
1836 2096
1837 1838
1840 2068
1840 2077
1840 2119
1841 1979
1842 2153
1844 1881
1848 2115
1848 2116
1852 1887
1853 1949
1853 1998
1854 1949
1856 2021
1857 1990
1859 2095
1860 2037
1861 1931
1866 1915
1866 1997
1867 2103
1869 1870
1869 1871
1869 2065
1870 2126
1871 2125
1874 2138
1877 1991
1881 1952
1883 1922
1883 2045
1885 2142
1885 2154
1891 1915
1891 2028
1892 1893
1892 1934
1895 1948
1897 1956
1897 1958
1898 1899
1901 1988
1904 1939
1906 2060
1908 1976
1915 1997
1920 2116
1920 2148
1924 1938
1925 1975
1925 2078
1926 2001
1926 2174
1927 1936
1928 2193
1930 1942
1931 1932
1931 1933
1931 1942
1931 2113
1934 1935
1937 1938
1938 2025
1941 1997
1941 2028
1943 2086
1943 2095
1943 2111
1943 2145
1944 2031
1949 2010
1951 2054
1951 2134
1951 2137
1951 2140
1951 2183
1951 2184
1956 2036
1959 2027
1959 2114
1960 1961
1960 1962
1960 2027
1963 1964
1963 2017
1963 2032
1966 1981
1966 2123
1967 1968
1969 1989
1970 2130
1971 2007
1971 2008
1975 2049
1976 1977
1976 2172
1980 1984
1983 2076
1983 2158
1988 2024
1991 1992
1991 1993
1994 2047
1997 2024
1999 2111
2002 2073
2003 2008
2012 2124
2015 2016
2017 2018
2018 2044
2018 2045
2022 2023
2026 2058
2029 2172
2030 2031
2030 2039
2036 2076
2037 2038
2042 2043
2044 2045
2051 2193
2052 2086
2052 2116
2052 2148
2053 2079
2053 2104
2054 2082
2055 2057
2055 2058
2056 2103
2059 2104
2061 2121
2062 2122
2063 2094
2064 2137
2064 2183
2064 2184
2068 2098
2069 2162
2069 2163
2070 2071
2071 2098
2071 2105
2072 2098
2075 2188
2077 2092
2080 2081
2080 2083
2080 2134
2081 2082
2081 2091
2082 2083
2083 2140
2086 2126
2087 2131
2087 2141
2088 2187
2090 2139
2091 2104
2093 2132
2093 2187
2098 2119
2099 2124
2099 2143
2099 2152
2100 2142
2100 2154
2101 2106
2102 2104
2103 2151
2107 2110
2108 2160
2109 2161
2111 2148
2115 2148
2118 2134
2120 2131
2125 2150
2127 2150
2128 2142
2129 2142
2130 2143
2130 2151
2133 2153
2134 2137
2143 2144
2146 2147
2149 2159
2156 2166
2156 2167
2157 2158
2157 2159
2165 2187
2168 2189
2169 2189
2171 2172
2174 2175
2175 2180
2177 2178
2179 2194
2182 2195
2188 2189
2196 2197
2196 2201
2197 2198
2198 2200
2199 2201
2202 2207
2202 2208
2203 2377
2204 2210
2205 2241
2205 2385
2206 2407
2206 4709
2207 2209
2208 2209
2209 2210
2209 2279
2211 2391
2211 4863
2212 2352
2212 2406
2213 2365
2213 2382
2214 2285
2214 2340
2215 2341
2215 2342
2216 2241
2216 2328
2216 2368
2216 2392
2217 2226
2218 2219
2218 2220
2218 2229
2218 2258
2218 2292
2218 2371
2218 2397
2218 2398
2218 2400
2219 2220
2219 2221
2219 2226
2219 2317
2219 2413
2220 2226
2220 2232
2220 2378
2221 2317
2221 2345
2222 2310
2222 2399
2223 2225
2224 2227
2224 2354
2225 2231
2227 2260
2228 2313
2228 2342
2228 2352
2229 2400
2230 2301
2230 2356
2230 2404
2231 2355
2232 2259
2232 2295
2232 2305
2232 2308
2232 2324
2232 2364
2232 2378
2233 2235
2234 2235
2235 2288
2235 2363
2235 2391
2236 2282
2236 2309
2237 2321
2237 2361
2238 2239
2238 4473
2238 4597
2239 2246
2239 2306
2239 2350
2240 2321
2240 2331
2241 2328
2242 2311
2242 2416
2243 2304
2243 2383
2243 2415
2244 2253
2244 2381
2245 2246
2245 2247
2245 4501
2245 4502
2246 2248
2246 2249
2246 2250
2246 2365
2246 2407
2246 4539
2246 4618
2250 2307
2251 2278
2251 2374
2252 2289
2252 2323
2253 2299
2254 2279
2254 2402
2255 2259
2256 2259
2257 2259
2259 2295
2259 2359
2260 2302
2260 2352
2261 2279
2261 2283
2262 2302
2262 4820
2263 2269
2263 2409
2264 2265
2264 2266
2264 2267
2264 2329
2264 2376
2265 2268
2265 2377
2265 2411
2269 2330
2270 2272
2271 2272
2271 2367
2271 2402
2273 2274
2273 2287
2273 2384
2275 2316
2275 2366
2276 2356
2276 2409
2277 2281
2278 2279
2278 2332
2279 2280
2279 2281
2279 2298
2279 2300
2279 2367
2279 2370
2280 2281
2282 2283
2282 2327
2282 2387
2284 2330
2284 2382
2285 2312
2286 2377
2287 2289
2287 2363
2287 2372
2288 2311
2290 2343
2290 2362
2291 2328
2291 2377
2292 2400
2293 2295
2294 2295
2295 2338
2295 2364
2296 2402
2297 2367
2298 2349
2299 2343
2299 2403
2300 2349
2301 2306
2303 2326
2304 2383
2304 2410
2305 2378
2305 2383
2307 2341
2308 2359
2308 4803
2310 2317
2310 2354
2312 2313
2313 2365
2314 2323
2314 2328
2315 2317
2315 2361
2316 2317
2317 2318
2317 2319
2317 2320
2317 2388
2321 2353
2321 2401
2322 2325
2323 2324
2323 2325
2323 2347
2323 2375
2323 2415
2324 2325
2324 2378
2326 2400
2327 2387
2328 2368
2328 2384
2329 2376
2331 2344
2331 2366
2332 2334
2332 2362
2332 2369
2333 2352
2333 2399
2335 2383
2335 2414
2336 2358
2336 2396
2337 2358
2337 4001
2338 2339
2340 2341
2344 2345
2344 2401
2346 2359
2347 2383
2348 2377
2348 2383
2349 2367
2350 2382
2350 2406
2350 4600
2351 2371
2351 2397
2353 2366
2355 2357
2357 2358
2358 2359
2358 2360
2360 4825
2363 2364
2363 2372
2363 2384
2368 2392
2369 2370
2369 2373
2371 2398
2373 2374
2373 2381
2375 2383
2376 2377
2377 2378
2377 2379
2377 2380
2377 2390
2377 2393
2377 2414
2379 2413
2380 2413
2381 2403
2382 4626
2385 2390
2386 2389
2387 2388
2387 2389
2387 2400
2388 2389
2391 4815
2392 2393
2392 2394
2392 2395
2404 2405
2404 4518
2404 4598
2404 4615
2404 4715
2404 4719
2408 2409
2409 4661
2410 2411
2416 2417
2418 4457
2418 4529
2419 2420
2420 2454
2420 2514
2421 2480
2421 2650
2422 2722
2422 2723
2423 2484
2423 2581
2423 2651
2424 2540
2424 2612
2425 2590
2426 2427
2426 2809
2427 2585
2428 2573
2428 2656
2429 2431
2429 2466
2429 2519
2429 2583
2429 2614
2429 2618
2429 2619
2429 2657
2429 2663
2429 2693
2429 2696
2429 2697
2430 2485
2430 2633
2430 2665
2431 2581
2431 2667
2432 2434
2433 2434
2434 2444
2434 2524
2434 2591
2434 2626
2434 2628
2434 2634
2434 2677
2434 2678
2434 2878
2434 2984
2435 4095
2435 4114
2435 4424
2436 2438
2437 2438
2438 2516
2438 2611
2438 2622
2439 2676
2439 2680
2439 2702
2439 2949
2439 3086
2440 2599
2440 2680
2440 2703
2441 2497
2441 2554
2441 3184
2442 2452
2442 2786
2442 2807
2442 2960
2443 2540
2443 2592
2444 2682
2444 3168
2445 2446
2445 2571
2445 2711
2445 2713
2445 3035
2447 2546
2447 2556
2447 2689
2448 2449
2449 2555
2449 2581
2449 2692
2450 2704
2450 2831
2450 3094
2450 3205
2451 2453
2451 2612
2451 2704
2452 2453
2452 2786
2452 2923
2452 2997
2452 3004
2453 2454
2453 2482
2453 2520
2453 2588
2453 2612
2453 2672
2453 2698
2454 2553
2454 2586
2454 2588
2454 2594
2455 2456
2456 2581
2456 2585
2457 2458
2458 2649
2458 2984
2459 2481
2459 2538
2459 2707
2459 2708
2460 2710
2460 2711
2460 2932
2461 2711
2462 2711
2463 2522
2463 2556
2463 2712
2464 2591
2464 2634
2464 2717
2465 2466
2466 2959
2467 2488
2467 2583
2467 3193
2468 2471
2468 2472
2468 2640
2469 2470
2469 2471
2469 2472
2469 2478
2469 2547
2469 2554
2469 2637
2470 2498
2470 2514
2470 2553
2470 2586
2471 3194
2472 3195
2473 2803
2473 2857
2474 2475
2474 2476
2474 2550
2475 2477
2475 2586
2478 2554
2478 3196
2479 2500
2479 2729
2479 3082
2479 3083
2480 2491
2480 2543
2480 2556
2480 2734
2480 2736
2480 2757
2480 2951
2481 2523
2481 2538
2481 2736
2482 2612
2482 2627
2483 2484
2483 2571
2483 2982
2483 3191
2484 2516
2484 2578
2484 2581
2484 3052
2484 3102
2485 2490
2485 2493
2485 2723
2485 2941
2485 3010
2486 2752
2487 2488
2487 2638
2487 2641
2488 2583
2488 2622
2488 3007
2488 3009
2488 3201
2488 3202
2489 2556
2489 2753
2489 3010
2490 2754
2490 2755
2490 2756
2491 2759
2491 3010
2492 2590
2492 2760
2492 2762
2492 3152
2493 2508
2493 2722
2493 2762
2494 2533
2494 2539
2494 3070
2495 2525
2495 2574
2495 2768
2495 2769
2495 3100
2495 3240
2496 2497
2496 2638
2496 2640
2497 2498
2497 2547
2497 3009
2497 3203
2497 3204
2498 2606
2499 2599
2499 2604
2499 2775
2500 2517
2500 2776
2500 2778
2500 3041
2501 2617
2501 2770
2501 2795
2502 2503
2503 2514
2503 2608
2504 2505
2504 2506
2504 2611
2504 2622
2507 3206
2508 2788
2508 3010
2509 2510
2509 2590
2510 2590
2510 2803
2510 3028
2510 3207
2511 2512
2511 2513
2511 2514
2514 2553
2514 2594
2514 2597
2515 2528
2515 2590
2515 2998
2516 2554
2516 2636
2516 3209
2517 2596
2517 2609
2517 2612
2517 2799
2517 2800
2517 3037
2517 3039
2518 2606
2519 2581
2519 2806
2520 2612
2521 3210
2522 2556
2522 2595
2522 2782
2522 2797
2522 2808
2523 2538
2523 2544
2523 2601
2523 2607
2523 2797
2524 2549
2524 2867
2524 2910
2524 3165
2525 2526
2525 2574
2525 2785
2525 2909
2525 2911
2525 3100
2525 3160
2526 2631
2526 2719
2527 2552
2527 2607
2528 2529
2528 2537
2528 2590
2528 2758
2528 2814
2528 2816
2528 2998
2528 3099
2528 3159
2529 2559
2529 2654
2529 2814
2529 2816
2529 3010
2530 2531
2531 2624
2531 2696
2532 2543
2532 2834
2532 3047
2533 2534
2533 2539
2533 2545
2533 2546
2533 2549
2533 2913
2533 3108
2533 3109
2534 2544
2534 2601
2535 2821
2536 2578
2536 2821
2537 2721
2537 2758
2537 2827
2537 2828
2537 2829
2537 2945
2537 2990
2537 3060
2537 3099
2537 3154
2537 3185
2538 2825
2538 4185
2539 2784
2539 2836
2539 2837
2539 2913
2539 2916
2540 2549
2540 2587
2540 2632
2540 2851
2540 2853
2540 2855
2540 3136
2541 2543
2542 2543
2543 2840
2543 2841
2543 2951
2543 3047
2544 2546
2544 2848
2544 2849
2545 2546
2545 2556
2545 2842
2545 2843
2545 2846
2545 2847
2546 2845
2547 3259
2548 2715
2548 2794
2548 2802
2548 2836
2548 2838
2548 2863
2548 2864
2548 2865
2548 2867
2548 2901
2548 2915
2548 2964
2548 2988
2548 2992
2548 3088
2548 3113
2548 3124
2548 3131
2548 3251
2549 2570
2549 2591
2549 2603
2549 2863
2549 2864
2549 2865
2549 3166
2551 2616
2551 4065
2551 4283
2552 2553
2554 2622
2554 3217
2554 3218
2555 2599
2555 2875
2556 2819
2556 2876
2556 2893
2557 4095
2557 4411
2557 4414
2557 4427
2558 2615
2558 2783
2558 3129
2558 3130
2559 2653
2559 2885
2560 2672
2560 2810
2560 2887
2560 2934
2561 2562
2562 2588
2562 2934
2563 2888
2564 2588
2564 2661
2564 2888
2565 2889
2566 2891
2567 2588
2567 2891
2567 2892
2568 2892
2569 2570
2569 2687
2569 2805
2569 2899
2569 2929
2569 2965
2569 3089
2569 3248
2570 2576
2570 2587
2570 2592
2570 2596
2570 2726
2570 2787
2570 2897
2570 2898
2570 2900
2570 2957
2570 3136
2571 2982
2571 3035
2571 3183
2572 2583
2572 2636
2572 3007
2572 3219
2572 3220
2573 2581
2573 2895
2574 2575
2574 3100
2577 2578
2579 2591
2579 2603
2579 2901
2580 2581
2580 2669
2580 2705
2580 2711
2580 2714
2580 2716
2580 2873
2580 2882
2580 2904
2580 3087
2580 3140
2580 3178
2580 3192
2581 2599
2581 2904
2582 2583
2584 3223
2585 2905
2588 2699
2588 2902
2589 2600
2589 2902
2590 2998
2590 3139
2590 3159
2591 2911
2591 2920
2591 2921
2591 2927
2592 2910
2593 2594
2595 2926
2596 2929
2596 2957
2596 3041
2598 2603
2598 2936
2598 3102
2599 2604
2599 2946
2599 2948
2599 2949
2600 2601
2600 2613
2600 2946
2601 2602
2601 2607
2601 2613
2601 2953
2602 2603
2602 2606
2602 2649
2602 2726
2602 2787
2602 2952
2602 3167
2603 2618
2603 2619
2603 2646
2603 2783
2603 2953
2603 3052
2604 2956
2605 2635
2606 2607
2606 3255
2606 3256
2609 2612
2609 2963
2610 2611
2611 3237
2612 2632
2612 2878
2612 2879
2612 2966
2612 2967
2613 2967
2614 2959
2614 2969
2615 2782
2615 2971
2616 4138
2616 4231
2616 4283
2617 2633
2617 2697
2617 2986
2618 2972
2619 2973
2620 2622
2621 2622
2623 2975
2623 2983
2624 2941
2624 2979
2624 2980
2625 3241
2626 2629
2626 3250
2627 3182
2628 3166
2630 2633
2631 2927
2635 2958
2635 2959
2636 3186
2638 2639
2638 3190
2639 2643
2639 3211
2639 3212
2640 2642
2640 2643
2640 3214
2640 3215
2641 2643
2641 3225
2642 2644
2642 3226
2642 3227
2642 3228
2642 3229
2642 3230
2642 3231
2643 2644
2643 3232
2644 3242
2644 3243
2645 3255
2645 3256
2646 3101
2647 2753
2647 2788
2648 3032
2648 3167
2649 3012
2650 2733
2650 2759
2650 2818
2650 3156
2650 3158
2651 2664
2651 3137
2652 2688
2652 2901
2652 2909
2652 2911
2652 3069
2653 2662
2654 2752
2655 3017
2655 3180
2657 2663
2657 2679
2657 2700
2657 2806
2657 2812
2657 2830
2657 2937
2657 2952
2657 2962
2657 3179
2658 2663
2659 2792
2660 2792
2661 2781
2665 2788
2665 2998
2665 3001
2665 3198
2666 2773
2666 2789
2666 2994
2666 2997
2666 3019
2666 3126
2667 2668
2667 2669
2669 2705
2669 2883
2669 3192
2670 2907
2671 2672
2673 2935
2674 2675
2675 2977
2679 2806
2680 2681
2681 2771
2681 2996
2682 2751
2682 2839
2682 2929
2682 3042
2683 3082
2684 3083
2685 2686
2686 2830
2686 2884
2686 2935
2687 2929
2687 2965
2687 3128
2687 3233
2688 2901
2688 3069
2688 3151
2688 3253
2689 2914
2689 3014
2689 3015
2689 3022
2690 2972
2691 2698
2691 2780
2692 2874
2692 3085
2692 3117
2692 3169
2693 2694
2695 2704
2695 3239
2697 3059
2698 2738
2698 2780
2698 3005
2699 2889
2699 3093
2701 2803
2701 2833
2705 3178
2705 3192
2706 2950
2706 3188
2706 3197
2706 3234
2709 2804
2709 2964
2709 2971
2709 3049
2711 2713
2711 2714
2711 3140
2711 3988
2711 3989
2715 2717
2716 2750
2716 2873
2716 2882
2716 2966
2717 2839
2718 2748
2718 2749
2718 2772
2718 2831
2718 2832
2718 2850
2718 3094
2719 3053
2720 2774
2720 3002
2720 3254
2721 2945
2721 3054
2721 3185
2721 3236
2722 2724
2723 2725
2726 3056
2727 2731
2728 2820
2729 2730
2729 2731
2729 2799
2729 3003
2730 2731
2730 2772
2730 3172
2732 2733
2732 2734
2733 2753
2733 2759
2733 2876
2733 2925
2733 3033
2733 3034
2734 2735
2736 2737
2738 3005
2739 3073
2740 3074
2741 3075
2742 3076
2743 3077
2744 3078
2745 3079
2746 3080
2747 3081
2749 2850
2750 2882
2753 2788
2753 2833
2753 2871
2753 2876
2753 3033
2757 2758
2757 3010
2758 3099
2759 3090
2760 2761
2762 2763
2764 2765
2764 2773
2764 2774
2766 2995
2767 2974
2767 2996
2771 2835
2772 2831
2772 2832
2772 2850
2773 2774
2773 2997
2773 3004
2774 2960
2774 2961
2774 2994
2774 3002
2776 2777
2776 2778
2776 3068
2777 2778
2779 2780
2780 2970
2780 3238
2784 2785
2784 2916
2785 2909
2785 3253
2786 3005
2787 3097
2789 2832
2789 3019
2789 3098
2789 3134
2790 2791
2790 2793
2790 3155
2791 2793
2791 2813
2791 2990
2791 3132
2791 3189
2791 3199
2791 3224
2792 2793
2792 2939
2792 2940
2793 2813
2793 2990
2793 3132
2793 3133
2793 3189
2793 3199
2793 3224
2794 2915
2794 2988
2794 3251
2796 2975
2797 2798
2799 3003
2799 3213
2800 3148
2801 2835
2802 2836
2803 2833
2803 2857
2803 2979
2803 3028
2804 2964
2806 2896
2806 2969
2806 3071
2807 2960
2807 2970
2807 2976
2807 3005
2808 2871
2808 3095
2808 3125
2808 3177
2810 2811
2812 2830
2812 2859
2812 2937
2812 2952
2812 3115
2812 3179
2813 2818
2813 2858
2813 2945
2814 2815
2816 2817
2818 2858
2818 2945
2818 3157
2818 3158
2819 3010
2820 2821
2822 2827
2823 2828
2824 2829
2825 2826
2830 2937
2830 2962
2830 3115
2831 2832
2831 2850
2831 3205
2832 3134
2832 3222
2833 2871
2833 2876
2833 3018
2834 2925
2834 2928
2835 2933
2835 2974
2835 3174
2836 2901
2836 3088
2838 2964
2839 2851
2839 2853
2839 2855
2839 2929
2839 3011
2839 3153
2840 2925
2842 2844
2843 2844
2844 2845
2844 2907
2844 2930
2844 3030
2844 3111
2844 3138
2844 3245
2845 3111
2845 3138
2845 3244
2845 3245
2845 3246
2850 3072
2851 2852
2853 2854
2855 2856
2857 3021
2857 3105
2857 3107
2858 2945
2859 2952
2860 2969
2861 3118
2862 3119
2863 2869
2864 2870
2865 2866
2867 2868
2867 2910
2867 3165
2871 2876
2871 2979
2871 3135
2871 3177
2872 2874
2872 3103
2873 2875
2873 2882
2873 2991
2873 3087
2873 3176
2874 2875
2874 3103
2874 3169
2876 2893
2876 2979
2876 3033
2876 3135
2877 3050
2877 3129
2877 3130
2878 2880
2879 2881
2879 3168
2884 2935
2886 2887
2886 2989
2886 2993
2889 2890
2890 3016
2893 2894
2896 2969
2901 2911
2901 3088
2902 2903
2906 2916
2907 3030
2907 3138
2907 3245
2907 3247
2908 2958
2908 3121
2909 2911
2909 2919
2910 3165
2911 2919
2911 2920
2911 2921
2911 3160
2912 3147
2915 3043
2917 2918
2917 2930
2917 2931
2919 2922
2920 3143
2921 3144
2924 3039
2925 2928
2925 3013
2925 3033
2925 3034
2925 3154
2929 2965
2929 3026
2929 3153
2929 3216
2930 2931
2930 3138
2931 2987
2931 3123
2932 3149
2932 3200
2932 3990
2934 3150
2936 2973
2937 2938
2937 3115
2937 3179
2942 2943
2944 2990
2945 3027
2945 3236
2946 2947
2948 2949
2948 2950
2949 3086
2950 3234
2952 3055
2952 3106
2953 2954
2955 2956
2957 3058
2960 2961
2960 3004
2963 3116
2964 2971
2966 3044
2967 2968
2970 2976
2970 3181
2970 3238
2971 3170
2971 3171
2972 3046
2974 2996
2976 3208
2977 2978
2977 2983
2979 3096
2979 3135
2980 3107
2981 2983
2984 3175
2985 3176
2986 3104
2990 3189
2991 3176
2994 2995
2994 3126
2997 3110
2998 3001
2998 3048
2998 3139
2998 3198
2999 3000
3000 3219
3001 3187
3001 3198
3002 3145
3002 3235
3003 3213
3006 3007
3008 3009
3011 3153
3013 3154
3017 3063
3020 3040
3020 3041
3021 3107
3023 3113
3023 3114
3023 3251
3024 3091
3025 3092
3029 3033
3030 3245
3031 3094
3033 3034
3036 3037
3036 3067
3036 3120
3038 3039
3038 3065
3038 3118
3045 3176
3051 3113
3051 3114
3057 3165
3061 3062
3061 3076
3061 3147
3062 3065
3062 3081
3063 3078
3063 3120
3063 3180
3064 3065
3064 3073
3064 3146
3066 3067
3066 3075
3066 3077
3067 3080
3074 3091
3079 3092
3082 3091
3083 3092
3084 3112
3084 3113
3089 3248
3103 3127
3107 3221
3108 3113
3109 3113
3112 3113
3112 3114
3113 3114
3113 3131
3113 3251
3114 3251
3119 3120
3122 3138
3124 3251
3134 3222
3141 3154
3142 3176
3151 3253
3154 3173
3161 3168
3162 3167
3163 3166
3164 3165
3167 3250
3194 3195
3196 3241
3206 3237
3210 3223
3210 3237
3223 3237
3244 3245
3248 3249
3252 3253
3255 3257
3256 3258
3260 3378
3260 3455
3260 3560
3261 3262
3261 3301
3261 3355
3261 3519
3262 3281
3262 4827
3263 3264
3263 3292
3263 3400
3263 3473
3263 3535
3264 3277
3264 3293
3264 3300
3265 3266
3265 3505
3266 3281
3266 3296
3266 3407
3266 3408
3266 3525
3267 3413
3268 3413
3268 3589
3268 3675
3269 3417
3269 3598
3269 3639
3270 3435
3271 3435
3272 3435
3273 3434
3274 3311
3274 3387
3274 3436
3274 3437
3274 3507
3274 3594
3274 3619
3275 3441
3275 3547
3275 3563
3275 3621
3275 3659
3276 3277
3276 3431
3276 3432
3276 3612
3277 3300
3277 3324
3277 3427
3277 3444
3277 3445
3277 3451
3278 3279
3278 3422
3279 3288
3279 3300
3279 3303
3279 3318
3279 3326
3279 3451
3279 3560
3279 3599
3279 3664
3280 3281
3280 3660
3281 3402
3282 3322
3282 3577
3282 3592
3282 3623
3283 3284
3283 3333
3283 3450
3283 3503
3283 3524
3283 3587
3284 3303
3284 3319
3284 3359
3284 3360
3284 3388
3284 3691
3285 3440
3285 4830
3286 3385
3286 3464
3286 3540
3286 3541
3286 3644
3287 3327
3287 3509
3287 3513
3287 3514
3287 3574
3288 3295
3288 3438
3288 3599
3288 3665
3289 3290
3289 3421
3289 3635
3289 4796
3290 3298
3290 3312
3291 3309
3291 3531
3292 3539
3293 3543
3294 3295
3294 3680
3294 3707
3295 3528
3295 3709
3296 3332
3296 3433
3296 3439
3296 3465
3296 3525
3296 3549
3296 3553
3296 3554
3297 3298
3297 3547
3297 3548
3297 3672
3298 3402
3298 3664
3298 4569
3298 4797
3299 3300
3299 3583
3299 3689
3300 4842
3301 3596
3301 4725
3302 3303
3303 3318
3303 4621
3304 3316
3304 3396
3304 3595
3304 3639
3304 4831
3305 3601
3306 3610
3307 3309
3308 3309
3308 3496
3308 4841
3309 3380
3309 4842
3310 3540
3310 3541
3310 3550
3310 3605
3310 3606
3310 3614
3310 3615
3310 3626
3311 3439
3311 3614
3311 3615
3312 3370
3312 3589
3312 4854
3313 3327
3313 3676
3314 3315
3314 3316
3314 3369
3314 3628
3314 3645
3314 3696
3315 4849
3316 3630
3317 3640
3317 3641
3317 3655
3317 3667
3317 3668
3318 3528
3318 3565
3318 3638
3318 3640
3318 3641
3318 3656
3318 3669
3319 3328
3319 3329
3319 3332
3319 3579
3319 3619
3319 4548
3320 3390
3320 3453
3320 3530
3320 3622
3321 3322
3322 3399
3322 3404
3322 3536
3322 3568
3322 3605
3322 3681
3322 3682
3322 3683
3323 3324
3323 3557
3323 3650
3323 3689
3323 3690
3325 3326
3325 3362
3325 3692
3325 3693
3325 3694
3326 3433
3326 3692
3327 3328
3327 3697
3327 4643
3328 4644
3329 4442
3330 3442
3330 4475
3331 3546
3331 4536
3332 3683
3334 3335
3335 3336
3335 3337
3336 4841
3337 3490
3338 3483
3338 3534
3338 3575
3338 3588
3339 4844
3340 3398
3341 3398
3342 3398
3343 3399
3344 3447
3345 3346
3345 3347
3345 4444
3348 4816
3349 3707
3350 3529
3351 3558
3352 4816
3353 3412
3354 4844
3356 3547
3357 3657
3358 3661
3361 3676
3363 3623
3364 3623
3365 3592
3366 3532
3366 3642
3367 3368
3367 3501
3367 3576
3368 3369
3368 3521
3368 3653
3370 3714
3371 3423
3371 3649
3372 3625
3373 3377
3374 3377
3375 3378
3376 3378
3377 3378
3377 3633
3377 3644
3377 3679
3378 3484
3378 3486
3378 3643
3379 3435
3379 3593
3380 3651
3381 3469
3381 3518
3382 3435
3382 3626
3383 3384
3383 3397
3383 3398
3384 3398
3385 3532
3385 3643
3386 3594
3387 3499
3388 3638
3389 3495
3389 3520
3390 3392
3390 3393
3391 3393
3393 3567
3393 3700
3394 3575
3394 3590
3395 3396
3396 3586
3398 3577
3398 3662
3399 3662
3400 3624
3401 3496
3401 3531
3403 3452
3403 3534
3404 3632
3405 3494
3405 3555
3406 3557
3409 3411
3409 3581
3410 3707
3412 3414
3412 3415
3412 3704
3413 3704
3416 3512
3416 3677
3418 3582
3419 3464
3420 3421
3420 3613
3421 4811
3422 3588
3423 3424
3423 3425
3423 3630
3426 3432
3428 3429
3429 3430
3429 3432
3430 3431
3434 3435
3434 3469
3434 3470
3434 3494
3434 3587
3435 3436
3435 3437
3435 3446
3435 3493
3435 3558
3435 3559
3435 3580
3435 3581
3438 3565
3440 3511
3443 3677
3447 3448
3447 3666
3449 3503
3450 3706
3451 3452
3451 3651
3452 3453
3452 3534
3453 3454
3453 3527
3453 3700
3454 3646
3455 3465
3456 3512
3456 3704
3457 3458
3458 3642
3458 3694
3459 3617
3460 3463
3460 3466
3460 3467
3461 3466
3461 3468
3461 3701
3462 3467
3462 3468
3462 3702
3464 3466
3464 3467
3464 3468
3464 3492
3464 3593
3465 3482
3465 3594
3470 3517
3471 3663
3471 3699
3472 3473
3473 3583
3474 3477
3475 3480
3476 3478
3477 3479
3478 3479
3478 3480
3478 3530
3478 3705
3479 3527
3479 3531
3481 3517
3481 3518
3481 3667
3481 3668
3482 3709
3484 3487
3484 3551
3485 3633
3488 3524
3489 3538
3489 3706
3490 3590
3491 3492
3492 3604
3493 3632
3497 3498
3497 3670
3499 3637
3500 3673
3502 3684
3503 3670
3504 3505
3504 3713
3505 3708
3506 3621
3507 3691
3508 3571
3508 3620
3508 3634
3509 3529
3509 3684
3510 4828
3511 3523
3512 3584
3512 3585
3515 3579
3516 3673
3519 3659
3520 3642
3521 3618
3522 3572
3522 3576
3523 3675
3526 3546
3529 3711
3530 3531
3531 3622
3532 3642
3533 3686
3535 3544
3535 3698
3536 3555
3537 3568
3538 3568
3539 3556
3539 3624
3542 3556
3543 3544
3543 3545
3543 3685
3543 3698
3548 3621
3549 3579
3550 3592
3551 3552
3552 3693
3557 3591
3558 3582
3559 3629
3561 3693
3562 3694
3563 3564
3564 3660
3566 3595
3566 3686
3567 3705
3569 3686
3570 3572
3570 3627
3571 3578
3572 3573
3574 3676
3574 3703
3576 3628
3578 3636
3580 3629
3585 3616
3586 3672
3588 3699
3596 3708
3597 3598
3598 3689
3600 3650
3600 3689
3601 3602
3602 3688
3603 3604
3606 3623
3607 3608
3608 3645
3609 4851
3610 4594
3611 3612
3612 3689
3616 3636
3616 4851
3617 3618
3618 3630
3625 3653
3628 3649
3628 3710
3631 3693
3634 3712
3635 3712
3637 3669
3642 3666
3646 3647
3646 3648
3650 3652
3650 3689
3652 3690
3654 3695
3656 3665
3657 3658
3658 3659
3661 3662
3663 3664
3671 3672
3673 3674
3674 3675
3678 3679
3678 3680
3687 3704
3688 3689
3695 3696
3715 3744
3715 3898
3716 3728
3716 3733
3716 3759
3717 3728
3717 3759
3718 3739
3718 3770
3718 3902
3719 3720
3719 3721
3719 3740
3720 3750
3721 3744
3722 3723
3723 3758
3723 3896
3723 3897
3724 3725
3724 3758
3724 3849
3726 3727
3727 3750
3727 3754
3728 3730
3728 3754
3728 3892
3728 3898
3728 3901
3729 3731
3729 3732
3729 3755
3729 3912
3729 4165
3732 3767
3732 3804
3732 3904
3733 3804
3734 3804
3734 3909
3735 3736
3736 3748
3737 3738
3737 3749
3737 3791
3737 3813
3739 3761
3740 3763
3740 3829
3741 3742
3741 3743
3741 3758
3741 3775
3741 3887
3741 3888
3742 3763
3743 3763
3744 3909
3745 3747
3745 3782
3745 3817
3745 3821
3745 3837
3745 3859
3746 3747
3746 3756
3747 3751
3747 3764
3747 3767
3747 3836
3748 3836
3749 3750
3749 3751
3749 3802
3749 3807
3749 3808
3749 3834
3749 3845
3750 3751
3750 3763
3751 3753
3751 3764
3751 3871
3751 4165
3752 3753
3752 3823
3752 3852
3752 3857
3752 3862
3753 3755
3754 3861
3754 3901
3755 3861
3756 3903
3757 3758
3758 3788
3758 3888
3759 3760
3759 3870
3760 3761
3761 3768
3762 3763
3762 3765
3762 3820
3762 3842
3762 3843
3762 3853
3762 3882
3762 3900
3763 3766
3763 3903
3764 3905
3764 3906
3764 3907
3767 3884
3768 3769
3768 3770
3768 3894
3768 3902
3768 3910
3769 3904
3769 4165
3770 3894
3771 3829
3771 3830
3772 3773
3772 3804
3773 3810
3773 3867
3774 3841
3774 3860
3775 3823
3775 3887
3775 3896
3775 3911
3776 3777
3776 3787
3777 3797
3777 3830
3778 3779
3778 3809
3778 3864
3779 3804
3780 3797
3780 3874
3781 3785
3781 3787
3781 3815
3782 3783
3783 3855
3783 3856
3784 3846
3786 3862
3788 3789
3788 3847
3789 3859
3789 3878
3789 3879
3790 3791
3790 3808
3791 3869
3792 3829
3792 3874
3792 3884
3793 3794
3793 3822
3793 3910
3795 3796
3795 3803
3795 3861
3795 3866
3796 3798
3796 3861
3797 3815
3798 3799
3799 3885
3800 3801
3800 3816
3800 3821
3800 3829
3800 3845
3802 3873
3802 3884
3803 3861
3804 3805
3804 3806
3804 3810
3804 3828
3804 3872
3805 3889
3806 3809
3809 3810
3811 3838
3811 3839
3812 3813
3813 3825
3814 3861
3814 3886
3814 3893
3816 3817
3817 3829
3818 3819
3819 3822
3819 3827
3820 3854
3821 3878
3824 3825
3825 3834
3826 3868
3826 3869
3827 3880
3828 3867
3829 3830
3829 3873
3831 3832
3831 3870
3832 3870
3832 3872
3833 3838
3833 3861
3835 3836
3837 3881
3837 3882
3838 3861
3838 3877
3839 3840
3839 3895
3840 3861
3840 3869
3841 3844
3841 3858
3842 3843
3843 3882
3844 3870
3846 3891
3847 3848
3847 3882
3848 3883
3849 3876
3850 3851
3850 3870
3851 3870
3851 3880
3853 3854
3853 3856
3854 3875
3856 3875
3857 3868
3858 3904
3859 3881
3860 3870
3861 3866
3861 3885
3861 3886
3861 3893
3863 3864
3863 3889
3863 3899
3864 3884
3865 3866
3867 3891
3868 3869
3869 3893
3870 3871
3871 4165
3874 3891
3876 3883
3877 3884
3879 3888
3882 3883
3884 3899
3889 3890
3896 3897
3908 3909
3913 3939
3914 3922
3914 3944
3914 3978
3915 3916
3915 3964
3916 3941
3917 3941
3917 3946
3918 4006
3919 3949
3919 3966
3920 3932
3920 3961
3920 4028
3920 4030
3921 3935
3921 4021
3921 4022
3922 3923
3922 3929
3923 3931
3923 3945
3923 3955
3923 3974
3923 3997
3924 3925
3924 3965
3924 3982
3925 3945
3925 3963
3925 3974
3925 3977
3926 3928
3926 3989
3926 4000
3927 3928
3927 4011
3928 3970
3928 4013
3929 3965
3930 3931
3931 3968
3932 3951
3932 4007
3932 4029
3932 4030
3933 3935
3934 3935
3935 3937
3936 3937
3936 3938
3937 3995
3937 4038
3938 3958
3938 3971
3939 3950
3939 3961
3940 4044
3941 3960
3942 3945
3943 3945
3944 3945
3945 3946
3945 3986
3945 3993
3947 3949
3947 4004
3948 4001
3948 4033
3949 3966
3950 3951
3951 3952
3951 3953
3952 4044
3954 3972
3954 4014
3956 3957
3956 3991
3957 3969
3958 3978
3958 3979
3958 3987
3959 3999
3960 4034
3961 4031
3962 3963
3962 3982
3964 4016
3966 3967
3966 3986
3966 3995
3967 3996
3968 3986
3968 4013
3969 4000
3970 4002
3971 3994
3972 3973
3973 4015
3973 4022
3975 3984
3975 4003
3975 4012
3975 4045
3976 4002
3976 4013
3977 3983
3978 3994
3980 3995
3980 4004
3981 3991
3981 3999
3981 4024
3984 4003
3985 3986
3988 4000
3990 3992
3992 3999
3994 3995
3995 3997
3995 3998
3995 4046
3996 3997
3996 4005
3996 4007
3999 4000
4000 4023
4002 4004
4002 4005
4002 4046
4003 4004
4004 4046
4006 4007
4006 4015
4007 4008
4007 4009
4007 4032
4010 4011
4011 4012
4013 4046
4014 4015
4016 4019
4017 4018
4017 4019
4018 4035
4018 4036
4020 4021
4023 4024
4025 4026
4025 4027
4026 4029
4026 4031
4026 4037
4027 4028
4031 4032
4033 4034
4035 4071
4036 4071
4038 4039
4039 4040
4039 4041
4039 4042
4043 4044
4045 4046
4047 4052
4048 4050
4049 4050
4050 4052
4050 4056
4050 4065
4051 4052
4052 4056
4052 4128
4053 4132
4053 4138
4053 4184
4053 4233
4054 4055
4054 4265
4055 4153
4055 4154
4056 4087
4056 4126
4056 4183
4057 4058
4058 4082
4058 4155
4058 4174
4059 4068
4059 4251
4060 4118
4060 4245
4061 4071
4062 4072
4063 4102
4063 4166
4063 4188
4063 4211
4063 4212
4064 4113
4064 4247
4064 4248
4064 4249
4065 4076
4065 4138
4066 4067
4066 4207
4066 4210
4066 4226
4067 4172
4067 4193
4067 4283
4068 4117
4068 4271
4068 4272
4069 4070
4069 4118
4069 4191
4071 4072
4072 4073
4072 4075
4072 4110
4072 4113
4073 4150
4074 4075
4076 4087
4076 4104
4076 4122
4076 4209
4077 4078
4077 4139
4077 4167
4077 4187
4077 4234
4078 4179
4079 4080
4080 4114
4080 4115
4080 4286
4081 4138
4081 4153
4081 4177
4083 4084
4083 4205
4083 4206
4084 4090
4084 4120
4084 4125
4085 4086
4085 4129
4085 4251
4085 4424
4086 4130
4086 4145
4087 4109
4087 4116
4087 4168
4088 4090
4089 4090
4091 4094
4092 4094
4093 4094
4093 4218
4094 4152
4094 4167
4094 4187
4094 4283
4095 4289
4095 4290
4096 4097
4097 4162
4098 4099
4098 4122
4099 4177
4100 4101
4100 4104
4100 4124
4102 4188
4103 4104
4103 4123
4103 4204
4103 4225
4104 4120
4104 4128
4104 4190
4105 4117
4105 4141
4106 4109
4107 4109
4108 4109
4110 4112
4111 4112
4113 4117
4113 4137
4113 4170
4114 4291
4115 4139
4115 4292
4116 4168
4117 4118
4117 4175
4117 4178
4117 4181
4118 4129
4118 4131
4119 4120
4119 4219
4120 4122
4120 4125
4120 4159
4121 4122
4121 4208
4121 4215
4121 4224
4122 4160
4123 4189
4123 4194
4123 4195
4123 4199
4124 4128
4124 4196
4124 4197
4124 4198
4126 4172
4126 4183
4126 4235
4127 4128
4127 4217
4128 4138
4128 4159
4129 4130
4129 4182
4130 4140
4130 4145
4130 4173
4130 4185
4131 4254
4131 4255
4132 4147
4132 4154
4132 4174
4132 4180
4133 4134
4133 4135
4133 4162
4136 4137
4137 4170
4138 4159
4138 4160
4138 4184
4140 4173
4140 4283
4141 4142
4141 4246
4143 4145
4144 4145
4146 4148
4146 4153
4146 4162
4146 4256
4147 4176
4147 4261
4147 4262
4147 4263
4147 4264
4148 4149
4148 4192
4150 4151
4152 4266
4152 4283
4153 4154
4153 4162
4153 4169
4153 4177
4153 4184
4154 4250
4155 4180
4156 4159
4157 4159
4158 4159
4159 4200
4160 4184
4161 4162
4161 4220
4161 4223
4161 4232
4163 4165
4164 4165
4165 4168
4165 4172
4165 4193
4167 4187
4168 4270
4169 4201
4169 4202
4169 4222
4169 4227
4169 4228
4170 4252
4170 4253
4171 4184
4172 4173
4172 4183
4173 4179
4175 4274
4175 4275
4175 4276
4175 4277
4175 4278
4176 4279
4176 4280
4176 4281
4176 4282
4178 4271
4180 4230
4181 4182
4184 4185
4184 4267
4186 4187
4187 4188
4187 4283
4190 4236
4190 4237
4190 4238
4190 4239
4190 4240
4190 4241
4203 4209
4212 4213
4212 4214
4216 4231
4221 4230
4229 4230
4242 4245
4243 4245
4244 4245
4245 4257
4250 4287
4250 4288
4257 4258
4257 4259
4257 4260
4265 4284
4265 4285
4267 4268
4267 4269
4271 4273
4293 4308
4293 4341
4293 4353
4293 4358
4293 4376
4294 4297
4294 4312
4295 4297
4295 4343
4296 4367
4297 4373
4298 4301
4298 4302
4298 4306
4298 4313
4298 4347
4298 4351
4298 4357
4298 4364
4298 4366
4298 4368
4298 4379
4299 4306
4299 4321
4299 4323
4299 4325
4299 4349
4299 4357
4299 4361
4300 4301
4301 4313
4301 4347
4301 4364
4301 4368
4302 4308
4302 4311
4302 4312
4302 4313
4302 4327
4302 4339
4302 4347
4302 4361
4303 4352
4303 4368
4304 4308
4305 4306
4306 4323
4306 4361
4306 4366
4307 4340
4307 4342
4308 4311
4308 4331
4308 4334
4308 4341
4308 4370
4308 4377
4309 4311
4309 4327
4309 4339
4309 4365
4310 4318
4310 4350
4310 4351
4310 4367
4310 4374
4310 4379
4311 4312
4311 4313
4311 4327
4311 4331
4311 4334
4311 4339
4311 4347
4311 4361
4311 4372
4311 4375
4311 4385
4312 4323
4312 4326
4312 4343
4312 4347
4312 4373
4312 4383
4312 4384
4313 4347
4313 4364
4313 4368
4314 4383
4315 4368
4316 4317
4317 4325
4317 4382
4318 4329
4318 4340
4318 4342
4318 4347
4318 4350
4318 4358
4318 4364
4318 4367
4318 4374
4318 4379
4319 4343
4319 4362
4319 4378
4320 4370
4320 4376
4321 4357
4321 4369
4322 4323
4323 4343
4323 4373
4323 4383
4324 4325
4324 4330
4324 4382
4325 4330
4325 4337
4325 4338
4325 4346
4325 4349
4325 4354
4325 4382
4326 4375
4327 4338
4327 4339
4327 4361
4327 4371
4327 4372
4327 4384
4327 4385
4328 4329
4329 4335
4329 4336
4330 4337
4330 4338
4330 4339
4330 4349
4331 4334
4331 4338
4331 4339
4331 4365
4332 4333
4333 4334
4333 4340
4333 4342
4333 4358
4333 4370
4334 4341
4334 4370
4334 4377
4335 4340
4335 4358
4336 4340
4336 4358
4337 4338
4337 4346
4337 4363
4337 4382
4338 4339
4338 4357
4338 4361
4339 4361
4339 4362
4339 4371
4339 4378
4340 4342
4340 4350
4340 4358
4341 4347
4342 4350
4342 4358
4344 4381
4345 4346
4346 4382
4347 4364
4347 4368
4347 4374
4348 4363
4348 4365
4349 4357
4349 4361
4349 4369
4350 4351
4350 4352
4350 4358
4350 4367
4350 4368
4350 4374
4350 4379
4351 4379
4352 4368
4352 4381
4355 4357
4356 4357
4357 4361
4357 4362
4358 4367
4358 4376
4359 4361
4360 4362
4361 4362
4364 4368
4367 4368
4367 4374
4367 4379
4370 4376
4370 4380
4374 4379
4386 4387
4387 4401
4387 4402
4387 4408
4388 4390
4388 4398
4392 4396
4393 4395
4393 4409
4397 4399
4398 4401
4400 4401
4401 4402
4402 4405
4402 4408
4403 4405
4403 4407
4404 4405
4405 4407
4406 4407
4407 4408
4408 4409
4410 4424
4410 4428
4411 4414
4412 4427
4413 4414
4414 4424
4415 4428
4416 4428
4417 4420
4418 4420
4419 4421
4420 4424
4421 4422
4421 4424
4423 4424
4424 4425
4424 4429
4424 4430
4424 4431
4424 4432
4426 4427
4433 4451
4433 4519
4434 4451
4434 4579
4435 4473
4435 4492
4435 4568
4435 4592
4435 4762
4436 4605
4436 4642
4436 4732
4437 4441
4437 4556
4438 4637
4439 4440
4439 4474
4439 4571
4439 4583
4439 4612
4440 4442
4440 4618
4440 4833
4441 4525
4442 4443
4442 4594
4442 4628
4442 4644
4443 4540
4443 4798
4444 4445
4444 4451
4445 4621
4446 4447
4446 4451
4447 4621
4448 4449
4448 4556
4448 4738
4449 4467
4449 4842
4450 4506
4450 4654
4451 4462
4451 4496
4451 4567
4452 4453
4452 4499
4452 4516
4453 4554
4453 4669
4454 4495
4454 4528
4455 4475
4455 4576
4456 4466
4456 4614
4457 4458
4457 4546
4457 4550
4457 4635
4458 4509
4458 4548
4459 4476
4459 4582
4459 4626
4459 4763
4460 4562
4460 4668
4461 4519
4461 4625
4462 4733
4463 4513
4463 4572
4463 4764
4464 4465
4464 4466
4465 4640
4466 4467
4466 4730
4466 4731
4468 4469
4469 4527
4469 4583
4470 4488
4470 4555
4471 4472
4471 4566
4472 4512
4472 4626
4473 4501
4474 4508
4474 4541
4474 4602
4475 4630
4476 4592
4477 4609
4477 4668
4478 4484
4478 4573
4478 4579
4478 4662
4479 4480
4479 4547
4479 4564
4481 4551
4481 4635
4482 4483
4482 4520
4482 4580
4483 4627
4484 4657
4484 4744
4484 4748
4485 4486
4485 4563
4486 4487
4486 4558
4486 4586
4486 4665
4486 4766
4486 4767
4486 4768
4488 4520
4488 4586
4488 4734
4489 4511
4489 4620
4490 4545
4490 4625
4491 4652
4491 4725
4492 4769
4492 4770
4493 4494
4494 4511
4494 4642
4495 4733
4496 4653
4497 4508
4497 4577
4497 4616
4498 4562
4498 4617
4498 4792
4499 4513
4500 4501
4500 4507
4500 4584
4500 4639
4500 4688
4502 4597
4503 4533
4503 4652
4503 4827
4503 4832
4504 4563
4504 4737
4504 4771
4504 4772
4504 4773
4505 4729
4505 4774
4505 4775
4506 4554
4506 4755
4507 4617
4507 4782
4508 4641
4508 4765
4509 4628
4510 4545
4512 4666
4513 4572
4514 4515
4514 4604
4515 4542
4515 4614
4516 4590
4517 4550
4517 4552
4518 4593
4518 4618
4518 4685
4519 4534
4520 4632
4520 4667
4521 4545
4521 4558
4522 4614
4522 4636
4523 4527
4523 4609
4524 4666
4526 4588
4526 4643
4527 4777
4528 4578
4528 4588
4528 4645
4529 4650
4530 4531
4530 4568
4530 4779
4530 4780
4530 4781
4531 4568
4531 4606
4532 4533
4532 4729
4533 4633
4534 4645
4535 4603
4535 4617
4536 4537
4536 4580
4536 4587
4536 4727
4537 4594
4538 4539
4539 4540
4539 4618
4540 4560
4540 4561
4540 4622
4541 4786
4543 4587
4543 4627
4544 4688
4545 4564
4547 4548
4547 4625
4549 4588
4549 4589
4551 4553
4551 4555
4552 4555
4554 4660
4554 4754
4556 4623
4557 4631
4557 4689
4558 4601
4559 4577
4565 4786
4566 4590
4567 4620
4568 4577
4568 4607
4568 4786
4570 4571
4571 4585
4572 4669
4573 4574
4573 4596
4574 4610
4574 4621
4574 4656
4575 4652
4575 4739
4576 4602
4581 4609
4581 4620
4582 4649
4582 4757
4585 4591
4585 4603
4586 4742
4587 4599
4592 4752
4593 4615
4593 4699
4594 4628
4595 4619
4596 4638
4598 4709
4599 4630
4600 4649
4603 4608
4605 4655
4606 4607
4606 4787
4607 4611
4609 4610
4610 4618
4611 4634
4612 4641
4613 4640
4615 4705
4615 4716
4615 4719
4617 4618
4617 4689
4617 4792
4619 4620
4621 4622
4623 4653
4624 4626
4624 4666
4626 4654
4627 4628
4629 4630
4633 4652
4633 4745
4636 4655
4636 4793
4637 4640
4638 4642
4639 4789
4641 4765
4643 4644
4643 4650
4646 4792
4647 4737
4647 4791
4648 4649
4651 4652
4651 4737
4655 4656
4655 4657
4657 4747
4658 4660
4659 4661
4660 4661
4661 4893
4663 4665
4663 4784
4664 4665
4669 4759
4670 4677
4670 4712
4671 4680
4671 4711
4672 4682
4672 4685
4673 4679
4673 4682
4674 4694
4674 4695
4674 4699
4674 4712
4674 4718
4675 4694
4675 4695
4676 4680
4676 4690
4677 4701
4678 4693
4678 4694
4679 4698
4681 4693
4681 4717
4683 4686
4683 4694
4684 4697
4684 4703
4685 4698
4686 4702
4687 4705
4687 4717
4687 4721
4688 4689
4690 4701
4691 4693
4691 4720
4692 4715
4692 4722
4692 4750
4693 4702
4693 4740
4693 4741
4694 4714
4696 4714
4696 4717
4697 4704
4699 4706
4699 4711
4699 4723
4700 4704
4700 4710
4703 4705
4705 4708
4706 4713
4707 4708
4707 4713
4710 4717
4715 4720
4715 4750
4716 4717
4719 4720
4721 4724
4721 4778
4726 4727
4727 4743
4728 4734
4733 4735
4735 4736
4745 4746
4746 4790
4748 4793
4749 4750
4751 4752
4753 4760
4754 4758
4756 4757
4758 4759
4758 4761
4759 4760
4764 4788
4776 4789
4782 4783
4785 4786
4794 4832
4794 4850
4794 4863
4795 4832
4795 4840
4796 4797
4796 4811
4797 4865
4798 4803
4798 4807
4798 4855
4799 4862
4799 4864
4800 4813
4800 4882
4800 4889
4801 4802
4802 4803
4802 4815
4802 4850
4802 4863
4804 4847
4804 4856
4804 4870
4805 4869
4805 4870
4806 4807
4806 4808
4806 4809
4806 4833
4807 4810
4807 4853
4812 4814
4813 4814
4813 4844
4814 4839
4814 4849
4814 4866
4816 4874
4816 4875
4816 4888
4817 4821
4817 4858
4818 4826
4818 4848
4819 4820
4820 4863
4822 4825
4822 4837
4823 4825
4824 4826
4825 4826
4827 4833
4828 4829
4828 4844
4829 4843
4830 4845
4830 4853
4831 4889
4832 4833
4833 4834
4833 4835
4833 4891
4836 4846
4836 4879
4837 4859
4838 4839
4838 4856
4838 4871
4838 4883
4839 4857
4840 4850
4840 4851
4841 4842
4842 4849
4843 4851
4844 4845
4844 4847
4844 4880
4844 4886
4844 4890
4845 4868
4846 4866
4846 4881
4851 4852
4852 4853
4852 4854
4853 4855
4854 4855
4854 4866
4857 4859
4858 4859
4859 4860
4861 4891
4862 4892
4864 4865
4864 4892
4865 4891
4867 4868
4867 4873
4867 4875
4867 4887
4869 4871
4872 4873
4872 4874
4874 4885
4876 4880
4876 4890
4877 4887
4878 4889
4879 4884
4883 4888
4884 4890
4893 4894
4894 4895
4895 4904
4896 4897
4896 4903
4898 4900
4898 4901
4899 4900
4899 4905
4901 4903
4902 4904
4905 4906
