%%MatrixMarket matrix coordinate pattern symmetric
911 911 1737
1 2
1 3
1 164
1 166
1 167
1 168
1 169
1 170
1 171
1 187
1 191
1 193
1 194
1 195
1 196
1 197
1 198
1 214
3 4
3 5
3 6
3 7
3 8
3 9
3 10
3 11
3 12
3 13
3 14
3 15
3 16
3 17
3 18
3 19
3 20
3 21
4 5
4 6
4 7
4 8
4 9
4 10
4 11
4 12
4 13
4 14
4 15
4 16
4 17
4 18
4 19
4 20
4 21
4 657
4 658
5 6
5 7
5 8
5 9
5 10
5 11
5 12
5 13
5 14
5 15
5 16
5 17
5 18
5 19
5 20
5 21
5 193
6 7
6 8
6 9
6 10
6 11
6 12
6 13
6 14
6 15
6 16
6 17
6 18
6 19
6 20
6 21
7 8
7 9
7 10
7 11
7 12
7 13
7 14
7 15
7 16
7 17
7 18
7 19
7 20
7 21
7 166
8 9
8 10
8 11
8 12
8 13
8 14
8 15
8 16
8 17
8 18
8 19
8 20
8 21
8 605
8 607
8 608
8 609
8 610
8 611
8 613
8 618
8 630
9 10
9 11
9 12
9 13
9 14
9 15
9 16
9 17
9 18
9 19
9 20
9 21
9 665
9 666
9 667
10 11
10 12
10 13
10 14
10 15
10 16
10 17
10 18
10 19
10 20
10 21
10 607
11 12
11 13
11 14
11 15
11 16
11 17
11 18
11 19
11 20
11 21
11 576
12 13
12 14
12 15
12 16
12 17
12 18
12 19
12 20
12 21
12 579
13 14
13 15
13 16
13 17
13 18
13 19
13 20
13 21
13 547
13 555
14 15
14 16
14 17
14 18
14 19
14 20
14 21
14 550
15 16
15 17
15 18
15 19
15 20
15 21
15 398
16 17
16 18
16 19
16 20
16 21
16 637
16 639
16 640
16 641
16 642
16 644
17 18
17 19
17 20
17 21
17 401
18 19
18 20
18 21
18 427
19 20
19 21
19 430
20 21
20 518
21 521
22 23
22 24
24 25
24 27
24 29
24 30
24 31
25 26
27 28
29 30
30 31
31 32
32 33
33 91
33 103
33 115
33 127
33 139
33 151
33 163
33 668
33 669
34 35
34 36
36 37
36 39
36 41
36 42
36 43
37 38
39 40
41 42
42 43
43 44
44 45
45 68
45 670
45 671
46 47
46 48
48 49
48 51
48 53
48 54
48 55
49 50
51 52
53 54
54 55
55 56
56 57
57 79
57 672
57 673
58 59
58 60
60 61
60 63
60 65
60 66
60 67
61 62
63 64
65 66
66 67
67 68
69 70
69 71
71 72
71 74
71 76
71 77
71 78
72 73
74 75
76 77
77 78
78 79
80 81
80 82
82 83
82 85
82 87
82 88
82 89
83 84
85 86
87 88
88 89
89 90
90 91
91 103
91 115
91 127
91 139
91 151
91 163
91 668
91 669
92 93
92 94
94 95
94 97
94 99
94 100
94 101
95 96
97 98
99 100
100 101
101 102
102 103
103 115
103 127
103 139
103 151
103 163
103 668
103 669
104 105
104 106
106 107
106 109
106 111
106 112
106 113
107 108
109 110
111 112
112 113
113 114
114 115
115 127
115 139
115 151
115 163
115 668
115 669
116 117
116 118
118 119
118 121
118 123
118 124
118 125
119 120
121 122
123 124
124 125
125 126
126 127
127 139
127 151
127 163
127 668
127 669
128 129
128 130
130 131
130 133
130 135
130 136
130 137
131 132
133 134
135 136
136 137
137 138
138 139
139 151
139 163
139 668
139 669
140 141
140 142
142 143
142 145
142 147
142 148
142 149
143 144
145 146
147 148
148 149
149 150
150 151
151 163
151 668
151 669
152 153
152 154
154 155
154 157
154 159
154 160
154 161
155 156
157 158
159 160
160 161
161 162
162 163
163 668
163 669
164 165
166 167
166 171
166 173
166 175
166 188
168 175
169 170
170 172
170 176
170 178
170 179
170 180
170 182
170 189
172 179
172 181
172 183
172 184
172 185
172 190
173 174
175 202
175 469
175 500
175 530
175 634
176 177
180 181
182 183
185 186
187 188
189 190
191 192
193 194
193 198
193 200
193 202
193 215
195 202
196 197
197 199
197 203
197 205
197 206
197 207
197 209
197 216
199 206
199 208
199 210
199 211
199 212
199 217
200 201
202 469
202 500
202 530
202 634
203 204
207 208
209 210
212 213
214 215
216 217
218 219
218 221
218 222
218 223
218 224
218 225
218 227
218 232
218 244
219 220
221 222
221 226
221 227
221 229
221 231
221 245
223 231
224 225
225 228
225 233
225 235
225 236
225 237
225 239
225 246
226 232
227 257
227 287
227 317
227 347
227 377
227 659
227 660
228 236
228 238
228 240
228 241
228 242
228 247
229 230
231 261
231 291
231 321
231 351
231 381
231 636
233 234
237 238
239 240
242 243
244 245
246 247
248 249
248 251
248 252
248 253
248 254
248 255
248 257
248 262
248 274
249 250
251 252
251 256
251 257
251 259
251 261
251 275
253 261
254 255
255 258
255 263
255 265
255 266
255 267
255 269
255 276
256 262
257 287
257 317
257 347
257 377
257 659
257 660
258 266
258 268
258 270
258 271
258 272
258 277
259 260
261 291
261 321
261 351
261 381
261 636
263 264
267 268
269 270
272 273
274 275
276 277
278 279
278 281
278 282
278 283
278 284
278 285
278 287
278 292
278 304
279 280
281 282
281 286
281 287
281 289
281 291
281 305
283 291
284 285
285 288
285 293
285 295
285 296
285 297
285 299
285 306
286 292
287 317
287 347
287 377
287 659
287 660
288 296
288 298
288 300
288 301
288 302
288 307
289 290
291 321
291 351
291 381
291 636
293 294
297 298
299 300
302 303
304 305
306 307
308 309
308 311
308 312
308 313
308 314
308 315
308 317
308 322
308 334
309 310
311 312
311 316
311 317
311 319
311 321
311 335
313 321
314 315
315 318
315 323
315 325
315 326
315 327
315 329
315 336
316 322
317 347
317 377
317 659
317 660
318 326
318 328
318 330
318 331
318 332
318 337
319 320
321 351
321 381
321 636
323 324
327 328
329 330
332 333
334 335
336 337
338 339
338 341
338 342
338 343
338 344
338 345
338 347
338 352
338 364
339 340
341 342
341 346
341 347
341 349
341 351
341 365
343 351
344 345
345 348
345 353
345 355
345 356
345 357
345 359
345 366
346 352
347 377
347 659
347 660
348 356
348 358
348 360
348 361
348 362
348 367
349 350
351 381
351 636
353 354
357 358
359 360
362 363
364 365
366 367
368 369
368 371
368 372
368 373
368 374
368 375
368 377
368 382
368 394
369 370
371 372
371 376
371 377
371 379
371 381
371 395
373 381
374 375
375 378
375 383
375 385
375 386
375 387
375 389
375 396
376 382
377 659
377 660
378 386
378 388
378 390
378 391
378 392
378 397
379 380
381 636
383 384
387 388
389 390
392 393
394 395
396 397
398 399
398 401
398 402
398 403
398 404
398 405
398 411
398 423
399 400
401 402
401 406
401 408
401 410
401 424
403 410
404 405
405 407
405 412
405 414
405 415
405 416
405 418
405 425
406 411
407 415
407 417
407 419
407 420
407 421
407 426
408 409
410 439
410 560
410 588
410 617
410 635
412 413
416 417
418 419
421 422
423 424
425 426
427 428
427 430
427 431
427 432
427 433
427 434
427 440
427 452
428 429
430 431
430 435
430 437
430 439
430 453
432 439
433 434
434 436
434 441
434 443
434 444
434 445
434 447
434 454
435 440
436 444
436 446
436 448
436 449
436 450
436 455
437 438
439 560
439 588
439 617
439 635
441 442
445 446
447 448
450 451
452 453
454 455
456 457
456 459
456 460
456 461
456 462
456 463
456 465
456 470
456 483
457 458
459 460
459 464
459 467
459 469
459 479
459 484
461 469
462 463
463 466
463 471
463 473
463 474
463 475
463 477
463 485
464 470
466 474
466 476
466 478
466 480
466 481
466 486
467 468
469 500
469 530
469 634
471 472
475 476
477 478
481 482
483 484
485 486
487 488
487 490
487 491
487 492
487 493
487 494
487 496
487 501
487 514
488 489
490 491
490 495
490 498
490 500
490 510
490 515
492 500
493 494
494 497
494 502
494 504
494 505
494 506
494 508
494 516
495 501
497 505
497 507
497 509
497 511
497 512
497 517
498 499
500 530
500 634
502 503
506 507
508 509
512 513
514 515
516 517
518 519
518 521
518 522
518 523
518 524
518 525
518 531
518 543
519 520
521 522
521 526
521 528
521 530
521 544
523 530
524 525
525 527
525 532
525 534
525 535
525 536
525 538
525 545
526 531
527 535
527 537
527 539
527 540
527 541
527 546
528 529
530 634
532 533
536 537
538 539
541 542
543 544
545 546
547 548
547 550
547 551
547 552
547 553
547 554
547 556
547 572
548 549
550 551
550 555
550 558
550 560
550 573
552 560
553 554
554 557
554 561
554 563
554 564
554 565
554 567
554 574
557 564
557 566
557 568
557 569
557 570
557 575
558 559
560 588
560 617
560 635
561 562
565 566
567 568
570 571
572 573
574 575
576 577
576 579
576 580
576 581
576 582
576 583
576 589
576 601
577 578
579 580
579 584
579 586
579 588
579 602
581 588
582 583
583 585
583 590
583 592
583 593
583 594
583 596
583 603
584 589
585 593
585 595
585 597
585 598
585 599
585 604
586 587
588 617
588 635
590 591
594 595
596 597
599 600
601 602
603 604
605 606
607 608
607 612
607 615
607 617
607 631
609 617
610 611
611 614
611 619
611 621
611 622
611 623
611 625
611 632
612 618
614 622
614 624
614 626
614 627
614 628
614 633
615 616
617 635
619 620
623 624
625 626
628 629
630 631
632 633
637 638
637 639
637 640
637 641
637 642
637 643
637 644
637 649
638 639
638 640
638 641
638 642
638 643
638 644
638 661
638 662
639 640
639 641
639 642
639 643
639 644
639 651
640 641
640 642
640 643
640 644
640 645
641 642
641 643
641 644
641 647
642 643
642 644
642 653
643 644
643 663
643 664
644 655
645 646
647 648
649 650
651 652
653 654
655 656
657 658
657 724
657 725
659 660
659 726
659 727
659 728
659 729
661 662
662 706
662 707
663 664
664 668
664 670
664 672
664 674
664 675
664 676
664 680
664 681
664 682
664 683
664 685
664 690
664 702
665 666
665 667
665 717
665 718
665 719
665 722
665 723
665 774
665 807
665 808
666 667
666 717
666 718
666 719
668 669
668 670
668 672
668 674
668 675
668 676
668 680
668 681
668 682
668 683
668 685
668 690
668 702
670 671
670 672
670 674
670 675
670 676
670 680
670 681
670 682
670 683
670 685
670 690
670 702
672 673
672 674
672 675
672 676
672 680
672 681
672 682
672 683
672 685
672 690
672 702
674 675
674 676
674 678
674 680
674 681
674 682
674 683
674 685
674 690
674 702
675 676
675 680
675 681
675 682
675 683
675 685
675 690
675 702
676 677
676 680
676 681
676 682
676 683
676 685
676 690
676 702
679 682
680 681
680 682
680 683
680 685
680 688
680 690
680 702
681 682
681 683
681 685
681 690
681 702
681 841
681 911
682 683
682 685
682 690
682 702
683 684
683 685
683 689
683 690
683 691
683 702
684 689
684 691
684 692
684 693
685 686
685 690
685 702
686 687
687 688
687 690
689 691
689 696
689 697
690 702
691 700
692 694
693 695
696 698
697 699
700 701
702 703
703 704
704 705
706 707
706 711
707 714
708 709
708 710
708 713
709 710
710 716
711 712
711 713
712 713
714 715
714 716
714 720
714 721
714 773
715 716
716 720
716 721
716 773
717 718
717 719
717 720
717 746
718 719
718 722
718 746
719 723
720 721
721 746
722 723
724 725
724 747
725 751
726 727
726 728
726 729
726 755
727 728
727 729
727 759
728 729
728 762
729 765
730 731
730 732
730 733
730 734
730 735
730 736
730 737
730 756
730 757
731 732
731 733
731 734
731 735
731 736
731 737
731 740
731 742
731 743
731 744
731 745
731 771
731 772
732 733
732 734
732 735
732 736
732 737
732 760
732 761
733 734
733 735
733 736
733 737
733 741
734 735
734 736
734 737
734 763
734 764
735 736
735 737
735 744
736 737
736 766
736 767
737 745
738 739
738 740
738 741
738 750
739 740
739 741
739 769
739 770
740 741
742 743
742 744
742 745
742 754
743 744
743 745
743 771
743 772
744 745
747 749
748 749
748 750
749 750
751 753
752 753
752 754
753 754
755 757
755 758
756 757
757 758
759 761
760 761
762 764
763 764
765 767
765 768
766 767
767 768
769 770
769 771
769 828
769 829
769 830
769 831
769 832
769 833
769 834
769 835
769 837
769 838
769 839
769 840
769 841
769 842
769 843
769 859
771 772
771 828
771 829
771 830
771 831
771 832
771 833
771 834
771 835
771 837
771 838
771 839
771 840
771 841
771 842
771 843
771 859
774 775
774 807
774 808
775 776
776 777
776 810
777 778
777 810
777 811
778 779
778 811
779 780
780 781
780 813
781 782
781 813
782 783
783 784
784 785
784 814
785 786
785 814
786 787
787 788
787 816
788 789
788 816
788 817
789 790
789 817
790 791
791 792
791 819
792 793
792 819
792 820
793 794
793 820
794 795
795 796
795 822
796 797
796 822
797 798
797 823
798 799
798 823
799 800
800 801
800 825
801 802
801 825
802 803
803 804
804 805
804 826
805 806
805 826
806 827
807 808
808 809
809 810
811 812
812 813
814 815
815 816
817 818
818 819
820 821
821 822
823 824
824 825
826 827
828 829
828 830
828 831
828 832
828 833
828 834
828 835
828 837
828 838
828 839
828 840
828 841
828 842
828 843
828 859
828 860
828 863
828 867
829 830
829 831
829 832
829 833
829 834
829 835
829 837
829 838
829 839
829 840
829 841
829 842
829 843
829 859
830 831
830 832
830 833
830 834
830 835
830 837
830 838
830 839
830 840
830 841
830 842
830 843
830 859
830 860
830 865
830 866
831 832
831 833
831 834
831 835
831 837
831 838
831 839
831 840
831 841
831 842
831 843
831 859
831 883
831 884
831 885
832 833
832 834
832 835
832 837
832 838
832 839
832 840
832 841
832 842
832 843
832 859
832 881
832 882
833 834
833 835
833 837
833 838
833 839
833 840
833 841
833 842
833 843
833 859
833 886
833 887
834 835
834 837
834 838
834 839
834 840
834 841
834 842
834 843
834 859
834 888
834 900
835 836
835 837
835 838
835 839
835 840
835 841
835 842
835 843
835 859
836 847
837 838
837 839
837 840
837 841
837 842
837 843
837 853
837 854
837 859
837 860
837 861
837 865
837 868
838 839
838 840
838 841
838 842
838 843
838 859
838 910
839 840
839 841
839 842
839 843
839 859
839 909
840 841
840 842
840 843
840 859
840 889
840 890
840 891
840 892
841 842
841 843
841 859
841 911
842 843
842 846
842 859
843 859
843 901
844 845
845 846
847 848
847 849
847 850
848 849
848 850
848 853
849 850
850 851
851 852
853 854
855 856
855 869
856 857
856 909
857 858
857 901
858 859
858 902
860 862
864 867
864 868
869 870
870 871
870 872
870 873
870 874
870 876
870 877
870 879
873 875
874 875
877 878
878 879
881 882
882 884
883 884
883 885
883 897
883 898
884 885
884 891
884 899
886 887
886 894
886 895
888 900
889 890
889 891
889 892
889 893
889 894
890 891
890 892
890 896
890 897
891 892
893 894
894 895
896 897
897 898
900 903
902 903
903 904
904 905
905 906
905 907
907 908
909 910
