%%MatrixMarket matrix coordinate pattern symmetric
2641 2641 3302
1 7
2 17
3 4
3 12
5 10
6 9
7 8
7 15
9 10
9 13
10 11
11 12
11 44
12 21
13 19
14 15
15 16
16 17
16 35
17 32
18 19
19 20
20 23
20 52
21 22
21 24
22 40
23 45
24 32
25 26
26 27
26 29
27 30
27 31
28 29
28 36
29 30
30 37
31 38
32 35
32 42
33 34
33 35
33 41
35 43
36 39
37 39
38 39
38 45
39 48
40 72
41 47
42 53
43 55
44 57
45 50
46 47
47 61
48 49
48 51
49 86
50 51
50 65
51 121
52 129
53 54
53 71
54 55
55 56
55 60
56 63
57 58
57 70
58 82
59 67
60 62
60 63
61 63
61 64
62 66
62 68
63 69
65 120
65 125
66 79
67 88
67 98
68 90
69 93
70 81
71 75
72 74
73 182
74 76
75 79
76 77
77 78
77 83
78 81
79 83
80 81
80 82
81 89
82 95
83 84
83 85
84 96
85 94
86 88
87 147
88 109
89 91
90 92
90 93
90 158
91 96
91 99
92 94
93 103
94 96
94 101
95 131
96 100
97 102
98 119
99 142
100 153
101 124
102 116
102 147
103 104
104 105
104 106
104 107
105 115
107 108
108 110
108 111
109 136
109 137
110 113
110 114
112 114
113 115
114 117
115 156
117 168
118 119
118 155
118 191
119 154
120 123
121 122
122 141
123 126
124 143
124 150
125 130
125 140
126 130
126 144
127 129
127 133
127 188
128 129
128 132
130 146
131 133
132 140
133 216
134 135
134 136
135 141
136 137
136 219
137 138
138 139
138 199
139 164
140 145
141 151
142 152
143 160
144 148
145 159
146 271
147 183
148 149
148 197
149 151
149 198
150 153
150 178
151 266
152 153
152 165
153 172
154 190
155 164
155 191
156 158
156 162
157 187
157 252
158 163
159 188
160 161
160 169
161 163
162 163
162 167
163 166
164 194
165 170
166 167
166 174
167 175
168 171
168 175
168 195
169 173
169 180
170 193
172 189
173 176
174 180
175 185
176 177
177 179
178 181
179 181
180 186
181 189
181 202
182 184
183 184
184 200
185 195
186 202
186 223
187 200
188 196
189 210
189 224
190 252
190 333
191 194
191 206
192 193
192 209
193 213
194 199
195 225
196 220
196 227
197 198
197 273
198 287
199 201
200 242
201 203
201 204
202 222
203 208
204 207
205 206
205 231
205 265
206 265
207 208
207 214
208 217
209 211
209 213
210 212
211 216
212 213
213 280
214 215
214 217
215 238
216 218
217 221
218 226
219 234
220 233
221 230
221 235
222 275
223 281
224 274
225 268
226 228
226 232
227 229
228 229
229 232
229 233
230 231
231 243
232 246
233 245
234 236
234 237
235 244
236 237
236 240
237 239
238 239
238 241
240 251
241 253
242 269
243 244
244 260
245 247
245 248
246 249
247 249
248 250
249 250
249 254
250 255
251 256
251 257
252 269
253 259
254 294
255 264
256 257
256 261
257 258
258 262
258 285
259 260
259 261
260 345
262 266
263 264
263 270
263 317
265 320
266 272
267 268
268 283
269 333
270 278
270 328
271 273
271 278
272 292
272 324
273 279
274 276
274 277
274 304
275 277
275 282
276 280
279 286
279 288
280 291
281 282
281 283
281 302
282 305
283 284
284 301
285 349
286 288
286 290
287 293
288 289
289 306
290 293
291 300
292 296
293 295
294 298
294 300
295 296
295 299
296 297
297 324
298 316
298 336
299 330
300 318
301 302
301 315
302 305
302 313
303 304
303 305
304 309
304 312
305 314
306 326
307 308
307 319
308 311
309 310
310 311
312 321
313 359
314 357
315 354
316 317
317 322
318 319
318 350
320 371
321 323
321 399
322 327
322 334
324 331
324 332
325 326
325 329
325 414
326 344
327 328
327 398
328 329
329 380
330 341
331 338
332 335
333 347
334 336
335 337
335 338
336 339
337 349
338 340
339 350
339 374
340 341
340 469
341 344
341 468
342 343
342 353
345 346
345 375
346 390
347 355
349 352
350 351
350 373
351 353
352 390
352 431
353 403
354 363
355 394
356 362
357 358
357 359
357 521
358 401
359 360
359 491
360 361
360 379
361 363
362 364
362 366
363 364
364 366
365 366
366 367
367 368
367 378
369 370
369 375
370 371
371 372
371 417
372 417
373 374
373 409
374 412
375 376
375 377
376 391
377 392
378 384
379 388
380 398
380 463
381 382
382 384
383 385
383 386
384 386
384 395
385 388
387 390
387 393
387 419
388 389
389 493
390 433
391 392
391 396
392 393
394 408
395 400
396 406
397 406
398 405
399 402
400 411
401 404
402 403
402 404
404 407
404 425
405 415
405 463
406 410
407 464
408 421
409 441
410 418
410 432
411 416
411 520
412 413
413 415
413 594
414 457
417 418
418 422
419 423
420 421
420 424
421 426
422 424
423 435
423 455
424 427
425 462
426 427
427 428
428 429
429 434
430 438
431 494
432 434
433 461
434 436
434 437
435 466
436 439
437 445
438 440
439 440
440 442
441 444
441 534
442 443
444 462
445 446
446 447
446 448
447 452
448 458
449 457
449 504
450 451
450 454
451 452
451 453
453 503
454 456
455 456
456 459
457 547
459 460
460 467
461 477
461 487
462 465
463 513
464 523
465 524
466 470
467 470
468 469
468 536
469 535
470 471
470 473
471 474
472 475
472 476
473 484
474 476
475 477
476 478
477 479
478 480
479 482
480 481
481 482
482 483
482 485
483 488
484 499
485 486
486 492
487 489
488 489
489 490
490 497
491 496
492 506
493 496
494 502
494 529
494 558
495 498
495 502
496 500
496 501
497 505
498 506
499 503
500 507
501 516
502 509
503 526
504 556
505 510
506 511
507 519
508 524
509 510
510 511
510 515
512 522
512 526
513 588
514 521
514 523
515 557
516 517
516 520
516 531
517 519
518 519
518 521
519 528
520 533
523 539
524 538
525 526
527 575
528 532
529 537
530 534
531 623
532 541
533 616
534 566
535 536
535 537
536 548
537 564
538 545
538 551
539 540
539 542
540 545
540 595
541 544
542 543
543 544
544 546
545 573
546 552
547 553
548 549
548 550
549 593
549 603
550 555
551 563
551 576
552 592
553 554
553 555
554 578
555 591
556 577
557 561
558 559
558 565
559 560
559 571
560 561
561 562
562 568
563 566
564 565
564 638
566 569
566 580
567 569
567 576
568 570
569 579
570 571
570 572
572 574
573 609
573 625
574 648
575 652
576 605
577 581
578 581
579 607
580 583
581 582
581 590
582 585
582 586
583 584
584 601
584 607
585 588
586 587
586 608
587 590
588 597
589 590
589 591
590 658
591 613
592 599
593 603
593 610
594 596
594 597
595 600
596 598
598 601
598 678
599 600
599 604
600 602
602 611
603 635
604 612
605 606
605 609
605 659
606 607
607 734
608 657
609 625
610 613
611 621
612 614
613 637
614 619
615 616
616 622
617 619
617 621
618 619
618 624
619 620
620 627
621 628
622 623
622 632
623 624
625 626
625 672
626 628
627 629
628 630
628 636
629 633
630 634
631 632
632 647
633 634
634 642
635 640
636 641
637 669
638 639
638 643
638 656
639 651
640 643
640 660
641 644
642 644
644 645
644 646
645 671
646 670
647 684
647 689
648 649
649 650
649 652
649 653
650 651
651 655
653 654
654 661
655 662
656 667
657 682
658 692
659 664
659 673
660 666
660 669
661 663
662 663
663 665
665 695
666 667
666 668
667 759
668 707
669 681
670 690
671 686
672 674
673 754
674 675
675 676
676 685
677 679
678 679
678 705
679 682
679 706
680 681
680 692
681 725
682 703
683 684
684 689
684 694
685 688
686 688
687 689
687 690
688 691
689 693
690 715
691 697
692 723
693 745
694 763
695 701
696 700
697 704
698 699
698 735
699 701
700 701
701 702
702 727
703 708
703 711
704 710
705 706
705 718
706 711
707 713
708 716
709 710
709 717
710 714
711 712
711 719
712 716
713 722
714 764
715 717
715 755
716 720
718 728
719 733
720 721
721 726
722 784
723 724
723 741
724 725
725 794
726 737
727 730
728 729
728 733
729 732
730 735
730 739
731 732
731 734
732 753
733 736
733 742
734 756
735 747
736 737
737 738
737 740
738 741
739 800
740 743
741 785
742 746
743 744
744 748
745 749
746 748
747 752
747 790
748 750
749 751
750 786
751 787
752 759
753 795
754 757
755 780
755 781
756 760
756 796
757 758
757 766
758 761
759 768
760 761
761 775
762 763
763 789
764 770
765 767
765 779
766 767
766 769
768 782
768 821
769 771
770 772
771 772
772 773
772 774
773 778
774 811
775 777
776 777
776 783
777 778
779 780
780 781
780 788
781 787
781 807
782 784
782 820
783 798
784 793
785 815
786 812
787 791
787 808
788 806
789 792
789 861
790 809
791 792
792 880
793 805
794 805
794 814
795 797
796 813
797 813
798 826
799 802
800 803
801 803
801 810
802 803
803 804
804 823
805 814
805 824
806 838
807 854
808 860
809 810
809 822
811 838
812 818
812 843
813 825
814 824
814 828
815 816
815 839
816 817
816 886
817 887
818 819
819 841
819 844
820 873
821 833
822 833
823 940
824 864
825 827
826 827
827 829
827 830
828 839
829 834
830 831
831 832
831 961
832 842
833 875
834 835
835 836
835 837
836 870
837 970
838 840
838 842
839 868
839 879
840 842
840 850
841 848
842 947
843 845
844 853
844 908
845 846
845 847
846 906
847 859
848 852
848 863
849 850
849 851
850 974
851 854
852 853
853 867
853 910
854 855
854 866
855 902
856 857
857 858
858 861
859 862
859 872
860 866
861 876
862 863
863 865
864 890
864 894
865 877
865 913
866 878
867 913
868 869
868 879
868 920
869 891
870 882
871 873
871 894
872 874
873 896
873 967
874 877
875 881
875 885
876 900
878 883
878 892
879 886
880 900
881 888
882 884
882 903
883 899
883 902
884 908
885 898
886 889
887 893
888 897
889 909
890 891
890 894
890 904
891 904
892 901
894 905
895 897
895 938
896 898
897 898
897 930
898 932
899 911
900 901
900 1048
902 907
902 914
903 917
904 905
904 921
905 923
906 912
907 911
908 910
908 919
909 912
910 926
911 972
912 915
912 916
913 929
914 958
915 918
916 922
917 924
918 929
919 924
920 978
921 928
922 933
923 928
924 925
924 927
925 960
926 929
927 936
928 987
929 931
930 932
931 934
931 935
931 953
932 964
933 962
934 948
935 937
936 939
937 939
938 945
939 941
939 943
940 944
941 960
942 944
942 980
943 951
944 945
944 946
946 998
947 959
948 950
949 950
949 952
950 951
950 954
952 956
953 955
954 1022
955 956
956 957
957 968
958 971
959 961
959 973
960 992
960 1013
961 969
962 963
962 978
963 966
964 965
965 983
966 975
967 982
968 975
969 984
970 984
971 1023
972 1078
973 1006
974 1023
975 976
975 977
976 1082
977 1037
978 994
979 980
980 991
981 983
981 990
982 986
982 1007
982 1008
983 989
983 1021
984 985
985 992
986 990
986 1019
987 1033
988 989
988 993
990 1015
991 1016
991 1053
992 996
992 1010
993 997
993 1005
994 1004
994 1028
995 1006
995 1024
996 1060
997 999
998 1000
999 1000
1000 1001
1000 1002
1001 1052
1002 1051
1003 1004
1003 1030
1004 1028
1005 1009
1006 1060
1006 1143
1007 1008
1007 1036
1008 1019
1008 1043
1009 1034
1010 1014
1011 1012
1011 1026
1012 1014
1013 1026
1014 1203
1015 1018
1015 1020
1016 1017
1016 1054
1018 1021
1019 1020
1019 1042
1020 1046
1021 1148
1022 1025
1022 1047
1022 1075
1023 1024
1023 1027
1024 1187
1025 1026
1027 1078
1027 1212
1028 1029
1029 1031
1030 1032
1031 1035
1031 1056
1032 1061
1033 1038
1033 1061
1034 1072
1035 1044
1036 1041
1037 1044
1038 1039
1039 1041
1040 1045
1040 1058
1042 1088
1043 1139
1044 1050
1044 1055
1045 1048
1045 1062
1046 1088
1047 1086
1048 1049
1048 1062
1049 1078
1050 1065
1051 1059
1052 1064
1053 1063
1054 1096
1055 1140
1056 1057
1056 1070
1057 1067
1059 1068
1060 1143
1061 1071
1061 1101
1062 1094
1063 1069
1064 1069
1065 1067
1066 1068
1066 1069
1067 1077
1068 1076
1069 1093
1070 1080
1070 1109
1071 1080
1072 1073
1073 1074
1073 1132
1074 1081
1075 1306
1076 1079
1077 1110
1078 1131
1079 1084
1080 1117
1081 1083
1082 1089
1082 1108
1083 1084
1084 1085
1085 1087
1086 1089
1086 1311
1087 1095
1088 1141
1089 1108
1090 1091
1090 1092
1091 1100
1092 1093
1093 1098
1094 1106
1094 1119
1095 1099
1096 1097
1096 1144
1097 1100
1097 1156
1098 1102
1098 1152
1099 1105
1100 1153
1101 1103
1102 1104
1103 1139
1104 1105
1105 1107
1106 1202
1107 1116
1108 1164
1108 1355
1109 1111
1110 1111
1111 1112
1111 1114
1112 1113
1112 1114
1113 1133
1114 1115
1115 1120
1116 1121
1117 1130
1118 1134
1118 1136
1119 1131
1120 1123
1121 1122
1122 1126
1122 1137
1123 1124
1123 1125
1124 1128
1125 1127
1126 1158
1127 1133
1127 1138
1128 1149
1129 1130
1129 1142
1130 1134
1130 1146
1131 1150
1132 1151
1133 1174
1133 1199
1134 1135
1134 1181
1135 1136
1136 1160
1137 1183
1138 1142
1139 1141
1139 1162
1140 1167
1141 1147
1142 1154
1143 1194
1144 1156
1144 1165
1145 1166
1146 1155
1147 1148
1147 1218
1148 1151
1148 1224
1149 1155
1150 1198
1150 1210
1151 1157
1151 1169
1152 1153
1152 1196
1153 1156
1153 1225
1154 1178
1154 1206
1155 1159
1155 1161
1157 1192
1158 1171
1159 1179
1160 1163
1160 1166
1161 1168
1162 1163
1163 1250
1164 1170
1165 1197
1165 1217
1166 1213
1167 1170
1168 1178
1168 1180
1169 1173
1170 1175
1170 1177
1171 1172
1172 1173
1173 1176
1174 1175
1175 1182
1176 1242
1177 1182
1177 1185
1178 1186
1178 1205
1179 1184
1180 1181
1181 1186
1181 1209
1182 1200
1183 1188
1184 1193
1185 1211
1185 1214
1186 1201
1187 1232
1188 1189
1188 1191
1188 1195
1189 1190
1190 1196
1191 1192
1192 1216
1193 1207
1194 1204
1195 1237
1196 1247
1197 1217
1197 1225
1198 1208
1199 1206
1200 1297
1201 1227
1202 1208
1202 1223
1203 1215
1203 1222
1204 1240
1204 1252
1205 1206
1205 1228
1206 1229
1207 1230
1208 1310
1209 1219
1210 1269
1211 1349
1212 1271
1213 1219
1214 1348
1215 1220
1215 1536
1216 1244
1217 1318
1218 1224
1218 1231
1218 1254
1219 1248
1220 1240
1221 1223
1222 1238
1223 1414
1224 1241
1224 1254
1225 1233
1226 1227
1226 1228
1227 1234
1228 1229
1228 1282
1229 1280
1230 1236
1231 1253
1232 1255
1232 1267
1233 1235
1233 1314
1234 1236
1235 1259
1235 1301
1236 1239
1236 1249
1237 1243
1238 1257
1238 1272
1239 1248
1240 1252
1240 1266
1241 1263
1242 1258
1243 1245
1243 1256
1244 1245
1246 1247
1246 1251
1247 1274
1248 1250
1249 1275
1250 1253
1250 1298
1251 1261
1252 1255
1252 1286
1253 1323
1254 1328
1255 1267
1256 1302
1257 1306
1258 1264
1259 1260
1260 1261
1260 1262
1262 1273
1263 1264
1264 1265
1265 1284
1266 1285
1267 1268
1267 1279
1268 1271
1269 1270
1269 1276
1269 1494
1270 1271
1270 1444
1272 1436
1273 1277
1274 1283
1275 1287
1276 1310
1277 1278
1277 1283
1278 1301
1278 1321
1279 1292
1280 1281
1280 1282
1280 1345
1281 1296
1282 1294
1282 1346
1283 1316
1284 1293
1285 1288
1286 1288
1287 1289
1287 1304
1288 1290
1288 1541
1289 1303
1290 1291
1291 1292
1292 1404
1293 1295
1293 1299
1294 1334
1295 1315
1296 1300
1296 1312
1297 1300
1298 1305
1299 1326
1300 1312
1301 1314
1301 1357
1302 1317
1303 1305
1304 1324
1305 1307
1305 1313
1306 1309
1307 1325
1308 1309
1308 1311
1309 1438
1310 1409
1311 1355
1312 1343
1312 1367
1313 1434
1314 1320
1314 1359
1316 1317
1317 1322
1318 1319
1319 1320
1319 1362
1321 1360
1322 1369
1323 1330
1324 1341
1325 1331
1326 1339
1327 1329
1327 1331
1328 1336
1329 1330
1330 1332
1330 1337
1331 1351
1332 1333
1333 1335
1334 1341
1335 1336
1336 1338
1337 1433
1338 1347
1339 1340
1339 1342
1339 1350
1340 1371
1341 1353
1342 1347
1343 1345
1344 1345
1344 1352
1345 1358
1346 1368
1348 1349
1348 1382
1349 1354
1349 1440
1350 1401
1351 1431
1352 1363
1353 1400
1354 1355
1354 1439
1356 1359
1356 1362
1357 1359
1357 1360
1357 1372
1358 1365
1359 1378
1361 1362
1362 1370
1363 1364
1364 1368
1365 1366
1366 1367
1367 1393
1368 1403
1369 1373
1370 1376
1370 1384
1371 1385
1372 1379
1373 1374
1373 1375
1374 1383
1375 1380
1376 1381
1376 1395
1377 1379
1377 1387
1378 1379
1378 1381
1380 1385
1381 1420
1382 1388
1383 1386
1384 1397
1384 1425
1385 1390
1386 1389
1387 1389
1388 1393
1388 1429
1389 1391
1389 1392
1390 1402
1391 1396
1392 1394
1393 1408
1394 1503
1395 1399
1396 1407
1397 1398
1398 1399
1398 1479
1399 1420
1400 1405
1401 1411
1402 1406
1403 1405
1404 1512
1405 1416
1405 1422
1406 1407
1406 1413
1406 1419
1408 1415
1409 1414
1409 1539
1410 1411
1410 1413
1411 1412
1412 1418
1414 1417
1415 1424
1415 1426
1416 1434
1417 1421
1417 1538
1418 1423
1418 1478
1419 1491
1420 1476
1422 1448
1423 1462
1424 1427
1425 1477
1426 1428
1426 1459
1427 1428
1427 1429
1427 1442
1429 1430
1430 1437
1430 1510
1431 1432
1431 1434
1431 1453
1433 1443
1434 1445
1435 1446
1436 1528
1437 1441
1438 1567
1439 1455
1440 1457
1441 1482
1442 1535
1443 1447
1444 1504
1445 1450
1446 1447
1447 1452
1447 1460
1448 1458
1449 1450
1449 1465
1450 1451
1450 1454
1451 1461
1452 1463
1453 1464
1454 1544
1455 1456
1455 1481
1456 1475
1457 1470
1457 1475
1458 1459
1458 1461
1458 1467
1460 1468
1462 1469
1463 1464
1464 1465
1464 1466
1466 1529
1467 1548
1468 1474
1469 1471
1469 1472
1469 1484
1470 1482
1470 1572
1471 1490
1472 1473
1473 1474
1474 1480
1475 1576
1476 1479
1476 1497
1477 1486
1478 1488
1480 1587
1481 1570
1482 1492
1483 1485
1484 1581
1485 1486
1486 1487
1486 1489
1487 1515
1488 1490
1488 1493
1489 1579
1491 1495
1492 1523
1492 1573
1493 1508
1494 1532
1495 1498
1495 1502
1496 1498
1496 1500
1497 1514
1498 1506
1499 1500
1499 1501
1499 1509
1501 1522
1502 1505
1503 1517
1504 1511
1504 1532
1505 1507
1506 1524
1507 1508
1507 1521
1509 1525
1510 1523
1510 1533
1510 1561
1511 1519
1512 1519
1512 1543
1512 1569
1513 1514
1513 1516
1514 1515
1514 1527
1516 1518
1517 1518
1517 1520
1517 1526
1519 1569
1520 1522
1521 1562
1524 1525
1524 1560
1524 1564
1525 1605
1526 1547
1527 1558
1528 1531
1529 1544
1529 1615
1530 1531
1530 1536
1531 1588
1532 1534
1533 1535
1534 1545
1534 1549
1535 1554
1536 1540
1536 1589
1537 1538
1538 1539
1538 1719
1539 1542
1540 1541
1541 1543
1541 1591
1542 1546
1542 1590
1544 1551
1544 1607
1545 1546
1547 1550
1548 1553
1549 1578
1550 1552
1550 1556
1551 1553
1552 1559
1553 1555
1553 1557
1554 1561
1555 1594
1556 1565
1557 1586
1558 1559
1558 1597
1560 1639
1561 1563
1562 1566
1563 1580
1564 1566
1565 1604
1566 1568
1567 1583
1568 1577
1569 1602
1569 1603
1570 1571
1570 1585
1570 1627
1571 1576
1572 1573
1572 1576
1572 1626
1573 1574
1573 1677
1574 1575
1575 1580
1576 1629
1577 1625
1578 1716
1579 1597
1579 1699
1580 1582
1580 1598
1581 1584
1581 1596
1582 1606
1583 1585
1583 1588
1583 1614
1584 1608
1584 1656
1586 1595
1587 1609
1589 1820
1590 1735
1591 1755
1592 1593
1592 1598
1593 1594
1595 1600
1595 1621
1596 1620
1596 1654
1597 1599
1597 1698
1599 1601
1600 1622
1601 1619
1601 1645
1602 1730
1603 1616
1604 1617
1605 1623
1606 1695
1607 1615
1607 1622
1607 1675
1608 1609
1609 1613
1610 1611
1610 1615
1611 1612
1611 1624
1612 1613
1614 1647
1614 1648
1615 1673
1616 1722
1617 1618
1617 1623
1618 1619
1619 1649
1620 1633
1621 1651
1622 1665
1623 1628
1623 1635
1624 1657
1625 1630
1626 1629
1626 1640
1627 1634
1627 1781
1628 1632
1629 1641
1630 1631
1630 1636
1631 1633
1632 1644
1633 1678
1634 1637
1635 1759
1636 1653
1637 1638
1638 1641
1639 1643
1640 1677
1640 1724
1641 1771
1642 1643
1642 1660
1643 1644
1643 1646
1645 1691
1646 1706
1647 1837
1648 1650
1649 1692
1650 1652
1651 1655
1652 1784
1653 1659
1654 1661
1655 1658
1655 1662
1656 1666
1657 1674
1658 1664
1659 1660
1659 1671
1659 1685
1661 1663
1661 1669
1662 1683
1663 1670
1664 1687
1665 1701
1666 1667
1666 1668
1666 1679
1667 1669
1668 1676
1670 1671
1672 1674
1672 1690
1673 1688
1674 1676
1674 1684
1675 1682
1677 1695
1678 1689
1679 1707
1680 1687
1680 1704
1681 1682
1681 1686
1682 1683
1682 1693
1684 1725
1685 1732
1686 1688
1687 1694
1688 1690
1689 1703
1691 1696
1692 1696
1693 1714
1694 1700
1694 1702
1695 1705
1696 1697
1697 1698
1698 1699
1698 1757
1699 1801
1700 1710
1701 1711
1702 1715
1703 1709
1703 1775
1704 1705
1704 1710
1705 1724
1705 1787
1706 1708
1707 1740
1708 1709
1709 1774
1710 1713
1711 1712
1712 1721
1712 1743
1713 1715
1713 1765
1714 1726
1714 1728
1715 1720
1716 1717
1716 1742
1717 1718
1717 1723
1718 1729
1719 1736
1720 1743
1721 1727
1722 1729
1723 1869
1723 1997
1724 1771
1725 1756
1726 1731
1727 1737
1727 1761
1728 1731
1729 1730
1730 1755
1731 1733
1732 1741
1733 1737
1733 1744
1734 1736
1735 1736
1735 1742
1735 1909
1736 1850
1737 1744
1738 1740
1738 1766
1739 1740
1739 1741
1740 1748
1741 1746
1742 1868
1743 1763
1744 1745
1744 1753
1745 1747
1745 1749
1746 1751
1747 1750
1747 1752
1748 1754
1749 1789
1750 1783
1751 1754
1752 1760
1752 1768
1753 1758
1753 1796
1754 1767
1754 1773
1755 1764
1756 1770
1757 1759
1758 1772
1759 1776
1760 1762
1760 1794
1761 1762
1761 1785
1762 1769
1763 1765
1764 1820
1764 1964
1765 1787
1765 1842
1766 1770
1767 1804
1768 1783
1769 1792
1770 1772
1770 1779
1771 1777
1771 1778
1773 1791
1774 1786
1775 1821
1776 1788
1777 1778
1777 1787
1777 1831
1778 1780
1779 1802
1780 1782
1780 1833
1781 1782
1781 1784
1783 1789
1783 1798
1784 1819
1785 1792
1785 1826
1786 1816
1786 1822
1787 1845
1788 1797
1788 1801
1789 1790
1790 1795
1790 1799
1791 1830
1792 1793
1792 1825
1793 1794
1794 1800
1795 1796
1796 1812
1797 1810
1798 1805
1799 1808
1800 1807
1801 1803
1802 1814
1804 1815
1805 1808
1805 1811
1806 1812
1806 1813
1806 1836
1807 1811
1807 1828
1808 1812
1809 1813
1809 1814
1810 1824
1812 1849
1814 1815
1814 1818
1815 1817
1815 1818
1816 1822
1816 1823
1817 1830
1818 1832
1819 1837
1819 1841
1820 1838
1820 2003
1821 1822
1821 1829
1822 1844
1823 1824
1824 1835
1825 1826
1825 1827
1825 1872
1826 1878
1827 1828
1828 1834
1829 1830
1830 1889
1831 1833
1831 1845
1832 1859
1833 1843
1834 1866
1835 1839
1835 1847
1836 1848
1836 1858
1837 1838
1837 1917
1839 1851
1839 1853
1840 1852
1841 1962
1842 1845
1842 1865
1843 1961
1844 1846
1844 1884
1845 1880
1846 1847
1846 1879
1848 1856
1849 1854
1849 1857
1850 1852
1850 1906
1851 1933
1852 1907
1853 1885
1854 1855
1854 1866
1855 1916
1856 1860
1857 1864
1858 1864
1859 1861
1860 1861
1861 1862
1861 1863
1862 1888
1863 1871
1864 1874
1864 1904
1865 1882
1866 1867
1866 1870
1867 1872
1868 1869
1869 1919
1870 1918
1871 1876
1872 1873
1873 1883
1873 1911
1874 1875
1875 1876
1876 1877
1877 1891
1878 1882
1878 1883
1879 1884
1879 1926
1880 1892
1881 1885
1881 1937
1882 1883
1882 1886
1883 1908
1884 1887
1884 1926
1885 1890
1886 1903
1886 1915
1887 1900
1888 1889
1888 1912
1889 1898
1890 1922
1891 1895
1892 1897
1893 1894
1893 1904
1894 1895
1895 1896
1895 1899
1896 1920
1897 1901
1898 1900
1898 1910
1899 1921
1900 1914
1901 1902
1902 1905
1903 1915
1903 1925
1904 1916
1904 1944
1905 1924
1906 1930
1907 2032
1908 1911
1908 1950
1909 2016
1910 1967
1911 1918
1911 1949
1912 1946
1913 1914
1913 1929
1914 1923
1915 1939
1916 1918
1916 1945
1917 1988
1918 1947
1919 2031
1920 1953
1921 1941
1922 1935
1923 1982
1924 1925
1924 1928
1925 1927
1926 1929
1926 1932
1927 1928
1927 1939
1928 1975
1928 1989
1929 1931
1929 1986
1930 2033
1931 1932
1931 1987
1932 1933
1932 1993
1933 1934
1933 1985
1934 1935
1935 1937
1936 1937
1936 1938
1938 1955
1939 1940
1940 1950
1940 1968
1941 1943
1942 1943
1942 1944
1943 1951
1943 1954
1944 1945
1945 1947
1945 1969
1946 1953
1947 1949
1947 1983
1948 2034
1949 1950
1950 1980
1951 1953
1952 1956
1953 1971
1954 1970
1955 1957
1955 1990
1956 1957
1956 1958
1956 1960
1957 1958
1958 1959
1959 2005
1960 2046
1961 1963
1961 2004
1962 1963
1962 1992
1963 2039
1964 1965
1964 2003
1965 1999
1966 1967
1966 1982
1966 2025
1967 1972
1968 1976
1968 1977
1969 1973
1969 1974
1970 2015
1971 1972
1971 1974
1973 1983
1973 2021
1975 1979
1975 1989
1976 1979
1977 1978
1978 1980
1980 1981
1980 2068
1981 1984
1982 1986
1982 2012
1983 1984
1985 2008
1986 1987
1986 2012
1987 1993
1987 2007
1988 1992
1988 2002
1989 1991
1989 2013
1990 2008
1991 2001
1992 2038
1993 2006
1994 1995
1994 1998
1995 1996
1996 1999
1997 1998
1998 2036
1999 2000
2000 2063
2000 2064
2001 2004
2002 2003
2003 2043
2004 2014
2005 2109
2006 2009
2007 2011
2008 2009
2008 2010
2009 2010
2009 2011
2010 2071
2011 2024
2012 2027
2013 2014
2014 2041
2015 2019
2016 2047
2017 2018
2017 2019
2018 2022
2019 2021
2019 2029
2020 2024
2020 2028
2022 2023
2023 2026
2024 2111
2025 2045
2026 2042
2027 2035
2028 2030
2029 2076
2030 2035
2031 2049
2032 2034
2032 2052
2032 2124
2033 2047
2034 2055
2035 2044
2036 2037
2036 2065
2037 2048
2038 2040
2039 2062
2040 2079
2041 2073
2042 2045
2043 2057
2044 2045
2044 2058
2046 2050
2047 2051
2048 2049
2049 2051
2049 2056
2050 2070
2050 2108
2051 2054
2051 2056
2052 2053
2053 2054
2054 2060
2056 2059
2056 2061
2057 2074
2058 2084
2059 2060
2060 2091
2061 2130
2062 2072
2062 2113
2063 2064
2063 2065
2064 2069
2065 2133
2066 2070
2067 2068
2067 2075
2068 2081
2068 2136
2069 2074
2070 2096
2070 2108
2071 2098
2071 2103
2072 2078
2073 2078
2074 2099
2075 2085
2076 2082
2077 2087
2077 2099
2078 2081
2078 2090
2079 2080
2079 2083
2080 2087
2082 2086
2083 2114
2084 2094
2085 2086
2086 2088
2086 2089
2087 2115
2088 2094
2089 2100
2090 2092
2090 2095
2091 2128
2091 2129
2092 2093
2092 2097
2093 2113
2094 2101
2095 2132
2096 2160
2096 2184
2097 2141
2098 2103
2098 2112
2098 2149
2099 2134
2099 2198
2100 2104
2101 2102
2101 2105
2102 2104
2103 2109
2104 2106
2104 2107
2105 2116
2106 2135
2107 2119
2108 2120
2108 2159
2109 2110
2110 2122
2111 2112
2112 2117
2113 2114
2113 2118
2114 2118
2115 2123
2116 2117
2117 2145
2118 2140
2118 2167
2119 2152
2120 2122
2121 2124
2122 2158
2123 2126
2123 2200
2124 2125
2125 2127
2125 2142
2126 2161
2127 2129
2128 2129
2128 2130
2128 2148
2129 2137
2130 2131
2130 2151
2131 2133
2132 2139
2133 2134
2133 2157
2135 2136
2136 2150
2136 2156
2137 2147
2138 2144
2138 2186
2139 2165
2140 2161
2141 2143
2142 2275
2143 2146
2144 2153
2144 2154
2145 2246
2146 2162
2147 2276
2148 2279
2149 2267
2150 2155
2151 2226
2152 2202
2153 2156
2154 2197
2155 2203
2157 2250
2158 2172
2159 2181
2160 2229
2161 2187
2162 2163
2162 2166
2162 2168
2163 2164
2164 2165
2165 2169
2165 2170
2166 2171
2167 2168
2168 2179
2169 2176
2169 2178
2170 2174
2170 2175
2171 2173
2171 2179
2172 2181
2172 2209
2173 2174
2174 2180
2174 2185
2175 2176
2175 2189
2176 2177
2176 2190
2177 2178
2178 2186
2179 2183
2181 2182
2181 2227
2182 2184
2183 2185
2184 2201
2185 2187
2186 2193
2187 2188
2188 2191
2189 2190
2189 2194
2190 2194
2190 2278
2191 2192
2191 2196
2192 2225
2192 2339
2193 2197
2194 2195
2195 2196
2195 2320
2197 2217
2197 2319
2198 2199
2199 2249
2200 2231
2201 2277
2202 2204
2203 2222
2204 2205
2205 2206
2205 2207
2205 2210
2206 2208
2207 2215
2208 2212
2209 2221
2210 2211
2211 2213
2212 2219
2213 2214
2213 2218
2214 2215
2215 2216
2215 2236
2216 2223
2216 2230
2217 2222
2218 2228
2219 2220
2220 2224
2221 2234
2221 2253
2222 2224
2222 2242
2223 2235
2225 2243
2226 2254
2226 2287
2227 2237
2228 2232
2229 2244
2230 2239
2231 2243
2231 2248
2232 2240
2233 2261
2234 2237
2234 2258
2235 2239
2235 2247
2236 2238
2236 2241
2237 2260
2237 2268
2238 2240
2239 2241
2239 2351
2240 2245
2242 2337
2243 2290
2244 2252
2244 2261
2245 2354
2246 2247
2246 2255
2248 2249
2249 2251
2249 2288
2250 2251
2250 2254
2250 2353
2252 2294
2253 2257
2253 2258
2253 2274
2255 2256
2255 2267
2256 2335
2257 2262
2258 2263
2258 2271
2259 2260
2259 2263
2260 2264
2261 2265
2261 2266
2262 2267
2263 2264
2264 2273
2265 2321
2266 2297
2268 2269
2268 2273
2269 2270
2270 2277
2271 2273
2271 2280
2271 2292
2272 2283
2273 2292
2274 2280
2275 2276
2276 2282
2277 2294
2277 2299
2278 2319
2279 2285
2281 2282
2281 2284
2281 2382
2282 2283
2283 2374
2284 2285
2285 2286
2286 2287
2286 2378
2287 2355
2288 2289
2289 2295
2289 2296
2290 2291
2290 2295
2291 2344
2292 2293
2292 2323
2293 2306
2295 2296
2296 2313
2296 2387
2297 2298
2297 2314
2297 2324
2298 2301
2299 2305
2300 2301
2300 2326
2301 2302
2302 2315
2303 2305
2303 2307
2304 2305
2304 2308
2305 2309
2306 2310
2307 2310
2308 2316
2309 2334
2310 2311
2310 2312
2311 2347
2312 2334
2313 2353
2314 2317
2315 2317
2316 2317
2317 2318
2318 2399
2319 2340
2320 2333
2320 2346
2321 2329
2322 2323
2323 2332
2324 2327
2325 2328
2325 2329
2326 2327
2327 2328
2327 2330
2329 2331
2330 2398
2331 2364
2332 2338
2333 2341
2333 2390
2334 2373
2335 2336
2335 2357
2335 2381
2336 2338
2337 2340
2337 2352
2337 2385
2338 2345
2339 2343
2339 2346
2340 2342
2341 2342
2342 2388
2343 2344
2344 2393
2345 2348
2346 2391
2347 2348
2348 2349
2348 2350
2349 2403
2350 2369
2351 2356
2351 2360
2352 2358
2353 2362
2354 2359
2355 2363
2355 2392
2356 2357
2356 2368
2358 2359
2359 2360
2359 2361
2361 2384
2362 2363
2362 2371
2364 2366
2365 2367
2366 2367
2366 2370
2368 2383
2369 2373
2369 2402
2370 2397
2371 2386
2371 2389
2372 2394
2372 2395
2373 2375
2374 2377
2374 2597
2375 2396
2376 2377
2378 2379
2379 2542
2380 2381
2380 2465
2382 2556
2383 2426
2384 2435
2385 2431
2386 2547
2387 2481
2388 2417
2389 2404
2390 2417
2391 2416
2392 2537
2393 2447
2394 2400
2395 2408
2396 2400
2397 2401
2398 2414
2399 2408
2400 2439
2401 2405
2402 2421
2403 2418
2404 2419
2404 2554
2405 2406
2405 2407
2407 2412
2408 2409
2409 2410
2409 2506
2410 2411
2410 2618
2411 2414
2412 2415
2412 2623
2413 2414
2413 2415
2413 2555
2415 2555
2416 2417
2416 2500
2417 2427
2417 2507
2418 2423
2419 2539
2420 2421
2420 2424
2421 2422
2422 2432
2423 2424
2423 2425
2425 2474
2426 2428
2426 2429
2427 2478
2428 2445
2429 2446
2430 2434
2430 2437
2431 2437
2432 2433
2432 2614
2433 2439
2434 2436
2435 2444
2436 2438
2436 2441
2437 2440
2437 2443
2438 2442
2439 2506
2440 2482
2441 2535
2442 2444
2443 2495
2444 2448
2444 2458
2445 2449
2446 2454
2447 2450
2448 2502
2449 2451
2449 2455
2449 2462
2450 2459
2451 2452
2452 2454
2453 2454
2453 2466
2454 2461
2455 2477
2456 2457
2456 2459
2457 2470
2458 2464
2459 2460
2459 2463
2460 2496
2461 2488
2462 2491
2463 2533
2464 2479
2465 2476
2466 2467
2467 2469
2467 2471
2467 2472
2468 2469
2468 2475
2470 2473
2471 2498
2472 2536
2473 2493
2474 2476
2475 2476
2476 2480
2477 2486
2478 2490
2479 2483
2479 2484
2480 2621
2481 2499
2482 2541
2483 2523
2484 2504
2485 2486
2485 2491
2486 2501
2487 2490
2487 2494
2488 2489
2488 2492
2488 2497
2489 2497
2489 2498
2490 2495
2490 2505
2491 2492
2492 2497
2493 2513
2494 2518
2496 2499
2498 2536
2499 2503
2499 2508
2500 2512
2501 2510
2502 2509
2503 2530
2504 2522
2505 2524
2506 2613
2507 2526
2508 2531
2509 2514
2509 2516
2510 2515
2511 2512
2511 2527
2512 2513
2512 2528
2514 2515
2516 2525
2517 2519
2517 2523
2518 2526
2519 2522
2520 2531
2520 2533
2521 2524
2521 2575
2522 2525
2522 2529
2523 2535
2524 2540
2526 2527
2528 2550
2529 2586
2530 2546
2531 2543
2532 2534
2532 2550
2533 2534
2533 2610
2535 2538
2536 2638
2537 2559
2538 2541
2538 2593
2539 2548
2540 2541
2541 2584
2542 2549
2543 2544
2543 2625
2544 2545
2545 2547
2546 2557
2547 2553
2548 2558
2549 2551
2549 2552
2550 2575
2551 2573
2552 2574
2553 2560
2554 2566
2555 2609
2556 2561
2557 2560
2558 2568
2559 2571
2560 2564
2560 2579
2561 2562
2561 2563
2561 2580
2562 2605
2563 2574
2564 2567
2565 2566
2565 2569
2566 2567
2566 2582
2568 2578
2569 2577
2570 2571
2570 2573
2571 2572
2571 2581
2572 2576
2575 2635
2576 2578
2577 2578
2578 2583
2579 2594
2580 2633
2581 2585
2582 2590
2583 2585
2584 2641
2585 2588
2586 2587
2587 2589
2588 2591
2588 2608
2589 2596
2590 2592
2590 2594
2590 2616
2591 2592
2593 2595
2594 2631
2595 2596
2596 2598
2596 2606
2597 2602
2598 2639
2599 2600
2600 2602
2601 2602
2601 2603
2603 2604
2604 2605
2604 2607
2606 2640
2607 2611
2608 2612
2609 2617
2609 2628
2610 2627
2612 2636
2612 2637
2613 2615
2613 2619
2614 2615
2614 2620
2615 2629
2616 2622
2616 2626
2617 2618
2618 2619
2619 2630
2620 2621
2620 2632
2622 2624
2633 2634
