% 1305 1039 1039
1 2
1 796
2 3
2 10
2 11
2 362
2 404
2 405
2 805
3 4
3 430
3 431
3 512
4 5
4 488
4 512
4 964
5 6
5 487
5 512
6 7
6 511
7 8
7 15
7 18
7 510
8 9
8 540
8 1014
9 22
10 360
10 801
11 12
11 488
11 489
11 966
11 985
12 13
12 986
13 14
14 15
15 16
15 512
16 17
17 18
18 19
19 20
20 21
21 22
22 1030
23 24
23 343
24 25
24 570
25 26
25 567
25 779
25 916
26 27
27 28
27 363
27 364
27 567
27 791
27 792
27 797
28 29
29 30
30 31
30 792
30 797
30 798
31 32
31 38
31 39
31 362
31 405
31 406
32 33
33 34
33 804
34 35
34 436
34 805
34 937
35 36
35 55
35 437
35 806
36 37
36 56
37 38
37 436
37 568
38 39
38 568
39 40
39 489
39 817
40 41
41 42
41 568
42 43
42 491
43 44
44 45
44 491
44 492
44 828
45 68
45 492
45 513
46 47
46 345
46 362
46 760
47 48
47 344
47 345
47 917
48 49
49 50
50 51
50 601
50 779
51 52
51 365
51 366
51 569
51 572
52 53
52 368
52 407
52 602
52 795
53 54
54 55
54 603
54 804
55 938
56 57
57 58
57 437
58 59
59 60
59 609
60 61
61 62
62 63
63 64
63 491
63 492
63 493
63 820
64 65
65 66
65 571
66 67
66 97
66 98
67 68
67 830
68 132
68 1019
69 70
70 71
71 72
72 73
72 548
72 725
73 74
74 75
75 338
75 339
75 544
76 77
77 78
77 600
78 79
79 80
80 81
81 82
82 83
82 115
82 572
82 613
83 84
83 348
83 349
84 85
85 86
85 601
86 87
87 88
87 602
87 603
87 605
88 89
88 408
88 409
88 625
88 807
89 90
89 122
89 605
89 606
89 627
89 939
89 943
90 91
90 447
91 92
91 967
92 93
92 444
92 445
92 446
92 941
93 94
94 95
94 821
95 96
96 97
97 127
97 493
98 99
99 100
99 128
99 129
100 101
101 102
102 103
102 1020
103 104
103 1020
104 105
104 1023
105 106
105 1022
107 108
108 109
108 142
108 336
109 110
110 111
111 112
111 610
112 113
114 115
114 613
114 761
115 116
115 147
115 149
115 350
115 622
115 899
116 117
116 780
117 118
117 373
117 374
118 119
119 120
119 156
119 157
119 410
119 619
119 647
120 121
121 122
121 448
121 449
121 809
122 123
122 447
122 448
122 968
123 124
123 633
123 822
123 823
124 125
125 126
126 127
126 494
127 128
129 130
130 131
130 833
131 132
132 133
133 134
133 1021
134 135
134 525
135 525
136 137
136 526
137 138
138 139
138 188
139 140
140 141
141 190
142 143
142 337
142 543
142 762
144 145
145 146
146 147
146 773
147 148
148 149
149 150
149 351
150 151
151 152
151 374
151 375
151 780
152 153
153 154
154 155
155 156
155 647
155 933
157 158
157 450
158 159
158 411
158 450
158 934
158 935
159 160
159 210
159 211
159 450
159 667
159 948
160 161
161 162
162 163
163 164
164 165
164 166
164 650
165 166
165 971
166 167
166 496
166 497
166 631
167 168
167 651
168 169
168 494
168 989
169 170
169 651
170 171
170 172
171 172
171 1024
172 173
172 174
172 992
173 174
173 1000
174 175
174 217
174 1024
175 176
175 218
175 219
176 177
177 178
178 179
179 180
180 181
181 182
181 222
181 526
182 183
182 184
182 223
182 843
182 844
183 184
184 185
184 224
184 1037
185 186
186 187
188 189
189 190
189 845
190 1038
191 192
192 193
193 194
193 261
193 560
194 195
195 196
196 197
197 198
197 635
198 199
199 200
199 729
200 201
200 735
201 202
201 640
201 641
202 203
203 204
204 738
204 756
204 757
205 206
205 662
205 663
205 775
206 207
206 351
207 208
208 209
208 352
208 375
209 210
209 378
209 379
209 936
210 934
211 212
211 950
212 213
212 452
212 453
212 649
212 650
212 652
212 667
213 214
213 826
214 215
214 980
215 216
216 217
216 497
216 498
216 994
217 218
217 500
217 514
218 1025
219 220
220 221
221 222
222 223
222 249
222 679
225 226
225 914
226 227
226 352
226 643
226 900
227 228
227 354
227 777
227 900
228 229
229 230
230 231
231 232
232 233
232 417
232 418
233 234
234 235
235 236
235 680
235 810
236 237
237 238
237 461
238 239
238 460
238 463
238 502
238 685
239 240
240 241
240 503
241 242
241 686
242 243
242 504
242 1001
243 244
243 692
243 1002
244 245
245 246
246 247
247 248
248 249
249 527
250 251
250 257
250 263
250 342
250 759
251 252
251 643
252 253
252 913
253 254
253 260
253 265
253 384
253 385
254 688
254 812
254 813
255 256
255 506
257 258
257 264
257 269
257 270
257 283
257 355
257 356
257 765
257 766
258 259
259 260
260 781
261 262
262 263
264 265
265 266
265 386
266 267
267 268
270 271
270 781
270 782
271 709
271 710
272 273
272 287
272 425
273 274
274 275
275 276
276 277
277 278
277 470
277 471
278 279
278 850
279 280
280 281
281 282
283 284
284 285
285 286
285 386
286 287
286 294
287 288
288 289
289 290
289 473
290 291
290 853
292 293
292 357
292 358
293 294
293 782
293 783
294 295
294 387
295 296
296 297
297 298
298 299
299 300
300 301
301 474
302 303
302 358
302 359
303 304
304 305
305 306
306 307
307 308
307 316
308 309
308 786
309 310
309 395
310 311
310 394
310 862
311 312
311 862
312 313
312 482
312 483
312 865
314 315
314 323
314 359
314 772
315 316
315 882
316 317
316 324
317 318
318 319
319 320
319 396
319 873
320 321
320 395
320 864
321 322
323 324
324 325
324 883
325 326
326 327
326 400
326 401
328 329
329 330
330 331
331 332
332 333
332 555
332 556
333 334
334 335
335 727
335 728
337 338
337 720
339 340
339 753
339 754
340 723
340 724
341 342
341 643
341 903
341 911
343 344
345 346
345 892
346 347
347 348
348 601
349 350
350 614
351 352
351 375
352 353
352 663
352 664
352 924
353 354
353 403
353 426
354 355
354 913
356 357
358 769
360 361
360 778
360 927
361 362
362 363
363 919
364 365
364 792
364 932
365 920
366 367
367 368
367 601
367 602
367 799
368 369
369 370
370 371
371 372
372 373
372 622
372 623
373 615
375 376
375 644
376 377
377 378
379 380
379 664
379 665
380 381
380 664
380 921
381 382
382 383
383 384
383 416
383 924
384 385
384 925
385 419
387 388
388 389
389 390
390 391
390 474
390 858
391 392
391 478
391 479
391 858
392 393
393 394
393 861
396 397
396 877
397 398
398 399
399 400
399 879
401 402
403 404
404 429
404 430
404 801
405 790
405 797
405 801
406 407
406 798
407 408
409 410
410 619
410 620
410 626
411 412
411 944
412 413
412 923
413 414
413 415
413 649
413 667
414 415
415 416
415 946
416 417
416 680
418 419
419 420
419 959
420 421
421 422
421 812
421 960
422 423
423 424
424 425
424 815
426 427
427 428
428 429
428 816
429 430
430 564
431 432
432 433
433 434
433 567
434 435
435 436
437 438
438 439
438 604
439 440
440 441
440 607
441 442
441 606
442 443
442 445
442 446
443 444
448 628
448 809
449 450
450 451
450 621
450 630
451 452
453 454
454 455
454 945
455 456
455 669
455 670
455 681
455 826
456 457
456 682
456 951
457 458
457 683
458 459
459 460
459 684
459 685
459 947
460 952
461 462
461 690
462 463
463 464
463 505
463 691
464 981
465 466
465 509
466 467
466 712
467 468
467 984
468 469
469 470
471 472
472 473
474 475
474 859
475 476
476 477
477 478
479 480
480 481
481 482
483 484
483 867
484 485
485 864
486 487
486 535
487 1015
488 565
488 566
489 490
489 986
490 491
491 988
492 493
494 495
494 496
495 496
496 631
496 634
498 499
499 500
499 826
500 501
501 502
501 673
501 674
501 685
503 504
504 505
505 692
506 507
507 508
508 509
510 511
510 537
510 538
512 513
513 827
514 515
514 677
514 678
514 1025
515 516
516 517
517 518
517 529
518 519
518 707
519 520
520 521
521 522
523 524
524 525
524 1023
526 843
526 1031
527 698
527 699
528 529
529 530
529 1026
530 531
530 707
530 840
531 532
532 533
533 534
535 536
536 537
537 834
538 539
539 540
541 542
541 800
542 962
542 963
544 545
544 745
544 751
544 752
545 546
546 547
547 548
547 891
548 549
548 573
549 550
550 551
551 552
552 553
552 727
553 554
556 557
557 558
558 559
558 648
559 560
561 562
562 563
563 1015
564 565
567 778
568 818
572 760
572 896
572 897
573 574
574 575
575 576
576 577
577 578
578 579
580 581
581 582
582 583
582 890
583 584
585 586
586 587
587 588
587 739
589 590
590 591
591 592
592 593
593 594
594 595
595 596
596 597
597 746
598 599
599 600
603 604
603 605
605 606
606 806
607 608
608 609
611 612
612 613
614 615
614 929
615 616
615 624
616 617
617 618
618 619
618 803
619 933
620 621
620 942
623 624
624 625
625 802
625 803
626 627
628 629
628 969
629 630
630 631
630 632
630 823
630 824
631 632
633 634
634 970
635 636
636 637
637 638
638 639
639 640
641 642
641 736
641 738
642 737
643 660
643 763
643 764
644 645
645 646
646 647
647 934
649 668
652 653
653 654
654 655
654 980
655 656
656 657
657 658
657 979
657 992
658 659
660 661
660 914
660 915
661 662
661 776
665 666
666 667
668 669
670 671
671 672
671 684
671 826
672 673
675 676
676 677
677 687
678 679
680 681
681 682
683 684
684 685
686 687
688 689
689 690
690 691
690 961
692 693
693 694
694 695
695 696
696 697
697 698
698 838
699 700
700 701
700 847
700 1027
700 1028
701 702
702 703
703 704
704 705
705 706
708 709
708 813
708 814
710 711
711 712
713 714
714 715
715 716
716 717
717 718
718 719
719 857
720 721
721 722
722 723
722 762
724 725
725 726
726 727
728 729
729 734
730 731
731 732
732 733
733 734
735 736
736 737
739 740
740 741
741 742
742 743
743 744
744 745
746 747
747 748
748 749
749 750
750 751
751 889
752 753
754 755
757 758
758 759
760 892
761 898
764 765
764 901
764 902
766 767
767 768
768 769
769 770
770 771
771 772
773 774
774 775
776 777
778 930
783 784
784 785
785 786
787 788
788 789
789 790
790 791
790 931
792 793
793 794
794 795
796 797
798 799
800 801
800 926
807 808
808 809
809 943
810 811
810 957
810 958
811 812
812 956
812 961
814 815
816 817
818 819
819 820
821 822
823 970
824 825
827 828
829 830
831 832
832 833
834 835
834 1004
834 1005
835 836
835 1007
836 837
838 839
840 841
841 842
845 846
847 848
848 849
850 851
851 852
853 854
854 855
855 856
856 857
858 860
862 863
863 864
865 866
866 867
867 868
867 870
868 869
870 871
871 872
873 874
873 876
874 875
876 877
877 878
880 881
880 884
881 882
885 886
886 887
887 888
888 889
890 891
892 893
893 894
895 896
898 899
900 901
900 915
903 904
903 906
903 907
904 905
907 908
908 909
909 910
911 912
916 917
916 918
919 920
921 922
922 923
924 925
927 928
928 929
934 936
939 940
940 941
945 946
948 949
949 950
953 954
954 955
955 956
958 959
963 964
964 965
967 968
972 973
973 974
974 975
975 976
976 977
977 978
978 979
978 991
981 982
983 984
985 987
989 990
992 993
993 994
994 995
994 1000
995 996
996 997
997 998
998 999
1003 1004
1005 1006
1005 1016
1007 1008
1008 1009
1008 1018
1009 1010
1010 1011
1011 1012
1013 1014
1017 1018
1020 1021
1026 1027
1029 1030
1031 1032
1032 1033
1034 1035
1035 1036
1036 1037
1038 1039
