%%MatrixMarket matrix coordinate pattern symmetric
760 760 16647
1 5
1 30
1 34
1 37
1 41
1 59
1 61
1 87
1 93
1 98
1 110
1 112
1 116
1 128
1 135
1 136
1 138
1 141
1 142
1 146
1 148
1 149
1 150
1 160
1 170
1 181
1 182
1 184
1 190
1 191
1 192
1 199
1 208
1 217
1 218
1 228
1 230
1 237
1 243
1 246
1 249
1 251
1 255
1 260
1 262
1 264
1 273
1 278
1 290
1 292
1 299
1 303
1 306
1 309
1 315
1 324
1 329
1 330
1 335
1 338
1 346
1 347
1 355
1 359
1 367
1 369
1 371
1 375
1 407
1 409
1 418
1 425
1 430
1 448
1 456
1 468
1 470
1 472
1 474
1 476
1 477
1 480
1 483
1 491
1 495
1 503
1 509
1 512
1 524
1 527
1 544
1 555
1 570
1 581
1 584
1 597
1 601
1 607
1 614
1 615
1 618
1 622
1 629
1 632
1 643
1 645
1 650
1 655
1 657
1 659
1 667
1 673
1 676
1 683
1 685
1 690
1 692
1 700
1 723
1 726
1 729
1 745
1 747
1 760
2 29
2 43
2 76
2 82
2 87
2 110
2 146
2 156
2 164
2 182
2 207
2 220
2 246
2 247
2 259
2 272
2 274
2 277
2 317
2 326
2 333
2 349
2 353
2 360
2 371
2 377
2 390
2 400
2 414
2 426
2 431
2 435
2 446
2 450
2 453
2 477
2 504
2 511
2 514
2 526
2 529
2 530
2 546
2 552
2 577
2 588
2 618
2 623
2 629
2 661
2 663
2 680
2 685
2 726
3 217
3 365
3 367
3 410
3 512
3 542
3 648
4 126
4 156
4 157
4 248
4 297
4 317
4 359
4 438
4 547
4 574
4 598
4 617
4 640
4 660
4 700
5 12
5 15
5 34
5 54
5 67
5 78
5 87
5 93
5 116
5 123
5 128
5 136
5 141
5 148
5 149
5 153
5 160
5 174
5 189
5 192
5 193
5 199
5 204
5 226
5 243
5 251
5 253
5 257
5 262
5 267
5 278
5 292
5 295
5 324
5 329
5 335
5 355
5 369
5 371
5 375
5 394
5 407
5 418
5 446
5 448
5 456
5 470
5 471
5 474
5 476
5 480
5 482
5 491
5 503
5 520
5 524
5 535
5 536
5 563
5 568
5 570
5 584
5 590
5 594
5 615
5 621
5 622
5 632
5 638
5 643
5 645
5 650
5 655
5 667
5 676
5 678
5 700
5 729
5 745
5 758
6 30
6 40
6 51
6 68
6 123
6 129
6 147
6 169
6 180
6 194
6 245
6 251
6 290
6 308
6 317
6 328
6 336
6 346
6 367
6 371
6 436
6 437
6 446
6 456
6 475
6 493
6 508
6 542
6 566
6 662
6 663
6 682
6 717
6 745
6 754
7 75
7 78
7 124
7 296
8 13
8 24
8 57
8 59
8 67
8 152
8 163
8 196
8 197
8 230
8 251
8 269
8 295
8 346
8 365
8 367
8 418
8 456
8 480
8 494
8 524
8 568
8 584
8 593
8 621
8 622
8 657
8 670
8 673
8 678
8 691
8 696
8 706
8 709
8 737
8 739
8 758
9 461
9 617
9 629
10 42
10 57
10 99
10 122
10 155
10 174
10 191
10 219
10 222
10 302
10 316
10 356
10 367
10 410
10 475
10 494
10 504
10 521
10 526
10 561
10 608
10 629
10 637
10 646
10 655
10 670
10 678
10 709
10 722
10 731
10 737
10 739
10 758
11 336
11 655
12 34
12 40
12 50
12 70
12 76
12 78
12 80
12 87
12 93
12 114
12 116
12 128
12 142
12 146
12 147
12 149
12 153
12 160
12 169
12 170
12 196
12 211
12 223
12 234
12 243
12 272
12 273
12 274
12 290
12 324
12 337
12 365
12 369
12 370
12 371
12 379
12 407
12 417
12 430
12 441
12 448
12 452
12 460
12 470
12 474
12 476
12 491
12 492
12 494
12 503
12 517
12 544
12 551
12 563
12 574
12 583
12 587
12 594
12 607
12 621
12 632
12 640
12 655
12 656
12 661
12 670
12 676
12 682
12 688
12 693
12 707
12 709
12 710
12 726
12 729
12 736
12 737
12 745
13 57
13 59
13 79
13 80
13 92
13 144
13 145
13 163
13 168
13 196
13 217
13 222
13 230
13 247
13 249
13 256
13 304
13 329
13 330
13 336
13 342
13 358
13 398
13 399
13 410
13 417
13 423
13 427
13 452
13 466
13 487
13 494
13 529
13 547
13 581
13 593
13 615
13 647
13 663
13 670
13 673
13 678
13 707
13 709
13 718
13 739
14 15
14 63
14 74
14 82
14 182
14 184
14 190
14 197
14 237
14 238
14 255
14 257
14 276
14 333
14 372
14 375
14 384
14 387
14 406
14 412
14 414
14 415
14 418
14 437
14 458
14 474
14 480
14 506
14 524
14 526
14 536
14 554
14 562
14 582
14 643
14 657
14 676
14 679
14 700
14 738
15 16
15 17
15 26
15 45
15 50
15 63
15 74
15 75
15 98
15 109
15 110
15 129
15 138
15 150
15 160
15 174
15 181
15 182
15 184
15 185
15 190
15 191
15 197
15 198
15 199
15 208
15 217
15 238
15 254
15 255
15 257
15 276
15 292
15 299
15 315
15 327
15 332
15 333
15 335
15 347
15 355
15 369
15 374
15 375
15 385
15 387
15 393
15 394
15 398
15 406
15 407
15 412
15 413
15 414
15 415
15 418
15 419
15 437
15 446
15 454
15 455
15 458
15 465
15 474
15 475
15 480
15 483
15 495
15 503
15 504
15 506
15 507
15 524
15 526
15 536
15 554
15 559
15 562
15 566
15 570
15 580
15 582
15 615
15 616
15 618
15 635
15 650
15 657
15 661
15 669
15 679
15 691
15 700
15 710
15 713
15 715
15 727
15 733
15 738
15 755
16 48
16 62
16 101
16 106
16 181
16 219
16 361
16 382
16 393
16 403
16 412
16 414
16 421
16 554
16 613
16 630
17 18
17 40
17 50
17 52
17 60
17 75
17 79
17 80
17 90
17 100
17 112
17 113
17 126
17 132
17 146
17 161
17 185
17 196
17 204
17 231
17 243
17 246
17 247
17 249
17 261
17 285
17 301
17 312
17 332
17 335
17 342
17 349
17 358
17 371
17 394
17 405
17 409
17 433
17 435
17 438
17 448
17 469
17 480
17 501
17 503
17 508
17 514
17 522
17 538
17 549
17 565
17 566
17 570
17 583
17 601
17 605
17 611
17 612
17 617
17 618
17 621
17 628
17 641
17 678
17 682
17 700
17 710
17 721
17 726
17 733
17 741
17 747
17 748
17 750
18 231
19 61
19 75
19 83
19 100
19 111
19 161
19 162
19 189
19 204
19 235
19 236
19 249
19 250
19 264
19 269
19 313
19 314
19 339
19 369
19 409
19 418
19 428
19 445
19 455
19 456
19 488
19 506
19 507
19 530
19 549
19 555
19 583
19 584
19 597
19 607
19 612
19 636
19 670
19 705
19 708
19 721
19 728
19 759
20 29
20 37
20 62
20 79
20 80
20 82
20 110
20 118
20 120
20 127
20 157
20 207
20 214
20 243
20 247
20 259
20 270
20 273
20 274
20 285
20 297
20 301
20 324
20 349
20 358
20 360
20 371
20 377
20 390
20 394
20 414
20 435
20 438
20 463
20 469
20 487
20 526
20 546
20 583
20 607
20 618
20 661
20 678
20 680
20 682
20 685
20 700
20 702
20 753
21 83
21 188
21 249
21 272
21 292
21 383
21 490
21 500
21 547
21 697
21 721
22 79
22 126
22 187
22 243
22 252
22 269
22 529
22 548
22 621
22 658
22 674
22 750
23 35
23 49
23 742
24 36
24 56
24 57
24 59
24 80
24 98
24 99
24 144
24 145
24 161
24 163
24 169
24 174
24 182
24 193
24 196
24 197
24 199
24 217
24 227
24 230
24 237
24 264
24 269
24 295
24 302
24 316
24 322
24 346
24 347
24 355
24 356
24 365
24 377
24 398
24 410
24 415
24 417
24 418
24 425
24 452
24 480
24 494
24 495
24 512
24 522
24 524
24 527
24 529
24 530
24 533
24 544
24 548
24 552
24 553
24 561
24 579
24 581
24 587
24 593
24 602
24 608
24 615
24 621
24 637
24 646
24 648
24 655
24 657
24 670
24 673
24 674
24 678
24 691
24 696
24 698
24 706
24 707
24 709
24 722
24 728
24 731
24 733
24 739
24 750
24 758
25 42
25 43
25 54
25 69
25 82
25 98
25 122
25 147
25 165
25 189
25 196
25 222
25 251
25 259
25 278
25 286
25 290
25 302
25 324
25 329
25 377
25 389
25 500
25 508
25 517
25 527
25 530
25 544
25 546
25 553
25 572
25 579
25 621
25 623
25 625
25 642
25 644
25 655
25 659
25 663
25 670
25 711
25 737
25 758
26 44
26 62
26 63
26 82
26 92
26 108
26 110
26 150
26 159
26 173
26 181
26 182
26 190
26 209
26 237
26 238
26 246
26 247
26 276
26 290
26 302
26 333
26 336
26 349
26 355
26 367
26 378
26 412
26 413
26 414
26 425
26 435
26 439
26 446
26 465
26 466
26 475
26 484
26 486
26 513
26 526
26 530
26 533
26 554
26 562
26 580
26 582
26 592
26 606
26 607
26 613
26 614
26 618
26 625
26 637
26 648
26 649
26 661
26 663
26 678
26 687
26 691
26 700
26 718
26 724
26 750
27 82
27 179
27 182
27 246
27 345
27 349
27 355
27 461
27 506
27 540
27 552
27 577
27 599
27 618
27 629
27 666
27 681
27 700
28 50
28 139
28 210
28 224
28 233
28 269
28 288
28 301
28 432
28 437
28 452
28 458
28 506
28 522
28 529
28 559
28 582
28 670
28 678
28 727
28 750
28 757
29 41
29 58
29 75
29 76
29 87
29 103
29 114
29 128
29 136
29 142
29 149
29 160
29 164
29 168
29 210
29 212
29 217
29 218
29 220
29 223
29 226
29 277
29 305
29 324
29 329
29 349
29 350
29 370
29 371
29 394
29 401
29 423
29 427
29 438
29 447
29 448
29 453
29 462
29 474
29 491
29 495
29 588
29 617
29 632
29 680
29 685
29 700
29 723
29 745
30 40
30 51
30 54
30 55
30 62
30 67
30 68
30 74
30 78
30 87
30 116
30 123
30 129
30 133
30 136
30 140
30 141
30 147
30 151
30 167
30 169
30 177
30 180
30 186
30 194
30 204
30 205
30 214
30 217
30 221
30 235
30 245
30 251
30 279
30 283
30 292
30 308
30 317
30 328
30 332
30 335
30 355
30 369
30 372
30 373
30 378
30 412
30 430
30 436
30 456
30 474
30 483
30 488
30 493
30 495
30 503
30 508
30 516
30 518
30 520
30 524
30 531
30 536
30 541
30 551
30 555
30 566
30 568
30 607
30 611
30 613
30 615
30 620
30 622
30 629
30 631
30 632
30 634
30 638
30 642
30 645
30 650
30 661
30 662
30 669
30 676
30 682
30 691
30 700
30 717
30 723
30 736
30 747
30 754
31 41
31 87
31 149
31 265
31 340
31 348
31 351
31 560
31 760
32 44
32 109
32 112
32 146
32 153
32 156
32 259
32 324
32 379
32 451
32 502
32 582
32 585
32 603
32 623
32 656
32 678
33 470
34 41
34 62
34 69
34 70
34 76
34 78
34 87
34 93
34 114
34 116
34 128
34 141
34 142
34 149
34 160
34 165
34 172
34 189
34 192
34 212
34 218
34 220
34 226
34 242
34 244
34 262
34 273
34 274
34 324
34 329
34 337
34 348
34 361
34 369
34 370
34 371
34 377
34 390
34 401
34 403
34 407
34 423
34 435
34 448
34 470
34 476
34 491
34 492
34 503
34 517
34 521
34 544
34 546
34 547
34 551
34 552
34 563
34 582
34 613
34 615
34 617
34 621
34 630
34 635
34 655
34 661
34 663
34 667
34 683
34 686
34 691
34 693
34 700
34 729
34 736
34 743
34 745
34 760
35 49
35 272
36 57
36 59
36 80
36 132
36 137
36 144
36 163
36 222
36 227
36 295
36 322
36 346
36 365
36 367
36 398
36 399
36 410
36 417
36 425
36 437
36 452
36 494
36 529
36 533
36 559
36 581
36 587
36 593
36 595
36 621
36 637
36 655
36 670
36 678
36 691
36 696
36 706
36 707
36 709
36 733
36 739
36 750
36 758
37 41
37 52
37 58
37 70
37 76
37 78
37 79
37 87
37 92
37 112
37 114
37 116
37 128
37 149
37 153
37 164
37 196
37 243
37 247
37 259
37 269
37 270
37 273
37 306
37 324
37 329
37 335
37 340
37 348
37 363
37 371
37 401
37 423
37 438
37 448
37 462
37 476
37 487
37 492
37 503
37 514
37 551
37 559
37 574
37 607
37 617
37 640
37 658
37 660
37 663
37 682
37 685
37 694
37 700
37 723
37 727
37 745
38 326
38 446
39 46
39 56
39 87
39 102
39 112
39 113
39 138
39 141
39 146
39 153
39 190
39 251
39 298
39 309
39 327
39 341
39 362
39 367
39 477
39 480
39 490
39 491
39 509
39 542
39 562
39 597
39 616
39 629
39 659
39 690
40 51
40 54
40 55
40 62
40 68
40 82
40 87
40 123
40 124
40 129
40 132
40 140
40 147
40 169
40 177
40 180
40 194
40 205
40 214
40 220
40 221
40 235
40 243
40 245
40 251
40 268
40 270
40 280
40 283
40 307
40 308
40 316
40 317
40 328
40 332
40 336
40 349
40 373
40 378
40 389
40 405
40 433
40 436
40 438
40 456
40 466
40 469
40 488
40 493
40 508
40 516
40 518
40 520
40 531
40 541
40 555
40 566
40 568
40 570
40 601
40 604
40 607
40 611
40 615
40 617
40 618
40 622
40 625
40 642
40 648
40 655
40 661
40 682
40 688
40 700
40 701
40 717
40 720
40 726
40 747
40 749
41 58
41 76
41 87
41 93
41 103
41 104
41 116
41 128
41 136
41 138
41 149
41 155
41 160
41 164
41 212
41 218
41 220
41 223
41 226
41 247
41 259
41 260
41 270
41 273
41 274
41 305
41 306
41 324
41 329
41 338
41 340
41 348
41 350
41 351
41 370
41 371
41 400
41 401
41 430
41 447
41 448
41 450
41 453
41 462
41 470
41 480
41 495
41 527
41 547
41 560
41 563
41 574
41 578
41 588
41 607
41 617
41 632
41 655
41 660
41 661
41 720
41 723
41 753
41 760
42 62
42 74
42 82
42 86
42 121
42 122
42 174
42 202
42 271
42 290
42 302
42 316
42 333
42 389
42 435
42 443
42 459
42 475
42 498
42 500
42 522
42 526
42 625
42 655
42 730
42 758
43 98
43 110
43 118
43 121
43 156
43 157
43 164
43 169
43 182
43 199
43 207
43 217
43 220
43 241
43 246
43 289
43 326
43 336
43 355
43 359
43 377
43 400
43 411
43 426
43 427
43 450
43 453
43 495
43 496
43 510
43 514
43 526
43 547
43 553
43 615
43 618
43 661
43 680
43 685
43 726
43 737
43 741
43 753
44 146
44 153
44 156
44 272
44 302
44 427
44 530
44 603
44 617
44 621
45 75
45 112
45 113
45 138
45 141
45 146
45 204
45 259
45 269
45 309
45 362
45 367
45 380
45 381
45 409
45 423
45 437
45 452
45 477
45 562
45 581
45 585
45 629
45 640
45 656
45 659
45 678
45 700
45 726
46 56
46 102
46 109
46 110
46 112
46 113
46 127
46 153
46 181
46 184
46 213
46 259
46 277
46 362
46 367
46 372
46 379
46 390
46 414
46 442
46 446
46 477
46 509
46 511
46 552
46 562
46 585
46 597
46 616
46 623
46 645
46 659
46 689
46 706
46 711
46 712
46 726
47 58
47 76
47 87
47 128
47 182
47 185
47 197
47 238
47 251
47 254
47 281
47 302
47 371
47 384
47 387
47 394
47 413
47 415
47 418
47 440
47 480
47 506
47 524
47 552
47 554
47 582
47 618
47 642
47 661
47 668
47 700
47 756
48 84
48 99
48 101
48 106
48 217
48 219
48 310
48 326
48 356
48 361
48 382
48 403
48 421
48 446
48 575
48 591
48 630
48 646
48 722
49 112
49 171
49 367
49 461
49 526
49 551
49 599
49 670
49 742
50 139
50 146
50 210
50 217
50 233
50 269
50 272
50 288
50 301
50 384
50 394
50 425
50 427
50 432
50 438
50 452
50 458
50 506
50 582
50 617
50 618
50 682
50 700
50 726
51 54
51 55
51 62
51 68
51 81
51 112
51 123
51 147
51 169
51 180
51 186
51 194
51 214
51 245
51 251
51 308
51 332
51 336
51 371
51 425
51 456
51 493
51 494
51 511
51 518
51 531
51 541
51 542
51 618
51 622
51 629
51 638
51 642
51 662
51 685
51 707
51 717
51 726
51 754
52 75
52 90
52 124
52 159
52 196
52 239
52 249
52 268
52 285
52 310
52 326
52 342
52 349
52 363
52 364
52 409
52 438
52 487
52 514
52 530
52 546
52 550
52 576
52 583
52 601
52 628
52 641
52 757
53 58
53 87
53 211
53 217
53 427
53 460
53 466
53 756
54 55
54 62
54 67
54 68
54 81
54 90
54 123
54 129
54 147
54 151
54 167
54 169
54 172
54 177
54 180
54 186
54 194
54 207
54 214
54 220
54 221
54 237
54 241
54 244
54 245
54 249
54 251
54 270
54 277
54 279
54 303
54 308
54 317
54 328
54 332
54 336
54 347
54 349
54 378
54 383
54 389
54 415
54 417
54 427
54 433
54 456
54 488
54 493
54 508
54 516
54 518
54 520
54 530
54 531
54 538
54 541
54 555
54 566
54 570
54 601
54 604
54 607
54 611
54 615
54 622
54 623
54 631
54 642
54 647
54 655
54 657
54 661
54 669
54 682
54 700
54 711
54 717
54 720
54 741
54 747
54 754
55 67
55 68
55 75
55 140
55 147
55 177
55 178
55 186
55 194
55 204
55 205
55 214
55 217
55 239
55 245
55 249
55 251
55 260
55 269
55 270
55 273
55 306
55 328
55 332
55 373
55 378
55 398
55 409
55 430
55 436
55 445
55 456
55 469
55 479
55 488
55 491
55 512
55 518
55 520
55 531
55 555
55 568
55 570
55 584
55 607
55 615
55 622
55 638
55 642
55 682
55 717
55 730
55 747
56 82
56 102
56 109
56 110
56 112
56 113
56 138
56 141
56 146
56 156
56 184
56 190
56 249
56 259
56 272
56 277
56 298
56 309
56 315
56 319
56 327
56 333
56 362
56 367
56 372
56 390
56 414
56 428
56 434
56 446
56 452
56 474
56 477
56 509
56 511
56 530
56 539
56 562
56 597
56 616
56 629
56 639
56 640
56 645
56 650
56 651
56 657
56 659
56 685
56 700
56 706
56 719
56 726
57 59
57 80
57 144
57 152
57 155
57 163
57 193
57 196
57 203
57 217
57 222
57 227
57 245
57 269
57 295
57 322
57 334
57 394
57 398
57 399
57 410
57 417
57 441
57 494
57 529
57 533
57 548
57 551
57 581
57 587
57 593
57 605
57 615
57 629
57 637
57 670
57 674
57 678
57 696
57 706
57 707
57 709
57 733
57 739
57 750
58 76
58 87
58 128
58 149
58 155
58 164
58 211
58 212
58 243
58 246
58 260
58 262
58 265
58 270
58 273
58 303
58 306
58 337
58 338
58 350
58 351
58 370
58 371
58 384
58 427
58 444
58 448
58 453
58 462
58 521
58 527
58 542
58 544
58 547
58 551
58 563
58 574
58 578
58 617
58 627
58 642
58 655
58 660
58 723
58 736
58 760
59 80
59 100
59 144
59 163
59 193
59 217
59 222
59 230
59 237
59 250
59 269
59 322
59 377
59 398
59 445
59 472
59 494
59 512
59 529
59 548
59 555
59 581
59 593
59 615
59 622
59 670
59 673
59 696
59 706
59 707
59 709
59 733
59 739
60 75
60 79
60 100
60 111
60 115
60 128
60 132
60 147
60 162
60 180
60 189
60 196
60 202
60 204
60 206
60 229
60 236
60 239
60 244
60 246
60 249
60 251
60 261
60 264
60 269
60 272
60 273
60 274
60 280
60 285
60 293
60 299
60 314
60 325
60 339
60 342
60 349
60 371
60 383
60 409
60 416
60 419
60 428
60 433
60 437
60 441
60 470
60 476
60 481
60 487
60 507
60 520
60 530
60 538
60 542
60 546
60 547
60 549
60 576
60 583
60 584
60 590
60 594
60 601
60 612
60 627
60 628
60 641
60 642
60 647
60 649
60 686
60 705
60 707
60 710
60 721
60 741
60 746
60 759
61 75
61 78
61 83
61 100
61 161
61 162
61 189
61 204
61 208
61 217
61 236
61 239
61 250
61 264
61 269
61 272
61 299
61 313
61 314
61 339
61 407
61 409
61 418
61 419
61 428
61 445
61 455
61 456
61 488
61 506
61 507
61 524
61 549
61 583
61 584
61 607
61 612
61 615
61 634
61 636
61 705
61 708
61 721
61 747
61 759
62 63
62 68
62 74
62 75
62 81
62 82
62 87
62 92
62 123
62 127
62 129
62 137
62 138
62 140
62 141
62 147
62 150
62 151
62 156
62 163
62 164
62 169
62 171
62 173
62 177
62 180
62 182
62 194
62 211
62 217
62 219
62 222
62 226
62 245
62 246
62 251
62 272
62 280
62 283
62 289
62 290
62 302
62 308
62 315
62 316
62 317
62 319
62 324
62 328
62 332
62 333
62 336
62 349
62 361
62 367
62 378
62 393
62 397
62 403
62 415
62 418
62 425
62 435
62 436
62 438
62 446
62 456
62 465
62 475
62 477
62 483
62 487
62 488
62 493
62 494
62 508
62 513
62 516
62 518
62 526
62 541
62 546
62 555
62 566
62 568
62 599
62 607
62 613
62 615
62 618
62 622
62 623
62 625
62 630
62 631
62 632
62 633
62 637
62 642
62 645
62 650
62 651
62 657
62 662
62 678
62 682
62 688
62 700
62 708
62 710
62 713
62 726
62 741
62 754
62 756
63 74
63 82
63 113
63 150
63 182
63 184
63 185
63 190
63 197
63 217
63 238
63 241
63 302
63 333
63 349
63 361
63 367
63 387
63 394
63 414
63 415
63 418
63 475
63 480
63 506
63 524
63 530
63 536
63 554
63 559
63 562
63 582
63 618
63 661
63 668
63 700
63 726
64 98
64 141
64 165
64 177
64 217
64 255
64 271
64 302
64 480
64 482
64 568
64 638
64 644
64 655
64 758
65 104
65 156
65 247
65 259
65 570
66 383
66 530
66 697
67 74
67 93
67 112
67 133
67 135
67 136
67 138
67 140
67 142
67 148
67 150
67 167
67 174
67 177
67 180
67 186
67 193
67 194
67 202
67 203
67 204
67 205
67 217
67 221
67 222
67 230
67 235
67 245
67 251
67 257
67 279
67 295
67 299
67 317
67 319
67 328
67 332
67 333
67 346
67 349
67 365
67 367
67 373
67 375
67 378
67 415
67 418
67 428
67 436
67 446
67 456
67 459
67 469
67 473
67 477
67 478
67 491
67 493
67 495
67 516
67 524
67 533
67 555
67 566
67 570
67 581
67 597
67 611
67 615
67 616
67 620
67 622
67 637
67 638
67 645
67 648
67 650
67 657
67 661
67 662
67 667
67 669
67 670
67 676
67 688
67 702
67 709
67 715
67 717
67 721
67 739
67 746
67 747
67 758
67 759
68 75
68 81
68 123
68 129
68 147
68 151
68 167
68 169
68 180
68 186
68 194
68 205
68 214
68 217
68 245
68 251
68 279
68 308
68 317
68 328
68 332
68 336
68 436
68 456
68 488
68 493
68 506
68 508
68 518
68 520
68 531
68 541
68 555
68 566
68 570
68 596
68 607
68 622
68 631
68 634
68 638
68 642
68 662
68 682
68 688
68 717
68 720
68 732
68 746
68 754
69 87
69 114
69 128
69 142
69 204
69 251
69 262
69 273
69 274
69 309
69 324
69 329
69 335
69 369
69 371
69 390
69 409
69 462
69 470
69 482
69 491
69 508
69 517
69 544
69 546
69 581
69 584
69 615
69 644
69 655
69 685
69 745
70 78
70 87
70 93
70 114
70 116
70 142
70 149
70 273
70 288
70 305
70 337
70 338
70 369
70 407
70 409
70 423
70 448
70 470
70 471
70 476
70 480
70 491
70 492
70 503
70 517
70 551
70 578
70 617
70 632
70 655
70 683
70 700
70 720
70 736
71 217
71 417
71 494
71 661
71 696
71 709
71 739
72 165
73 217
73 238
73 384
73 394
73 427
73 437
73 440
73 458
73 460
73 524
73 700
74 82
74 92
74 98
74 135
74 138
74 141
74 150
74 174
74 182
74 189
74 197
74 204
74 230
74 236
74 238
74 251
74 254
74 255
74 257
74 271
74 280
74 289
74 290
74 302
74 316
74 319
74 333
74 336
74 346
74 367
74 375
74 412
74 413
74 415
74 418
74 425
74 446
74 458
74 465
74 473
74 474
74 475
74 480
74 491
74 494
74 504
74 524
74 526
74 536
74 554
74 559
74 581
74 582
74 592
74 603
74 615
74 616
74 625
74 645
74 648
74 657
74 668
74 700
74 710
74 715
74 718
74 729
74 756
75 78
75 81
75 87
75 90
75 98
75 100
75 111
75 114
75 115
75 121
75 123
75 126
75 147
75 151
75 162
75 169
75 173
75 189
75 194
75 204
75 211
75 214
75 225
75 229
75 236
75 239
75 243
75 245
75 249
75 250
75 251
75 253
75 259
75 261
75 262
75 264
75 269
75 272
75 279
75 280
75 285
75 287
75 293
75 296
75 299
75 302
75 307
75 313
75 314
75 317
75 328
75 335
75 339
75 342
75 349
75 352
75 355
75 368
75 373
75 383
75 394
75 409
75 414
75 416
75 419
75 428
75 433
75 436
75 445
75 456
75 470
75 472
75 474
75 478
75 481
75 487
75 488
75 506
75 507
75 508
75 518
75 530
75 531
75 546
75 547
75 549
75 551
75 555
75 563
75 566
75 570
75 576
75 583
75 584
75 601
75 611
75 612
75 620
75 621
75 627
75 628
75 635
75 636
75 642
75 647
75 649
75 655
75 658
75 662
75 682
75 683
75 685
75 700
75 705
75 707
75 708
75 717
75 720
75 721
75 736
75 741
75 746
75 747
75 749
75 759
76 87
76 116
76 128
76 136
76 149
76 164
76 168
76 212
76 218
76 220
76 242
76 262
76 270
76 273
76 324
76 329
76 370
76 371
76 390
76 401
76 414
76 427
76 440
76 448
76 453
76 466
76 472
76 491
76 516
76 530
76 559
76 574
76 617
76 632
76 655
76 661
76 683
76 685
76 760
77 117
77 217
77 321
77 381
77 396
77 426
77 433
77 467
77 519
77 680
78 87
78 93
78 114
78 116
78 128
78 142
78 149
78 153
78 155
78 212
78 239
78 243
78 249
78 251
78 260
78 265
78 269
78 270
78 273
78 288
78 301
78 329
78 335
78 338
78 351
78 407
78 423
78 430
78 448
78 470
78 476
78 480
78 488
78 492
78 503
78 506
78 507
78 551
78 560
78 563
78 578
78 594
78 607
78 612
78 617
78 622
78 632
78 634
78 635
78 636
78 647
78 655
78 683
78 700
78 721
78 729
78 736
78 760
79 90
79 110
79 118
79 126
79 129
79 131
79 149
79 156
79 157
79 161
79 196
79 206
79 210
79 218
79 225
79 243
79 249
79 252
79 260
79 261
79 265
79 269
79 270
79 273
79 275
79 285
79 290
79 304
79 306
79 317
79 324
79 325
79 330
79 336
79 342
79 351
79 352
79 358
79 371
79 390
79 402
79 409
79 410
79 417
79 427
79 433
79 435
79 436
79 438
79 441
79 450
79 453
79 458
79 487
79 510
79 511
79 529
79 531
79 541
79 548
79 549
79 551
79 553
79 555
79 559
79 574
79 583
79 584
79 607
79 615
79 617
79 621
79 622
79 636
79 640
79 647
79 655
79 658
79 660
79 680
79 682
79 685
79 726
79 728
79 741
79 750
80 85
80 86
80 98
80 126
80 132
80 144
80 155
80 161
80 165
80 187
80 193
80 196
80 217
80 252
80 273
80 285
80 295
80 302
80 325
80 358
80 365
80 377
80 398
80 399
80 409
80 411
80 441
80 452
80 487
80 489
80 494
80 529
80 533
80 548
80 553
80 581
80 583
80 587
80 593
80 595
80 621
80 644
80 646
80 655
80 656
80 663
80 670
80 674
80 678
80 696
80 698
80 700
80 706
80 707
80 709
80 728
80 739
80 750
80 758
81 123
81 129
81 151
81 180
81 194
81 214
81 244
81 245
81 251
81 279
81 328
81 336
81 339
81 441
81 456
81 488
81 493
81 508
81 518
81 531
81 541
81 555
81 566
81 604
81 631
81 642
81 662
81 720
81 754
82 89
82 92
82 109
82 110
82 112
82 127
82 137
82 138
82 141
82 150
82 153
82 156
82 159
82 168
82 169
82 173
82 174
82 181
82 182
82 184
82 190
82 191
82 202
82 208
82 222
82 241
82 242
82 245
82 246
82 257
82 259
82 274
82 280
82 289
82 290
82 295
82 297
82 315
82 316
82 317
82 319
82 326
82 327
82 333
82 336
82 349
82 355
82 362
82 367
82 371
82 377
82 378
82 379
82 383
82 385
82 390
82 397
82 400
82 412
82 414
82 415
82 418
82 419
82 425
82 431
82 435
82 438
82 439
82 443
82 444
82 446
82 447
82 450
82 453
82 461
82 465
82 466
82 473
82 474
82 475
82 477
82 479
82 483
82 484
82 490
82 502
82 506
82 509
82 511
82 512
82 514
82 516
82 524
82 526
82 530
82 540
82 542
82 550
82 554
82 562
82 566
82 577
82 588
82 592
82 599
82 606
82 607
82 613
82 615
82 616
82 618
82 619
82 623
82 625
82 629
82 632
82 637
82 639
82 645
82 648
82 649
82 650
82 655
82 657
82 662
82 666
82 669
82 672
82 678
82 681
82 682
82 685
82 689
82 700
82 706
82 711
82 713
82 715
82 718
82 719
82 726
82 751
82 755
82 758
83 100
83 111
83 162
83 189
83 204
83 217
83 250
83 261
83 264
83 272
83 285
83 313
83 314
83 339
83 383
83 416
83 428
83 476
83 487
83 506
83 549
83 583
83 596
83 612
83 629
83 705
83 707
83 708
83 714
83 721
84 310
84 326
84 361
84 403
84 421
84 446
84 630
85 144
85 153
85 165
85 170
85 217
85 233
85 286
85 296
85 301
85 302
85 409
85 448
85 452
85 494
85 522
85 544
85 572
85 579
85 581
85 583
85 621
85 644
85 655
85 670
85 678
85 700
85 709
85 758
86 87
86 145
86 165
86 182
86 185
86 196
86 202
86 233
86 254
86 302
86 316
86 377
86 384
86 389
86 411
86 437
86 475
86 530
86 553
86 579
86 581
86 618
86 621
86 641
86 644
86 648
86 670
86 678
86 698
86 700
86 710
86 737
86 756
87 92
87 93
87 102
87 103
87 105
87 110
87 116
87 122
87 126
87 128
87 130
87 136
87 137
87 141
87 142
87 146
87 148
87 149
87 153
87 155
87 156
87 157
87 160
87 164
87 192
87 199
87 202
87 210
87 211
87 212
87 214
87 218
87 220
87 223
87 234
87 239
87 242
87 243
87 245
87 246
87 260
87 262
87 265
87 270
87 272
87 273
87 274
87 289
87 290
87 293
87 298
87 302
87 303
87 305
87 306
87 324
87 329
87 335
87 337
87 338
87 340
87 342
87 346
87 348
87 350
87 351
87 365
87 369
87 370
87 371
87 377
87 384
87 400
87 401
87 407
87 409
87 414
87 423
87 424
87 426
87 427
87 430
87 431
87 436
87 437
87 438
87 440
87 441
87 444
87 447
87 448
87 450
87 453
87 458
87 460
87 462
87 466
87 468
87 470
87 471
87 474
87 476
87 480
87 486
87 487
87 491
87 492
87 494
87 495
87 500
87 503
87 504
87 508
87 509
87 517
87 521
87 526
87 527
87 530
87 542
87 544
87 546
87 547
87 551
87 552
87 560
87 563
87 568
87 569
87 570
87 574
87 579
87 583
87 588
87 594
87 606
87 607
87 613
87 615
87 617
87 618
87 621
87 627
87 629
87 632
87 633
87 635
87 640
87 643
87 647
87 648
87 652
87 655
87 656
87 660
87 666
87 667
87 675
87 676
87 677
87 678
87 682
87 685
87 691
87 693
87 695
87 696
87 698
87 700
87 710
87 711
87 723
87 726
87 729
87 736
87 737
87 741
87 743
87 753
87 756
87 760
88 109
88 112
88 146
88 168
88 259
88 272
88 327
88 367
88 414
88 431
88 451
88 477
88 502
88 530
88 542
88 552
88 645
88 663
88 685
88 711
89 333
90 146
90 160
90 173
90 204
90 212
90 217
90 229
90 236
90 237
90 254
90 264
90 272
90 280
90 314
90 349
90 383
90 409
90 416
90 419
90 433
90 436
90 438
90 451
90 456
90 463
90 466
90 472
90 477
90 507
90 516
90 518
90 530
90 531
90 549
90 584
90 601
90 612
90 628
90 641
90 661
90 662
90 682
90 688
90 707
90 741
90 746
91 552
91 627
92 112
92 137
92 146
92 150
92 170
92 171
92 173
92 182
92 222
92 245
92 272
92 289
92 326
92 333
92 336
92 361
92 367
92 378
92 425
92 427
92 446
92 448
92 460
92 465
92 475
92 487
92 492
92 494
92 513
92 529
92 551
92 552
92 559
92 599
92 603
92 613
92 615
92 617
92 618
92 625
92 629
92 637
92 663
92 670
92 678
92 726
92 756
93 114
93 116
93 128
93 136
93 141
93 142
93 148
93 149
93 160
93 191
93 192
93 242
93 262
93 267
93 271
93 273
93 306
93 324
93 329
93 335
93 337
93 369
93 371
93 407
93 423
93 430
93 448
93 470
93 471
93 474
93 476
93 480
93 491
93 492
93 495
93 503
93 546
93 551
93 555
93 563
93 568
93 570
93 574
93 584
93 594
93 615
93 632
93 635
93 638
93 643
93 655
93 667
93 676
93 683
93 700
93 726
93 729
93 736
93 743
93 745
94 146
94 162
94 183
94 389
94 423
94 505
94 508
94 537
94 586
94 601
94 627
94 656
94 711
94 736
95 425
95 618
95 682
95 726
96 577
97 423
98 100
98 138
98 141
98 161
98 165
98 170
98 174
98 189
98 191
98 192
98 196
98 197
98 251
98 253
98 255
98 271
98 278
98 290
98 295
98 302
98 322
98 324
98 346
98 355
98 365
98 375
98 377
98 423
98 430
98 452
98 469
98 473
98 480
98 482
98 491
98 503
98 504
98 521
98 524
98 526
98 533
98 536
98 544
98 553
98 568
98 579
98 584
98 602
98 615
98 621
98 622
98 644
98 645
98 650
98 655
98 678
98 686
98 690
98 698
98 706
98 717
98 737
98 758
99 106
99 144
99 219
99 222
99 356
99 361
99 410
99 425
99 494
99 544
99 561
99 608
99 629
99 646
99 696
99 709
99 722
99 731
99 739
100 111
100 141
100 162
100 180
100 189
100 204
100 236
100 237
100 249
100 250
100 251
100 264
100 272
100 274
100 313
100 314
100 324
100 409
100 428
100 433
100 445
100 456
100 507
100 547
100 549
100 555
100 581
100 583
100 584
100 618
100 655
100 670
100 680
100 700
100 721
100 747
100 759
101 106
101 219
101 361
101 382
101 393
101 421
101 446
101 613
101 630
102 110
102 112
102 146
102 181
102 199
102 277
102 287
102 306
102 327
102 359
102 367
102 372
102 414
102 446
102 479
102 509
102 511
102 513
102 542
102 556
102 562
102 618
102 629
102 639
102 640
102 645
102 659
102 719
102 726
102 753
103 120
103 128
103 149
103 155
103 218
103 247
103 270
103 273
103 435
103 448
103 516
103 577
103 617
103 652
103 661
103 680
103 700
103 753
104 247
104 269
104 296
104 435
104 617
105 383
105 607
105 618
106 109
106 181
106 217
106 219
106 310
106 326
106 349
106 361
106 382
106 393
106 403
106 414
106 421
106 446
106 474
106 554
106 591
106 613
106 618
106 630
106 755
107 715
108 110
108 164
108 181
108 207
108 220
108 246
108 277
108 324
108 371
108 414
108 559
108 618
108 623
108 640
108 700
109 112
109 113
109 138
109 141
109 146
109 153
109 168
109 181
109 184
109 259
109 272
109 277
109 309
109 324
109 327
109 349
109 360
109 361
109 362
109 367
109 372
109 379
109 380
109 391
109 393
109 394
109 414
109 423
109 431
109 437
109 451
109 452
109 474
109 477
109 502
109 511
109 530
109 542
109 545
109 562
109 597
109 599
109 603
109 609
109 623
109 629
109 640
109 645
109 650
109 659
109 663
109 690
109 706
109 712
109 726
109 744
110 112
110 113
110 118
110 128
110 138
110 146
110 156
110 164
110 168
110 182
110 184
110 190
110 220
110 243
110 246
110 247
110 259
110 274
110 277
110 298
110 315
110 324
110 327
110 333
110 350
110 355
110 359
110 360
110 367
110 371
110 372
110 375
110 384
110 390
110 414
110 426
110 437
110 446
110 448
110 451
110 453
110 466
110 474
110 477
110 509
110 511
110 514
110 516
110 518
110 530
110 542
110 552
110 554
110 562
110 564
110 577
110 588
110 597
110 599
110 618
110 645
110 650
110 655
110 659
110 661
110 663
110 680
110 685
110 700
110 706
110 711
110 726
110 749
111 125
111 147
111 162
111 189
111 204
111 236
111 272
111 274
111 313
111 383
111 409
111 428
111 445
111 487
111 506
111 583
111 670
111 707
111 708
111 721
112 113
112 127
112 134
112 138
112 141
112 144
112 146
112 147
112 150
112 153
112 173
112 174
112 179
112 181
112 184
112 190
112 196
112 203
112 213
112 217
112 220
112 234
112 245
112 259
112 260
112 269
112 277
112 280
112 287
112 289
112 290
112 298
112 302
112 308
112 309
112 315
112 316
112 319
112 327
112 328
112 333
112 349
112 360
112 362
112 367
112 372
112 376
112 379
112 380
112 386
112 412
112 414
112 420
112 431
112 435
112 446
112 448
112 451
112 454
112 457
112 466
112 475
112 477
112 479
112 483
112 490
112 494
112 502
112 506
112 509
112 511
112 524
112 526
112 542
112 544
112 550
112 551
112 552
112 556
112 562
112 574
112 581
112 585
112 597
112 599
112 601
112 603
112 606
112 609
112 610
112 613
112 615
112 616
112 618
112 623
112 625
112 629
112 632
112 633
112 634
112 639
112 640
112 645
112 650
112 654
112 663
112 672
112 678
112 679
112 680
112 689
112 690
112 691
112 694
112 696
112 700
112 702
112 706
112 711
112 716
112 719
112 725
112 726
112 729
112 736
112 744
113 126
113 127
113 146
113 153
113 156
113 184
113 243
113 259
113 277
113 309
113 315
113 327
113 332
113 380
113 386
113 394
113 414
113 431
113 477
113 511
113 562
113 564
113 570
113 585
113 597
113 603
113 616
113 623
113 629
113 633
113 640
113 679
113 700
113 711
113 726
113 744
114 116
114 128
114 142
114 149
114 160
114 212
114 218
114 249
114 262
114 270
114 305
114 324
114 335
114 338
114 369
114 371
114 401
114 407
114 409
114 423
114 427
114 430
114 448
114 453
114 470
114 471
114 476
114 481
114 491
114 492
114 503
114 507
114 517
114 551
114 563
114 617
114 632
114 655
114 683
114 745
115 170
115 204
115 217
115 272
115 280
115 303
115 339
115 343
115 394
115 423
115 428
115 506
115 507
115 508
115 534
115 584
115 614
115 673
115 700
115 701
115 721
116 128
116 136
116 141
116 142
116 148
116 149
116 160
116 192
116 212
116 223
116 234
116 243
116 251
116 262
116 270
116 273
116 306
116 324
116 329
116 335
116 337
116 338
116 369
116 370
116 371
116 407
116 423
116 428
116 430
116 447
116 448
116 462
116 468
116 470
116 471
116 474
116 476
116 480
116 491
116 492
116 495
116 503
116 521
116 527
116 544
116 546
116 551
116 555
116 563
116 568
116 574
116 594
116 615
116 632
116 635
116 643
116 655
116 657
116 667
116 676
116 683
116 729
116 736
116 743
116 745
116 754
116 760
117 282
117 671
118 156
118 157
118 246
118 247
118 272
118 326
118 359
118 360
118 363
118 429
118 487
118 508
118 647
118 682
118 685
118 726
118 753
119 617
120 297
120 327
120 349
120 429
120 463
120 514
120 565
120 726
120 749
121 232
121 302
121 389
121 553
121 579
121 648
121 655
121 698
121 700
121 730
121 758
122 165
122 169
122 189
122 196
122 202
122 220
122 271
122 278
122 302
122 316
122 324
122 329
122 349
122 353
122 377
122 384
122 389
122 394
122 414
122 443
122 498
122 500
122 517
122 521
122 553
122 569
122 572
122 644
122 655
122 661
122 700
122 730
122 737
122 758
123 129
123 147
123 151
123 162
123 167
123 169
123 177
123 180
123 194
123 214
123 217
123 235
123 245
123 251
123 272
123 283
123 289
123 308
123 317
123 328
123 332
123 336
123 367
123 373
123 378
123 394
123 436
123 437
123 456
123 469
123 475
123 488
123 491
123 493
123 506
123 508
123 516
123 518
123 520
123 531
123 541
123 555
123 562
123 566
123 568
123 570
123 604
123 607
123 622
123 631
123 634
123 638
123 642
123 662
123 669
123 682
123 688
123 717
123 720
123 745
123 746
123 747
123 754
124 215
124 239
124 247
124 268
124 269
124 405
124 433
124 586
124 628
124 682
124 727
125 162
125 272
125 291
125 629
125 641
125 707
125 708
125 721
126 144
126 161
126 187
126 196
126 217
126 243
126 259
126 269
126 285
126 296
126 325
126 358
126 380
126 414
126 419
126 437
126 452
126 477
126 480
126 487
126 503
126 508
126 522
126 548
126 570
126 581
126 621
126 670
126 674
126 678
126 696
126 700
126 726
126 728
126 739
126 750
126 758
127 134
127 138
127 146
127 182
127 259
127 280
127 309
127 333
127 341
127 349
127 362
127 367
127 394
127 414
127 425
127 439
127 446
127 477
127 490
127 506
127 509
127 511
127 542
127 552
127 562
127 585
127 597
127 599
127 609
127 613
127 618
127 629
127 645
127 659
127 682
127 689
127 700
127 719
127 726
128 136
128 142
128 146
128 148
128 149
128 155
128 160
128 164
128 168
128 192
128 211
128 212
128 216
128 218
128 220
128 223
128 226
128 227
128 234
128 242
128 243
128 246
128 262
128 265
128 267
128 270
128 273
128 274
128 281
128 290
128 306
128 324
128 329
128 337
128 338
128 348
128 350
128 351
128 353
128 369
128 370
128 371
128 384
128 401
128 407
128 414
128 423
128 427
128 430
128 440
128 443
128 447
128 448
128 453
128 462
128 468
128 470
128 471
128 474
128 476
128 480
128 491
128 492
128 500
128 502
128 503
128 508
128 517
128 521
128 524
128 527
128 544
128 546
128 551
128 563
128 574
128 578
128 594
128 607
128 614
128 617
128 627
128 632
128 642
128 652
128 655
128 660
128 661
128 663
128 667
128 682
128 683
128 693
128 723
128 729
128 736
128 745
128 760
129 147
129 162
129 167
129 180
129 194
129 214
129 223
129 245
129 246
129 251
129 272
129 279
129 308
129 309
129 317
129 332
129 333
129 335
129 367
129 383
129 415
129 439
129 447
129 456
129 480
129 488
129 495
129 504
129 511
129 518
129 530
129 531
129 566
129 570
129 618
129 622
129 629
129 661
129 669
129 682
129 688
129 697
129 698
129 700
129 717
129 726
129 745
129 754
130 303
130 444
130 542
130 752
131 157
131 273
131 358
131 549
131 607
131 640
131 660
131 700
131 753
132 151
132 163
132 169
132 196
132 249
132 251
132 272
132 279
132 303
132 325
132 389
132 441
132 487
132 494
132 501
132 548
132 621
132 642
132 655
132 663
132 678
132 686
132 700
132 707
132 709
132 732
132 739
132 758
133 142
133 186
133 191
133 199
133 208
133 228
133 251
133 292
133 347
133 355
133 375
133 418
133 454
133 456
133 516
133 524
133 562
133 570
133 590
133 622
133 643
133 669
133 751
134 138
134 146
134 259
134 290
134 309
134 315
134 327
134 371
134 414
134 446
134 477
134 479
134 490
134 509
134 511
134 562
134 597
134 609
134 623
134 629
134 650
134 659
134 680
134 706
134 719
134 726
135 138
135 140
135 148
135 208
135 228
135 418
135 430
135 446
135 456
135 474
135 524
135 648
135 676
135 692
135 715
135 717
135 751
136 138
136 140
136 142
136 149
136 160
136 191
136 273
136 292
136 355
136 369
136 371
136 407
136 418
136 430
136 447
136 448
136 462
136 474
136 476
136 477
136 491
136 495
136 512
136 524
136 536
136 607
136 632
136 643
136 676
136 723
137 144
137 163
137 217
137 220
137 222
137 245
137 295
137 316
137 324
137 333
137 367
137 371
137 410
137 425
137 452
137 466
137 494
137 517
137 529
137 533
137 550
137 587
137 593
137 601
137 613
137 617
137 655
137 670
137 678
137 739
137 751
137 758
138 140
138 141
138 146
138 148
138 150
138 160
138 174
138 181
138 184
138 186
138 190
138 191
138 217
138 230
138 237
138 251
138 277
138 283
138 295
138 298
138 308
138 309
138 315
138 319
138 333
138 335
138 361
138 362
138 367
138 369
138 372
138 375
138 386
138 414
138 415
138 418
138 446
138 451
138 468
138 473
138 474
138 477
138 483
138 490
138 495
138 503
138 509
138 511
138 512
138 524
138 535
138 554
138 555
138 562
138 581
138 597
138 599
138 615
138 616
138 622
138 623
138 629
138 645
138 648
138 650
138 654
138 657
138 659
138 661
138 679
138 682
138 691
138 692
138 706
138 715
138 739
138 751
139 185
139 210
139 233
139 288
139 301
139 432
139 452
139 484
139 506
139 522
139 536
139 582
139 748
140 142
140 177
140 184
140 186
140 189
140 191
140 199
140 204
140 208
140 245
140 251
140 264
140 283
140 295
140 299
140 303
140 308
140 315
140 332
140 355
140 378
140 385
140 386
140 414
140 436
140 456
140 469
140 474
140 477
140 488
140 495
140 512
140 518
140 531
140 535
140 536
140 555
140 557
140 570
140 584
140 622
140 648
140 676
140 679
140 682
140 688
140 717
140 746
140 748
141 142
141 146
141 147
141 148
141 150
141 153
141 160
141 166
141 170
141 177
141 180
141 184
141 189
141 191
141 199
141 204
141 217
141 230
141 242
141 245
141 246
141 251
141 264
141 272
141 289
141 292
141 298
141 309
141 315
141 317
141 319
141 322
141 335
141 367
141 369
141 372
141 377
141 383
141 386
141 407
141 412
141 414
141 418
141 430
141 436
141 446
141 456
141 472
141 473
141 476
141 477
141 478
141 480
141 488
141 491
141 495
141 503
141 520
141 524
141 536
141 542
141 551
141 555
141 566
141 568
141 570
141 581
141 584
141 594
141 597
141 609
141 615
141 616
141 622
141 629
141 635
141 638
141 645
141 648
141 650
141 654
141 667
141 673
141 678
141 679
141 689
141 690
141 706
141 711
141 721
141 724
141 729
141 733
141 736
141 747
142 148
142 149
142 160
142 184
142 192
142 204
142 217
142 235
142 251
142 262
142 267
142 273
142 292
142 295
142 299
142 309
142 324
142 329
142 335
142 337
142 355
142 367
142 369
142 370
142 371
142 407
142 418
142 423
142 448
142 462
142 470
142 471
142 473
142 474
142 476
142 477
142 480
142 482
142 491
142 492
142 495
142 503
142 524
142 535
142 551
142 555
142 563
142 568
142 584
142 590
142 594
142 607
142 616
142 629
142 632
142 638
142 643
142 655
142 667
142 676
142 700
142 723
142 736
142 743
142 745
142 758
142 759
143 165
143 196
143 207
143 220
143 259
143 263
143 269
143 274
143 290
143 302
143 324
143 371
143 414
143 437
143 504
143 526
143 618
143 640
143 661
143 700
143 726
143 753
144 152
144 155
144 163
144 193
144 196
144 217
144 219
144 223
144 230
144 245
144 269
144 295
144 302
144 304
144 322
144 367
144 398
144 400
144 410
144 425
144 462
144 487
144 494
144 507
144 529
144 533
144 548
144 551
144 581
144 587
144 593
144 596
144 613
144 615
144 629
144 637
144 655
144 670
144 673
144 678
144 696
144 698
144 706
144 707
144 709
144 721
144 722
144 731
144 739
144 750
145 163
145 174
145 193
145 222
145 227
145 230
145 295
145 367
145 410
145 494
145 533
145 593
145 637
145 648
145 670
145 696
145 733
145 739
145 756
146 147
146 153
146 156
146 162
146 168
146 183
146 184
146 190
146 204
146 210
146 213
146 243
146 249
146 259
146 269
146 273
146 274
146 277
146 290
146 303
146 309
146 315
146 316
146 319
146 322
146 323
146 324
146 327
146 362
146 363
146 367
146 371
146 372
146 379
146 384
146 386
146 412
146 414
146 415
146 423
146 425
146 430
146 435
146 437
146 438
146 442
146 446
146 452
146 466
146 474
146 475
146 477
146 479
146 490
146 492
146 500
146 502
146 508
146 509
146 511
146 516
146 520
146 526
146 530
146 541
146 542
146 549
146 559
146 562
146 566
146 570
146 582
146 586
146 597
146 599
146 601
146 609
146 616
146 617
146 618
146 621
146 623
146 627
146 629
146 640
146 645
146 650
146 656
146 663
146 682
146 685
146 690
146 691
146 700
146 706
146 707
146 719
146 726
146 736
146 753
146 754
147 151
147 156
147 161
147 167
147 169
147 173
147 177
147 180
147 182
147 194
147 196
147 204
147 205
147 214
147 220
147 235
147 241
147 242
147 244
147 245
147 246
147 249
147 251
147 260
147 272
147 273
147 279
147 285
147 289
147 290
147 302
147 308
147 309
147 317
147 324
147 328
147 332
147 336
147 339
147 349
147 358
147 369
147 373
147 389
147 409
147 416
147 423
147 425
147 433
147 435
147 436
147 437
147 439
147 441
147 453
147 456
147 469
147 470
147 487
147 488
147 493
147 494
147 506
147 507
147 508
147 511
147 516
147 517
147 518
147 520
147 526
147 531
147 541
147 546
147 549
147 551
147 555
147 557
147 566
147 567
147 568
147 570
147 579
147 583
147 588
147 601
147 607
147 611
147 615
147 618
147 621
147 622
147 628
147 629
147 631
147 634
147 638
147 642
147 647
147 661
147 662
147 665
147 678
147 682
147 688
147 700
147 708
147 717
147 721
147 723
147 726
147 741
147 745
147 747
148 156
148 160
148 203
148 204
148 217
148 228
148 242
148 267
148 272
148 292
148 299
148 319
148 329
148 365
148 369
148 371
148 372
148 418
148 423
148 468
148 474
148 495
148 524
148 615
148 632
148 657
148 667
148 676
148 729
149 155
149 160
149 164
149 212
149 218
149 223
149 226
149 243
149 260
149 262
149 265
149 270
149 273
149 274
149 306
149 329
149 338
149 340
149 348
149 351
149 358
149 359
149 370
149 371
149 407
149 427
149 430
149 448
149 462
149 470
149 471
149 474
149 476
149 485
149 491
149 492
149 527
149 544
149 551
149 559
149 560
149 563
149 574
149 578
149 607
149 611
149 615
149 632
149 655
149 660
149 700
149 723
149 729
149 736
149 753
149 760
150 170
150 171
150 182
150 184
150 190
150 197
150 199
150 204
150 217
150 238
150 242
150 246
150 257
150 272
150 289
150 319
150 326
150 333
150 335
150 349
150 361
150 367
150 369
150 371
150 375
150 378
150 384
150 387
150 415
150 418
150 425
150 438
150 439
150 446
150 458
150 465
150 474
150 475
150 477
150 480
150 483
150 506
150 524
150 536
150 554
150 559
150 570
150 581
150 582
150 592
150 613
150 614
150 615
150 616
150 618
150 645
150 648
150 657
150 660
150 669
150 682
150 700
150 706
150 710
150 713
150 715
150 724
150 727
150 729
150 733
150 756
150 758
151 172
151 180
151 194
151 204
151 205
151 214
151 235
151 244
151 249
151 251
151 279
151 296
151 304
151 313
151 317
151 328
151 356
151 371
151 373
151 394
151 409
151 433
151 441
151 456
151 470
151 487
151 491
151 508
151 518
151 520
151 531
151 541
151 555
151 566
151 570
151 583
151 584
151 607
151 615
151 621
151 622
151 626
151 629
151 631
151 638
151 642
151 647
151 655
151 663
151 700
151 717
151 745
151 746
151 747
151 749
152 170
152 217
152 272
152 322
152 377
152 398
152 581
152 696
152 706
153 164
153 242
153 259
153 261
153 269
153 270
153 302
153 324
153 327
153 337
153 349
153 362
153 367
153 371
153 379
153 380
153 391
153 394
153 404
153 409
153 414
153 415
153 423
153 426
153 437
153 438
153 451
153 452
153 457
153 477
153 492
153 494
153 501
153 502
153 508
153 511
153 551
153 562
153 564
153 578
153 583
153 585
153 597
153 600
153 603
153 606
153 610
153 615
153 616
153 617
153 623
153 627
153 629
153 633
153 640
153 645
153 649
153 651
153 656
153 659
153 660
153 661
153 663
153 678
153 682
153 689
153 700
153 706
153 711
153 712
153 716
153 724
153 725
153 726
153 727
153 737
153 743
153 744
153 748
154 165
154 527
155 259
155 273
155 285
155 296
155 305
155 324
155 338
155 340
155 348
155 351
155 360
155 399
155 448
155 470
155 494
155 527
155 544
155 560
155 563
155 578
155 596
155 617
155 655
155 663
155 683
155 700
155 707
155 760
156 159
156 168
156 182
156 207
156 241
156 243
156 246
156 247
156 248
156 260
156 297
156 317
156 343
156 349
156 355
156 359
156 372
156 390
156 414
156 425
156 426
156 429
156 435
156 438
156 439
156 447
156 458
156 487
156 499
156 501
156 510
156 511
156 541
156 559
156 577
156 580
156 582
156 588
156 601
156 617
156 618
156 623
156 645
156 661
156 678
156 680
156 685
156 700
156 753
156 754
157 164
157 196
157 212
157 223
157 237
157 243
157 246
157 265
157 270
157 273
157 297
157 324
157 338
157 350
157 358
157 359
157 369
157 371
157 389
157 426
157 429
157 435
157 438
157 448
157 469
157 485
157 501
157 607
157 618
157 660
157 680
157 682
157 726
158 349
159 168
159 179
159 220
159 246
159 247
159 304
159 349
159 355
159 378
159 425
159 426
159 461
159 514
159 530
159 547
159 559
159 577
159 599
159 617
159 618
159 623
159 666
159 680
159 681
159 685
159 726
160 190
160 191
160 192
160 212
160 260
160 262
160 273
160 292
160 306
160 315
160 324
160 329
160 335
160 337
160 338
160 369
160 370
160 371
160 375
160 386
160 407
160 423
160 426
160 430
160 447
160 448
160 456
160 462
160 468
160 470
160 474
160 476
160 477
160 480
160 491
160 495
160 503
160 551
160 555
160 562
160 563
160 594
160 615
160 617
160 622
160 629
160 632
160 638
160 643
160 648
160 650
160 655
160 667
160 676
160 683
160 693
160 700
160 723
160 729
160 745
160 760
161 206
161 225
161 236
161 251
161 252
161 269
161 275
161 285
161 304
161 325
161 330
161 336
161 354
161 358
161 398
161 409
161 415
161 417
161 424
161 433
161 437
161 441
161 445
161 487
161 489
161 494
161 529
161 547
161 548
161 557
161 581
161 607
161 620
161 621
161 636
161 647
161 670
161 674
161 680
161 696
161 700
161 707
161 709
161 728
161 739
161 746
161 750
161 758
162 183
162 189
162 204
162 210
162 229
162 236
162 239
162 244
162 245
162 250
162 261
162 272
162 274
162 280
162 285
162 287
162 293
162 296
162 299
162 313
162 314
162 339
162 383
162 416
162 419
162 428
162 441
162 445
162 475
162 517
162 542
162 549
162 551
162 556
162 576
162 583
162 584
162 600
162 627
162 628
162 642
162 649
162 656
162 705
162 707
162 708
162 721
162 726
162 736
162 741
163 169
163 193
163 222
163 269
163 272
163 284
163 295
163 336
163 346
163 365
163 398
163 399
163 410
163 417
163 425
163 452
163 494
163 529
163 533
163 581
163 587
163 593
163 595
163 615
163 637
163 648
163 670
163 673
163 678
163 691
163 696
163 707
163 709
163 733
163 739
163 750
163 758
164 168
164 191
164 218
164 220
164 237
164 243
164 247
164 249
164 270
164 272
164 273
164 306
164 324
164 329
164 338
164 348
164 349
164 350
164 351
164 370
164 371
164 390
164 414
164 426
164 437
164 438
164 441
164 448
164 453
164 462
164 466
164 526
164 563
164 581
164 582
164 601
164 607
164 612
164 617
164 621
164 649
164 660
164 666
164 677
164 680
164 682
164 685
164 711
164 736
165 189
165 196
165 202
165 222
165 271
165 290
165 302
165 324
165 329
165 342
165 377
165 389
165 401
165 470
165 473
165 482
165 500
165 508
165 517
165 526
165 527
165 530
165 535
165 538
165 544
165 546
165 553
165 572
165 579
165 584
165 590
165 621
165 623
165 644
165 655
165 659
165 670
165 678
165 686
165 696
165 698
165 707
165 711
165 739
165 758
166 217
166 246
167 180
167 194
167 235
167 245
167 308
167 383
167 439
167 485
167 493
167 506
167 566
167 570
167 607
167 611
167 620
167 655
167 697
167 746
167 754
168 171
168 207
168 214
168 218
168 246
168 273
168 289
168 297
168 317
168 327
168 349
168 350
168 359
168 371
168 390
168 426
168 429
168 440
168 461
168 504
168 516
168 526
168 552
168 559
168 577
168 618
168 621
168 647
168 663
168 672
168 675
168 680
168 685
168 724
169 171
169 177
169 182
169 189
169 194
169 196
169 217
169 242
169 245
169 251
169 272
169 287
169 302
169 317
169 336
169 349
169 365
169 367
169 369
169 389
169 398
169 425
169 456
169 461
169 469
169 478
169 487
169 488
169 494
169 506
169 508
169 516
169 517
169 518
169 533
169 544
169 546
169 555
169 566
169 581
169 587
169 593
169 607
169 618
169 621
169 622
169 629
169 655
169 662
169 678
169 682
169 685
169 688
169 696
169 717
169 726
169 737
169 739
169 745
169 747
169 754
169 758
170 203
170 213
170 217
170 246
170 260
170 295
170 313
170 315
170 321
170 361
170 372
170 387
170 398
170 400
170 403
170 415
170 427
170 433
170 434
170 438
170 441
170 450
170 466
170 479
170 483
170 487
170 495
170 508
170 510
170 541
170 548
170 553
170 560
170 592
170 613
170 615
170 622
170 627
170 645
170 655
170 680
170 706
170 707
170 726
171 182
171 238
171 302
171 333
171 384
171 427
171 437
171 439
171 440
171 442
171 458
171 460
171 465
171 466
171 504
171 506
171 526
171 554
171 559
171 582
171 618
171 627
171 657
171 661
171 663
171 700
171 710
171 711
171 712
171 713
171 755
171 756
172 251
172 394
172 441
172 476
172 508
172 520
172 531
172 541
172 583
172 638
172 642
172 682
172 700
173 272
173 280
173 290
173 333
173 336
173 349
173 367
173 383
173 425
173 439
173 475
173 484
173 507
173 530
173 550
173 601
173 655
173 678
174 199
174 203
174 217
174 222
174 230
174 237
174 255
174 271
174 290
174 292
174 295
174 298
174 302
174 316
174 322
174 333
174 346
174 347
174 355
174 361
174 365
174 367
174 375
174 377
174 378
174 384
174 412
174 415
174 418
174 433
174 443
174 459
174 472
174 473
174 475
174 477
174 512
174 513
174 524
174 533
174 542
174 554
174 555
174 581
174 615
174 616
174 625
174 637
174 645
174 648
174 655
174 657
174 670
174 678
174 696
174 706
174 733
174 737
174 758
175 246
175 653
175 724
176 187
177 186
177 189
177 192
177 204
177 205
177 217
177 223
177 251
177 271
177 272
177 279
177 332
177 335
177 369
177 418
177 436
177 456
177 476
177 480
177 491
177 503
177 516
177 520
177 524
177 536
177 555
177 568
177 570
177 584
177 607
177 615
177 622
177 638
177 700
177 717
177 747
177 758
179 246
179 345
179 349
179 355
179 362
179 367
179 461
179 540
179 577
179 599
179 629
179 666
179 672
179 681
179 729
180 189
180 194
180 204
180 235
180 236
180 245
180 251
180 274
180 308
180 328
180 332
180 336
180 383
180 389
180 436
180 456
180 476
180 488
180 493
180 511
180 516
180 518
180 520
180 531
180 541
180 555
180 566
180 568
180 570
180 601
180 615
180 622
180 629
180 631
180 638
180 642
180 682
180 688
180 700
180 705
180 717
180 721
180 746
180 747
180 754
181 184
181 190
181 246
181 287
181 298
181 315
181 355
181 361
181 372
181 393
181 412
181 414
181 421
181 446
181 474
181 483
181 511
181 513
181 524
181 554
181 562
181 618
181 622
181 629
181 643
181 657
181 700
182 185
182 190
182 197
182 207
182 209
182 210
182 233
182 238
182 241
182 246
182 254
182 255
182 257
182 276
182 280
182 281
182 284
182 288
182 289
182 295
182 301
182 316
182 317
182 333
182 336
182 349
182 367
182 371
182 374
182 375
182 377
182 383
182 384
182 387
182 390
182 394
182 406
182 412
182 413
182 415
182 418
182 421
182 425
182 429
182 437
182 439
182 440
182 444
182 446
182 458
182 465
182 466
182 474
182 475
182 480
182 483
182 484
182 504
182 506
182 513
182 516
182 522
182 524
182 526
182 536
182 542
182 554
182 559
182 566
182 568
182 582
182 588
182 592
182 606
182 615
182 618
182 622
182 629
182 637
182 657
182 661
182 665
182 679
182 687
182 688
182 700
182 710
182 713
182 715
182 726
182 727
182 738
182 754
182 755
182 756
183 505
183 508
183 543
183 586
183 627
183 736
184 186
184 190
184 191
184 237
184 259
184 273
184 277
184 298
184 309
184 315
184 319
184 327
184 335
184 346
184 355
184 360
184 361
184 367
184 372
184 375
184 378
184 384
184 386
184 400
184 412
184 414
184 418
184 423
184 430
184 446
184 450
184 465
184 474
184 477
184 483
184 490
184 495
184 509
184 511
184 536
184 542
184 555
184 562
184 597
184 615
184 616
184 623
184 629
184 635
184 641
184 645
184 650
184 657
184 659
184 669
184 679
184 690
184 700
184 706
184 711
184 726
184 727
184 743
185 197
185 205
185 210
185 224
185 233
185 236
185 254
185 257
185 269
185 280
185 288
185 301
185 374
185 384
185 387
185 394
185 412
185 413
185 415
185 418
185 432
185 437
185 458
185 480
185 484
185 504
185 506
185 522
185 524
185 536
185 554
185 580
185 582
185 615
185 661
185 668
185 700
185 710
185 713
185 727
185 748
185 756
185 757
186 208
186 214
186 217
186 221
186 237
186 251
186 332
186 378
186 456
186 472
186 474
186 477
186 483
186 488
186 516
186 562
186 568
186 570
186 620
186 622
186 631
186 638
186 669
186 717
186 747
186 751
186 754
188 272
188 383
188 400
188 450
188 581
188 596
188 636
188 707
189 204
189 217
189 235
189 236
189 249
189 250
189 251
189 253
189 261
189 264
189 272
189 280
189 299
189 302
189 313
189 314
189 339
189 355
189 407
189 409
189 416
189 418
189 419
189 428
189 445
189 455
189 473
189 476
189 478
189 480
189 482
189 488
189 520
189 524
189 526
189 530
189 555
189 583
189 584
189 597
189 621
189 644
189 655
189 705
189 708
189 721
189 741
189 759
190 197
190 208
190 228
190 255
190 257
190 276
190 298
190 315
190 327
190 332
190 333
190 355
190 372
190 375
190 387
190 394
190 406
190 412
190 413
190 414
190 415
190 418
190 437
190 446
190 474
190 477
190 480
190 483
190 490
190 504
190 506
190 524
190 527
190 536
190 554
190 555
190 559
190 562
190 580
190 581
190 582
190 588
190 597
190 599
190 615
190 616
190 618
190 623
190 645
190 649
190 657
190 679
190 700
190 713
190 715
190 726
190 727
190 738
190 755
191 199
191 204
191 217
191 228
191 237
191 272
191 278
191 283
191 292
191 299
191 302
191 315
191 347
191 355
191 372
191 385
191 394
191 407
191 418
191 430
191 437
191 447
191 472
191 474
191 477
191 480
191 482
191 483
191 495
191 512
191 524
191 535
191 562
191 590
191 594
191 602
191 615
191 643
191 650
191 655
191 669
191 676
191 679
191 723
191 726
191 737
191 758
192 204
192 217
192 251
192 262
192 272
192 274
192 299
192 314
192 324
192 369
192 371
192 407
192 418
192 430
192 446
192 448
192 470
192 471
192 474
192 476
192 480
192 491
192 492
192 503
192 517
192 542
192 551
192 555
192 568
192 584
192 615
192 632
192 638
192 655
192 676
192 691
192 692
192 729
192 745
192 747
193 217
193 222
193 228
193 230
193 253
193 269
193 295
193 346
193 365
193 377
193 398
193 399
193 417
193 418
193 455
193 456
193 494
193 512
193 524
193 529
193 533
193 581
193 584
193 593
193 595
193 615
193 648
193 667
193 670
193 673
193 674
193 678
193 691
193 696
193 706
193 707
193 709
193 733
193 739
193 758
194 217
194 235
194 245
194 251
194 272
194 279
194 308
194 328
194 367
194 383
194 394
194 456
194 478
194 488
194 506
194 508
194 518
194 520
194 531
194 555
194 566
194 568
194 570
194 622
194 631
194 638
194 642
194 662
194 688
194 717
194 747
194 754
195 217
195 246
195 275
195 303
195 417
195 426
195 461
195 726
196 202
196 243
196 259
196 269
196 270
196 285
196 286
196 290
196 302
196 306
196 317
196 324
196 358
196 360
196 363
196 367
196 377
196 411
196 416
196 469
196 470
196 482
196 489
196 500
196 508
196 510
196 517
196 521
196 529
196 535
196 544
196 548
196 553
196 559
196 570
196 572
196 579
196 587
196 590
196 607
196 617
196 621
196 627
196 640
196 644
196 655
196 657
196 670
196 674
196 678
196 682
196 686
196 698
196 700
196 707
196 728
196 737
196 749
196 750
196 758
197 208
197 217
197 238
197 251
197 255
197 257
197 276
197 281
197 333
197 346
197 365
197 372
197 374
197 375
197 384
197 387
197 406
197 412
197 413
197 415
197 418
197 437
197 458
197 474
197 480
197 483
197 506
197 524
197 526
197 536
197 554
197 580
197 582
197 592
197 622
197 635
197 645
197 650
197 657
197 679
197 700
197 715
197 727
197 738
198 361
199 208
199 217
199 228
199 230
199 237
199 283
199 287
199 290
199 292
199 315
199 327
199 347
199 355
199 359
199 385
199 390
199 400
199 412
199 415
199 418
199 429
199 450
199 462
199 468
199 472
199 474
199 483
199 495
199 516
199 524
199 535
199 547
199 553
199 554
199 562
199 584
199 590
199 622
199 645
199 650
199 669
199 671
199 682
199 692
199 726
199 758
200 259
201 272
202 208
202 226
202 249
202 259
202 271
202 302
202 316
202 349
202 389
202 394
202 433
202 437
202 443
202 500
202 526
202 655
202 678
202 730
202 737
202 758
203 217
203 230
203 272
203 295
203 333
203 346
203 365
203 367
203 418
203 478
203 494
203 524
203 581
203 593
203 637
203 645
203 670
203 678
203 696
203 709
203 733
203 739
204 235
204 236
204 239
204 249
204 250
204 251
204 253
204 261
204 264
204 272
204 280
204 285
204 293
204 295
204 299
204 302
204 313
204 314
204 328
204 335
204 339
204 349
204 367
204 383
204 394
204 407
204 409
204 417
204 418
204 419
204 428
204 436
204 445
204 456
204 470
204 472
204 473
204 476
204 488
204 491
204 495
204 506
204 507
204 512
204 520
204 530
204 549
204 555
204 557
204 566
204 568
204 570
204 576
204 583
204 584
204 597
204 608
204 615
204 622
204 628
204 629
204 632
204 635
204 638
204 649
204 655
204 680
204 690
204 697
204 700
204 705
204 708
204 721
204 729
204 741
204 747
204 758
204 759
205 245
205 249
205 251
205 328
205 373
205 394
205 409
205 430
205 456
205 476
205 488
205 506
205 520
205 541
205 555
205 566
205 604
205 622
205 631
205 638
205 700
205 717
205 747
205 754
206 249
206 304
206 408
206 487
206 596
206 647
206 663
206 728
206 750
207 214
207 243
207 246
207 247
207 274
207 297
207 304
207 308
207 315
207 317
207 349
207 355
207 359
207 371
207 390
207 414
207 439
207 547
207 559
207 562
207 588
207 617
207 618
207 640
207 661
207 680
207 726
207 749
208 217
208 220
208 237
208 257
208 272
208 278
208 290
208 292
208 295
208 302
208 355
208 385
208 418
208 466
208 468
208 473
208 474
208 524
208 535
208 550
208 554
208 562
208 590
208 601
208 648
208 655
208 680
208 692
208 700
208 701
208 751
208 758
208 759
209 439
209 506
209 524
209 547
209 559
209 618
209 661
209 726
209 753
209 759
210 224
210 233
210 254
210 285
210 288
210 301
210 358
210 384
210 394
210 418
210 432
210 437
210 452
210 458
210 477
210 484
210 487
210 506
210 522
210 582
210 656
210 661
210 678
210 700
210 710
210 743
210 748
210 756
210 757
211 270
211 324
211 371
211 423
211 427
211 430
211 448
211 460
211 491
211 492
211 494
211 551
211 563
211 617
211 655
211 678
211 736
211 745
211 756
212 223
212 226
212 227
212 251
212 262
212 274
212 324
212 329
212 338
212 350
212 369
212 370
212 371
212 389
212 401
212 423
212 427
212 448
212 453
212 456
212 476
212 491
212 551
212 584
212 598
212 617
212 632
212 737
213 259
213 268
213 360
213 367
213 379
213 414
213 457
213 490
213 627
213 629
213 633
213 678
213 711
213 726
214 220
214 245
214 246
214 251
214 272
214 308
214 317
214 332
214 349
214 389
214 414
214 456
214 466
214 488
214 504
214 516
214 518
214 520
214 530
214 531
214 552
214 555
214 566
214 570
214 618
214 622
214 626
214 629
214 638
214 655
214 661
214 682
214 700
214 711
214 717
214 726
214 754
216 220
216 273
216 324
216 401
216 546
216 550
216 606
216 617
216 702
216 726
217 219
217 221
217 222
217 230
217 236
217 237
217 242
217 245
217 246
217 249
217 250
217 251
217 253
217 255
217 260
217 262
217 264
217 269
217 271
217 272
217 274
217 275
217 276
217 277
217 278
217 286
217 289
217 290
217 295
217 298
217 304
217 314
217 315
217 316
217 317
217 319
217 322
217 332
217 346
217 355
217 356
217 358
217 361
217 365
217 366
217 367
217 370
217 372
217 373
217 375
217 381
217 383
217 387
217 389
217 392
217 398
217 400
217 402
217 403
217 406
217 407
217 414
217 417
217 418
217 427
217 428
217 438
217 445
217 446
217 450
217 455
217 458
217 465
217 472
217 477
217 478
217 480
217 488
217 491
217 506
217 516
217 524
217 526
217 529
217 530
217 533
217 548
217 550
217 551
217 552
217 570
217 572
217 581
217 583
217 584
217 591
217 592
217 593
217 596
217 601
217 602
217 609
217 616
217 620
217 622
217 623
217 631
217 632
217 641
217 643
217 645
217 647
217 648
217 650
217 653
217 662
217 663
217 667
217 670
217 673
217 674
217 678
217 682
217 688
217 691
217 696
217 706
217 707
217 708
217 709
217 714
217 715
217 717
217 733
217 737
217 739
217 750
217 758
218 220
218 226
218 260
218 262
218 273
218 274
218 277
218 324
218 326
218 329
218 349
218 350
218 370
218 371
218 385
218 401
218 427
218 453
218 462
218 470
218 546
218 607
218 617
218 655
218 682
218 760
219 356
219 361
219 382
219 393
219 403
219 421
219 446
219 608
219 613
219 615
219 630
219 646
219 709
219 722
219 739
220 223
220 246
220 247
220 277
220 278
220 280
220 289
220 290
220 306
220 316
220 324
220 329
220 347
220 350
220 371
220 384
220 390
220 414
220 426
220 429
220 431
220 435
220 453
220 461
220 466
220 514
220 516
220 526
220 546
220 550
220 601
220 606
220 607
220 625
220 648
220 680
220 682
220 685
220 692
220 701
220 736
220 751
221 245
221 249
221 251
221 259
221 272
221 299
221 378
221 418
221 436
221 451
221 456
221 488
221 491
221 531
221 555
221 570
221 584
221 593
221 615
221 622
221 638
221 688
221 717
221 747
222 230
222 245
222 295
222 316
222 322
222 336
222 346
222 365
222 367
222 410
222 417
222 425
222 446
222 458
222 494
222 500
222 503
222 529
222 533
222 581
222 593
222 595
222 613
222 615
222 621
222 627
222 637
222 648
222 655
222 668
222 670
222 678
222 691
222 696
222 706
222 707
222 709
222 733
222 739
222 750
222 758
223 245
223 246
223 251
223 260
223 262
223 265
223 273
223 306
223 308
223 324
223 338
223 369
223 400
223 430
223 444
223 447
223 448
223 450
223 462
223 476
223 481
223 491
223 509
223 527
223 551
223 555
223 574
223 578
223 607
223 617
223 618
223 621
223 629
223 632
223 634
223 650
223 662
223 708
223 723
223 745
223 750
223 758
223 760
224 233
224 236
224 288
224 301
224 384
224 394
224 437
224 452
224 506
224 522
224 582
224 700
224 748
225 252
225 275
225 285
225 304
225 330
225 358
225 433
225 487
225 548
225 636
225 647
225 658
225 750
226 242
226 262
226 270
226 273
226 274
226 277
226 324
226 329
226 336
226 348
226 349
226 350
226 369
226 370
226 371
226 401
226 426
226 453
226 470
226 518
226 546
226 563
226 590
226 598
226 607
226 615
226 632
226 652
226 676
226 683
226 760
227 324
227 365
227 410
227 417
227 593
227 670
228 237
228 251
228 257
228 272
228 292
228 295
228 335
228 347
228 349
228 355
228 372
228 383
228 418
228 472
228 474
228 495
228 513
228 524
228 562
228 617
228 661
228 751
229 249
229 261
229 272
229 285
229 296
229 307
229 313
229 339
229 352
229 379
229 409
229 416
229 419
229 470
229 507
229 549
229 576
229 583
229 612
229 628
229 707
229 721
230 255
230 264
230 295
230 322
230 346
230 347
230 365
230 367
230 369
230 372
230 375
230 410
230 415
230 418
230 425
230 446
230 474
230 478
230 480
230 494
230 512
230 524
230 533
230 555
230 581
230 584
230 593
230 595
230 621
230 622
230 637
230 645
230 648
230 670
230 673
230 678
230 691
230 696
230 706
230 709
230 733
230 739
230 758
231 423
231 537
232 260
232 289
232 308
232 377
232 435
232 526
232 553
232 579
232 634
232 644
232 698
232 723
233 238
233 254
233 265
233 269
233 288
233 301
233 304
233 384
233 394
233 418
233 432
233 437
233 448
233 452
233 458
233 484
233 486
233 506
233 522
233 529
233 549
233 559
233 569
233 582
233 627
233 647
233 656
233 659
233 670
233 678
233 700
233 710
233 748
233 757
234 324
234 423
234 440
234 474
234 598
234 617
234 661
234 683
234 700
235 250
235 251
235 279
235 299
235 328
235 365
235 373
235 418
235 436
235 456
235 478
235 493
235 518
235 520
235 524
235 555
235 566
235 570
235 581
235 584
235 597
235 620
235 622
235 626
235 638
235 655
235 662
235 688
235 717
235 747
235 754
236 249
236 250
236 255
236 261
236 269
236 285
236 299
236 313
236 314
236 339
236 355
236 358
236 369
236 374
236 394
236 409
236 419
236 428
236 430
236 445
236 446
236 456
236 470
236 474
236 476
236 480
236 491
236 506
236 507
236 530
236 544
236 547
236 549
236 555
236 557
236 583
236 584
236 615
236 620
236 670
236 700
236 705
236 708
236 721
236 741
236 759
237 253
237 272
237 278
237 292
237 295
237 298
237 315
237 335
237 347
237 355
237 372
237 378
237 385
237 408
237 415
237 418
237 455
237 472
237 474
237 477
237 479
237 483
237 495
237 496
237 503
237 512
237 513
237 515
237 516
237 524
237 562
237 584
237 622
237 635
237 643
237 649
237 657
237 661
237 667
237 677
237 682
237 692
237 723
237 741
238 255
238 257
238 276
238 281
238 284
238 288
238 289
238 301
238 333
238 374
238 375
238 384
238 387
238 394
238 406
238 412
238 413
238 415
238 418
238 437
238 440
238 444
238 458
238 465
238 466
238 475
238 483
238 504
238 506
238 524
238 526
238 536
238 554
238 559
238 582
238 592
238 618
238 657
238 661
238 668
238 687
238 700
238 710
238 713
238 715
238 727
238 738
238 756
239 245
239 249
239 251
239 260
239 262
239 269
239 270
239 272
239 273
239 285
239 302
239 303
239 306
239 324
239 329
239 349
239 389
239 398
239 409
239 417
239 428
239 430
239 433
239 445
239 447
239 451
239 470
239 479
239 481
239 488
239 491
239 500
239 507
239 552
239 583
239 601
239 627
239 647
239 655
239 660
239 678
239 711
239 721
239 736
240 259
240 296
240 307
240 357
240 360
240 409
240 477
240 486
240 641
241 257
241 268
241 287
241 333
241 336
241 377
241 415
241 439
241 504
241 506
241 516
241 582
241 588
241 618
241 657
241 661
241 664
241 698
241 700
241 713
242 260
242 262
242 273
242 306
242 329
242 333
242 349
242 367
242 369
242 371
242 423
242 433
242 448
242 470
242 471
242 478
242 491
242 503
242 517
242 527
242 542
242 544
242 547
242 551
242 563
242 613
242 615
242 617
242 622
242 645
242 655
242 667
242 676
242 700
242 707
242 723
242 736
242 737
242 745
243 246
243 251
243 269
243 270
243 273
243 283
243 296
243 306
243 315
243 317
243 324
243 338
243 355
243 369
243 371
243 401
243 414
243 427
243 430
243 436
243 438
243 447
243 448
243 462
243 469
243 470
243 474
243 476
243 487
243 488
243 491
243 495
243 504
243 529
243 541
243 546
243 559
243 568
243 574
243 580
243 588
243 607
243 617
243 618
243 621
243 647
243 655
243 657
243 658
243 660
243 678
243 680
243 682
243 685
243 686
243 700
243 726
243 749
243 753
243 760
244 245
244 249
244 251
244 272
244 274
244 279
244 308
244 313
244 328
244 394
244 441
244 456
244 481
244 516
244 518
244 520
244 531
244 541
244 555
244 566
244 622
244 638
244 642
244 655
244 717
244 721
245 251
245 259
245 269
245 283
245 303
245 306
245 308
245 317
245 328
245 336
245 361
245 367
245 399
245 431
245 436
245 437
245 444
245 456
245 469
245 488
245 493
245 494
245 506
245 508
245 511
245 516
245 518
245 520
245 531
245 541
245 542
245 544
245 547
245 551
245 555
245 566
245 570
245 607
245 618
245 622
245 627
245 629
245 631
245 634
245 637
245 638
245 642
245 661
245 662
245 663
245 670
245 678
245 682
245 685
245 688
245 706
245 707
245 717
245 726
245 747
245 749
245 754
246 247
246 269
246 273
246 282
246 287
246 289
246 303
246 317
246 326
246 327
246 330
246 349
246 355
246 359
246 371
246 377
246 378
246 390
246 400
246 414
246 425
246 426
246 427
246 429
246 433
246 435
246 438
246 446
246 447
246 448
246 450
246 461
246 466
246 483
246 487
246 495
246 504
246 510
246 513
246 514
246 518
246 529
246 530
246 546
246 547
246 553
246 556
246 558
246 559
246 562
246 565
246 577
246 588
246 614
246 615
246 618
246 633
246 642
246 666
246 678
246 680
246 685
246 689
246 697
246 710
246 724
246 726
246 732
246 736
246 738
246 741
247 272
247 273
247 274
247 282
247 317
247 326
247 348
247 363
247 390
247 400
247 426
247 435
247 438
247 440
247 453
247 461
247 487
247 510
247 514
247 547
247 559
247 582
247 588
247 607
247 617
247 647
247 661
247 668
247 680
247 685
247 700
247 724
247 750
247 753
247 760
248 349
248 359
248 440
248 559
248 582
249 250
249 251
249 261
249 264
249 272
249 279
249 280
249 285
249 299
249 304
249 313
249 314
249 325
249 330
249 338
249 339
249 342
249 349
249 358
249 371
249 376
249 383
249 394
249 401
249 408
249 409
249 410
249 416
249 419
249 428
249 433
249 436
249 441
249 453
249 456
249 469
249 470
249 478
249 487
249 489
249 507
249 508
249 518
249 530
249 546
249 547
249 549
249 555
249 563
249 576
249 583
249 584
249 601
249 607
249 611
249 612
249 621
249 628
249 636
249 641
249 647
249 655
249 677
249 680
249 685
249 686
249 705
249 707
249 708
249 721
249 737
249 741
249 746
249 750
249 759
250 269
250 299
250 303
250 313
250 314
250 339
250 409
250 418
250 419
250 428
250 445
250 455
250 478
250 488
250 506
250 555
250 583
250 584
250 612
250 615
250 705
250 708
250 721
250 728
250 759
251 253
251 254
251 260
251 261
251 269
251 270
251 272
251 273
251 274
251 279
251 283
251 296
251 299
251 302
251 303
251 308
251 314
251 317
251 328
251 332
251 344
251 346
251 361
251 367
251 368
251 371
251 373
251 394
251 398
251 403
251 407
251 409
251 415
251 418
251 419
251 428
251 430
251 433
251 436
251 437
251 441
251 445
251 446
251 447
251 456
251 469
251 474
251 476
251 480
251 483
251 488
251 489
251 491
251 493
251 494
251 495
251 503
251 508
251 516
251 518
251 520
251 524
251 526
251 529
251 531
251 536
251 541
251 542
251 546
251 551
251 555
251 557
251 563
251 566
251 568
251 570
251 583
251 584
251 591
251 604
251 607
251 611
251 615
251 620
251 621
251 622
251 627
251 631
251 638
251 642
251 645
251 646
251 647
251 648
251 655
251 657
251 662
251 666
251 669
251 678
251 680
251 682
251 688
251 690
251 691
251 700
251 717
251 727
251 729
251 736
251 746
251 747
251 749
251 754
252 269
252 304
252 325
252 358
252 409
252 487
252 529
252 548
252 621
252 647
252 674
252 728
252 750
253 271
253 272
253 292
253 304
253 314
253 347
253 383
253 385
253 418
253 455
253 456
253 472
253 474
253 503
253 524
253 555
253 568
253 584
253 622
253 699
253 751
254 288
254 301
254 302
254 333
254 384
254 394
254 415
254 418
254 437
254 456
254 458
254 475
254 506
254 524
254 536
254 554
254 582
254 661
254 663
254 668
254 700
254 756
255 257
255 271
255 276
255 281
255 289
255 333
255 374
255 384
255 387
255 406
255 412
255 415
255 418
255 437
255 446
255 458
255 474
255 475
255 478
255 480
255 483
255 491
255 503
255 524
255 526
255 536
255 554
255 559
255 568
255 582
255 602
255 615
255 616
255 622
255 645
255 657
255 679
255 700
255 706
255 710
255 713
255 727
256 423
257 272
257 288
257 289
257 319
257 332
257 333
257 349
257 355
257 375
257 394
257 413
257 415
257 418
257 437
257 439
257 446
257 458
257 466
257 474
257 475
257 480
257 506
257 524
257 535
257 536
257 554
257 559
257 562
257 568
257 582
257 588
257 590
257 618
257 648
257 657
257 661
257 684
257 700
257 715
257 751
257 756
257 758
258 381
259 269
259 274
259 277
259 289
259 290
259 307
259 324
259 327
259 329
259 333
259 337
259 340
259 352
259 360
259 362
259 363
259 367
259 377
259 379
259 380
259 389
259 390
259 409
259 414
259 422
259 431
259 436
259 437
259 446
259 448
259 451
259 452
259 457
259 458
259 466
259 469
259 470
259 474
259 475
259 477
259 479
259 486
259 487
259 490
259 492
259 502
259 509
259 511
259 517
259 526
259 530
259 536
259 541
259 542
259 544
259 552
259 553
259 555
259 563
259 576
259 582
259 585
259 587
259 597
259 603
259 604
259 606
259 609
259 610
259 615
259 617
259 623
259 627
259 629
259 633
259 639
259 640
259 641
259 651
259 659
259 661
259 663
259 682
259 683
259 685
259 686
259 687
259 689
259 700
259 711
259 719
259 726
259 727
259 736
259 738
259 743
259 755
259 757
259 759
260 262
260 269
260 270
260 273
260 306
260 308
260 355
260 358
260 371
260 398
260 423
260 430
260 435
260 447
260 448
260 462
260 472
260 488
260 493
260 495
260 506
260 551
260 559
260 606
260 607
260 617
260 618
260 629
260 634
260 660
260 700
260 708
260 723
260 726
260 745
260 760
261 274
261 285
261 293
261 313
261 394
261 405
261 409
261 428
261 487
261 541
261 576
261 580
261 583
261 584
261 600
261 700
261 721
262 267
262 273
262 302
262 306
262 324
262 329
262 348
262 349
262 369
262 370
262 371
262 401
262 423
262 427
262 430
262 453
262 462
262 470
262 476
262 481
262 491
262 492
262 495
262 503
262 517
262 527
262 544
262 551
262 607
262 615
262 638
262 655
262 723
262 729
262 737
262 745
262 760
263 405
264 272
264 273
264 299
264 301
264 313
264 314
264 339
264 349
264 375
264 376
264 409
264 416
264 418
264 428
264 445
264 483
264 495
264 503
264 507
264 524
264 530
264 549
264 555
264 583
264 584
264 593
264 602
264 615
264 641
264 655
264 670
264 691
264 705
264 706
264 708
264 721
264 741
264 759
265 269
265 270
265 273
265 308
265 340
265 358
265 407
265 427
265 430
265 448
265 476
265 492
265 560
265 574
265 578
265 582
265 618
265 632
265 640
265 700
265 760
266 586
267 273
267 324
267 369
267 474
267 667
267 676
267 700
268 360
268 516
268 661
268 682
269 270
269 273
269 275
269 277
269 285
269 293
269 295
269 296
269 302
269 304
269 306
269 317
269 325
269 358
269 360
269 398
269 399
269 409
269 416
269 417
269 428
269 430
269 433
269 437
269 441
269 445
269 447
269 452
269 469
269 479
269 487
269 488
269 489
269 494
269 504
269 506
269 529
269 548
269 559
269 574
269 576
269 581
269 582
269 583
269 587
269 607
269 611
269 621
269 627
269 636
269 640
269 647
269 655
269 660
269 661
269 670
269 673
269 674
269 678
269 696
269 700
269 707
269 709
269 721
269 727
269 728
269 738
269 739
269 750
269 757
269 758
270 272
270 273
270 275
270 306
270 329
270 338
270 348
270 358
270 359
270 370
270 371
270 377
270 398
270 400
270 427
270 430
270 433
270 438
270 447
270 448
270 450
270 453
270 462
270 470
270 474
270 476
270 479
270 488
270 514
270 516
270 518
270 535
270 551
270 555
270 559
270 563
270 574
270 578
270 582
270 585
270 590
270 607
270 617
270 640
270 658
270 660
270 682
270 685
270 700
270 723
270 727
270 741
270 747
270 753
270 760
271 302
271 473
271 482
271 491
271 517
271 526
271 536
271 568
271 638
271 644
271 655
271 670
271 737
271 758
272 273
272 274
272 278
272 280
272 282
272 283
272 285
272 287
272 289
272 295
272 298
272 302
272 307
272 313
272 319
272 321
272 322
272 326
272 331
272 332
272 346
272 349
272 358
272 362
272 375
272 377
272 378
272 383
272 389
272 392
272 397
272 399
272 400
272 407
272 408
272 409
272 416
272 418
272 419
272 426
272 428
272 430
272 433
272 446
272 447
272 450
272 455
272 456
272 458
272 461
272 466
272 470
272 472
272 476
272 480
272 487
272 488
272 490
272 507
272 508
272 513
272 518
272 530
272 541
272 547
272 549
272 550
272 556
272 562
272 581
272 583
272 584
272 594
272 596
272 601
272 606
272 612
272 616
272 622
272 623
272 625
272 627
272 631
272 632
272 641
272 648
272 654
272 655
272 662
272 667
272 680
272 685
272 688
272 692
272 697
272 705
272 706
272 707
272 708
272 721
272 723
272 726
272 733
272 736
272 740
272 741
272 747
272 748
272 751
272 758
272 759
273 289
273 324
273 329
273 335
273 338
273 340
273 351
273 358
273 369
273 371
273 377
273 398
273 401
273 407
273 409
273 423
273 427
273 430
273 447
273 448
273 450
273 462
273 470
273 474
273 476
273 479
273 480
273 487
273 488
273 491
273 492
273 495
273 503
273 517
273 524
273 527
273 544
273 551
273 555
273 559
273 560
273 563
273 574
273 578
273 582
273 583
273 594
273 607
273 613
273 617
273 621
273 622
273 629
273 632
273 634
273 640
273 655
273 660
273 663
273 669
273 678
273 682
273 683
273 700
273 710
273 723
273 729
273 736
273 745
273 760
274 313
274 324
274 329
274 337
274 358
274 370
274 377
274 386
274 407
274 416
274 442
274 448
274 451
274 458
274 469
274 470
274 476
274 487
274 491
274 492
274 508
274 517
274 541
274 544
274 546
274 547
274 549
274 551
274 552
274 579
274 583
274 601
274 607
274 615
274 641
274 644
274 655
274 661
274 678
274 685
274 691
274 698
274 729
274 741
275 303
275 304
275 358
275 402
275 417
275 426
275 433
275 448
275 487
275 547
275 548
275 582
275 647
275 670
275 680
275 685
275 728
275 750
276 333
276 372
276 406
276 412
276 415
276 458
276 506
276 524
276 554
276 562
276 582
276 700
276 710
277 309
277 315
277 327
277 349
277 355
277 362
277 371
277 414
277 477
277 506
277 509
277 511
277 546
277 562
277 597
277 623
277 636
277 640
277 645
277 650
277 651
277 659
277 663
277 682
277 685
277 700
277 708
277 726
278 320
278 347
278 394
278 407
278 473
278 477
278 482
278 495
278 524
278 643
278 655
278 751
278 758
279 296
279 328
279 332
279 349
279 356
279 373
279 409
279 433
279 436
279 456
279 470
279 493
279 508
279 518
279 520
279 531
279 541
279 555
279 566
279 570
279 583
279 584
279 607
279 621
279 622
279 626
279 629
279 631
279 638
279 642
279 655
279 658
279 662
279 688
279 747
280 284
280 333
280 343
280 349
280 367
280 383
280 394
280 409
280 423
280 444
280 466
280 481
280 491
280 506
280 507
280 524
280 530
280 542
280 550
280 592
280 601
280 606
280 629
280 700
280 721
280 751
280 759
281 302
281 371
281 384
281 387
281 394
281 413
281 440
281 458
281 480
281 524
281 554
281 582
281 642
281 661
281 663
281 668
281 678
281 700
281 710
281 756
282 349
282 359
282 547
282 680
282 726
283 308
283 315
283 372
283 418
283 436
283 456
283 468
283 469
283 503
283 518
283 520
283 524
283 531
283 555
283 570
283 622
283 682
283 685
283 747
284 336
284 367
284 444
284 506
284 542
284 582
284 592
284 618
284 665
284 700
284 733
285 293
285 317
285 328
285 339
285 342
285 349
285 358
285 363
285 409
285 416
285 433
285 469
285 470
285 487
285 507
285 514
285 530
285 548
285 549
285 576
285 583
285 601
285 611
285 612
285 621
285 636
285 655
285 678
285 700
285 707
285 721
285 728
285 746
285 747
286 302
286 377
286 517
286 544
286 572
286 644
286 737
286 758
287 299
287 414
287 433
287 446
287 477
287 479
287 487
287 509
287 511
287 513
287 516
287 529
287 546
287 547
287 556
287 562
287 629
287 645
287 697
287 707
287 719
287 721
287 726
288 301
288 384
288 394
288 409
288 415
288 418
288 432
288 437
288 448
288 452
288 458
288 484
288 506
288 522
288 524
288 536
288 582
288 647
288 661
288 668
288 700
288 710
288 727
288 738
288 748
288 757
289 290
289 333
289 336
289 343
289 360
289 384
289 415
289 425
289 439
289 446
289 458
289 475
289 487
289 506
289 547
289 550
289 582
289 588
289 599
289 601
289 618
289 621
289 629
289 637
289 657
289 661
289 685
289 689
289 700
289 701
289 713
289 724
289 756
290 292
290 295
290 302
290 306
290 316
290 327
290 333
290 336
290 377
290 383
290 384
290 385
290 389
290 394
290 414
290 423
290 435
290 439
290 462
290 475
290 479
290 490
290 498
290 500
290 508
290 509
290 511
290 513
290 517
290 535
290 547
290 553
290 579
290 590
290 618
290 621
290 625
290 627
290 629
290 637
290 655
290 659
290 680
290 698
290 719
290 726
290 751
290 753
290 758
292 295
292 298
292 306
292 314
292 315
292 335
292 347
292 355
292 372
292 383
292 385
292 407
292 414
292 455
292 462
292 472
292 474
292 477
292 483
292 495
292 496
292 512
292 513
292 584
292 615
292 622
292 632
292 635
292 643
292 697
292 723
292 729
293 308
293 405
293 409
294 579
294 752
295 298
295 303
295 322
295 332
295 346
295 347
295 365
295 375
295 377
295 378
295 385
295 398
295 399
295 410
295 415
295 425
295 455
295 459
295 468
295 472
295 474
295 480
295 494
295 495
295 512
295 529
295 533
295 535
295 562
295 568
295 581
295 590
295 593
295 595
295 605
295 613
295 615
295 616
295 621
295 637
295 648
295 670
295 673
295 676
295 678
295 691
295 696
295 698
295 700
295 706
295 707
295 709
295 733
295 739
295 750
295 751
295 758
296 307
296 317
296 328
296 343
296 352
296 360
296 409
296 416
296 419
296 436
296 470
296 487
296 508
296 520
296 546
296 549
296 560
296 568
296 570
296 576
296 579
296 583
296 628
296 658
296 686
296 687
297 324
297 359
297 390
297 426
297 565
297 661
297 680
298 309
298 315
298 319
298 326
298 327
298 347
298 355
298 372
298 378
298 386
298 414
298 434
298 446
298 472
298 474
298 477
298 479
298 524
298 542
298 562
298 597
298 616
298 622
298 623
298 629
298 645
298 654
298 659
298 669
298 679
298 700
299 314
299 355
299 365
299 409
299 418
299 428
299 456
299 477
299 483
299 495
299 503
299 507
299 512
299 524
299 555
299 570
299 581
299 583
299 584
299 622
299 629
299 650
299 655
299 657
299 676
299 708
299 721
299 729
299 751
299 759
300 743
301 384
301 394
301 418
301 432
301 437
301 452
301 458
301 484
301 506
301 522
301 536
301 570
301 582
301 583
301 647
301 656
301 661
301 700
301 710
301 738
301 748
301 756
301 757
302 316
302 324
302 333
302 353
302 369
302 371
302 377
302 384
302 389
302 413
302 425
302 433
302 437
302 443
302 452
302 458
302 464
302 473
302 475
302 482
302 494
302 498
302 500
302 503
302 504
302 508
302 517
302 521
302 526
302 530
302 535
302 551
302 553
302 569
302 572
302 579
302 582
302 590
302 602
302 615
302 621
302 623
302 625
302 637
302 644
302 655
302 661
302 663
302 668
302 670
302 678
302 698
302 700
302 727
302 736
302 737
302 739
302 741
302 756
302 758
303 309
303 359
303 415
303 417
303 433
303 441
303 444
303 447
303 461
303 495
303 508
303 542
303 544
303 547
303 552
303 555
303 615
303 622
303 629
303 678
303 685
303 721
303 726
303 736
304 330
304 358
304 402
304 408
304 426
304 441
304 487
304 489
304 494
304 510
304 514
304 529
304 547
304 548
304 550
304 596
304 615
304 621
304 647
304 655
304 658
304 670
304 674
304 680
304 685
304 728
304 739
304 741
304 750
305 348
305 447
305 453
305 462
305 486
305 551
305 563
305 617
306 308
306 324
306 336
306 338
306 369
306 371
306 398
306 400
306 427
306 429
306 430
306 447
306 448
306 462
306 474
306 495
306 511
306 551
306 574
306 588
306 607
306 617
306 618
306 622
306 629
306 632
306 682
306 723
306 726
306 745
307 357
307 360
307 409
307 470
307 487
307 576
307 583
307 629
307 658
307 700
308 317
308 336
308 367
308 383
308 436
308 447
308 493
308 495
308 511
308 516
308 518
308 531
308 541
308 566
308 607
308 629
308 631
308 634
308 661
308 662
308 682
308 707
308 721
308 723
308 754
309 315
309 319
309 386
309 414
309 423
309 474
309 477
309 479
309 509
309 511
309 535
309 542
309 544
309 562
309 590
309 597
309 609
309 616
309 623
309 629
309 659
309 706
309 707
309 711
309 726
310 326
310 349
310 361
310 382
310 421
310 591
311 433
313 314
313 409
313 428
313 441
313 445
313 487
313 576
313 583
313 642
313 655
313 705
313 707
313 708
313 721
313 726
313 741
314 339
314 407
314 409
314 418
314 419
314 428
314 445
314 455
314 456
314 477
314 507
314 549
314 584
314 615
314 622
314 705
314 707
314 721
314 759
315 319
315 327
315 347
315 355
315 362
315 367
315 369
315 372
315 375
315 386
315 412
315 414
315 418
315 430
315 434
315 446
315 468
315 472
315 474
315 477
315 483
315 495
315 503
315 509
315 511
315 524
315 539
315 542
315 554
315 559
315 562
315 597
315 616
315 622
315 629
315 633
315 643
315 645
315 648
315 650
315 654
315 657
315 659
315 679
315 685
315 692
315 706
315 711
315 726
315 755
316 333
316 336
316 367
316 425
316 443
316 446
316 466
316 475
316 494
316 526
316 533
316 542
316 550
316 593
316 601
316 613
316 625
316 637
316 655
316 678
316 710
316 713
316 718
316 737
316 739
317 328
317 336
317 346
317 349
317 358
317 359
317 405
317 409
317 425
317 426
317 430
317 436
317 456
317 469
317 477
317 487
317 518
317 541
317 547
317 555
317 559
317 566
317 570
317 583
317 585
317 601
317 607
317 618
317 621
317 622
317 638
317 655
317 662
317 678
317 682
317 685
317 700
317 717
317 726
317 747
317 749
317 754
318 470
318 527
318 544
319 326
319 333
319 349
319 361
319 367
319 371
319 372
319 375
319 414
319 415
319 418
319 425
319 438
319 446
319 477
319 483
319 491
319 509
319 511
319 513
319 514
319 515
319 524
319 536
319 542
319 562
319 581
319 597
319 613
319 615
319 616
319 618
319 629
319 630
319 632
319 645
319 648
319 650
319 651
319 682
319 706
319 719
319 724
319 726
319 729
319 752
320 471
320 643
321 423
321 467
321 636
322 346
322 365
322 367
322 387
322 398
322 412
322 446
322 469
322 477
322 480
322 494
322 533
322 581
322 593
322 595
322 615
322 616
322 622
322 629
322 645
322 648
322 650
322 670
322 673
322 678
322 696
322 706
322 709
322 733
322 739
323 343
323 423
323 537
323 543
323 664
324 327
324 329
324 335
324 336
324 337
324 348
324 350
324 360
324 369
324 370
324 371
324 377
324 390
324 401
324 402
324 407
324 414
324 423
324 427
324 431
324 435
324 442
324 447
324 448
324 451
324 452
324 453
324 458
324 462
324 465
324 469
324 470
324 471
324 474
324 476
324 480
324 481
324 491
324 492
324 497
324 500
324 501
324 503
324 508
324 516
324 517
324 518
324 521
324 527
324 544
324 546
324 547
324 550
324 551
324 559
324 563
324 566
324 579
324 594
324 598
324 606
324 607
324 610
324 615
324 617
324 618
324 621
324 629
324 632
324 633
324 640
324 642
324 644
324 655
324 659
324 661
324 663
324 667
324 678
324 680
324 682
324 683
324 686
324 691
324 693
324 702
324 711
324 723
324 726
324 729
324 736
324 737
324 741
324 743
324 744
324 745
325 398
325 441
325 489
325 494
325 529
325 548
325 581
325 621
325 655
325 670
325 674
325 686
325 707
325 739
325 750
326 333
326 349
326 361
326 363
326 372
326 390
326 400
326 403
326 421
326 438
326 446
326 449
326 450
326 461
326 514
326 515
326 530
326 546
326 559
326 561
326 591
326 607
326 615
326 630
326 632
326 640
326 645
326 680
326 724
327 367
327 370
327 401
327 414
327 437
327 448
327 457
327 477
327 479
327 490
327 502
327 509
327 511
327 530
327 542
327 550
327 559
327 562
327 585
327 592
327 597
327 599
327 606
327 618
327 623
327 629
327 633
327 645
327 650
327 659
327 661
327 685
327 702
327 706
327 711
327 719
327 726
328 394
328 409
328 436
328 456
328 494
328 507
328 508
328 516
328 518
328 520
328 531
328 541
328 555
328 566
328 570
328 583
328 622
328 631
328 638
328 642
328 655
328 669
328 700
328 717
328 747
328 754
329 348
329 369
329 370
329 371
329 390
329 401
329 407
329 423
329 430
329 443
329 448
329 451
329 453
329 462
329 475
329 476
329 480
329 481
329 491
329 492
329 500
329 503
329 508
329 521
329 527
329 530
329 546
329 551
329 563
329 579
329 613
329 615
329 617
329 621
329 632
329 655
329 661
329 663
329 670
329 676
329 678
329 700
329 723
329 736
329 737
329 745
330 358
330 359
330 383
330 408
330 487
330 513
330 530
330 547
330 556
330 589
330 596
330 647
330 726
330 728
330 750
331 394
331 601
331 724
332 335
332 378
332 418
332 456
332 477
332 480
332 488
332 516
332 520
332 555
332 557
332 562
332 566
332 568
332 570
332 613
332 615
332 622
332 638
332 642
332 669
332 700
332 717
332 747
332 754
333 336
333 355
333 362
333 367
333 375
333 384
333 386
333 412
333 413
333 414
333 415
333 418
333 425
333 439
333 444
333 446
333 458
333 459
333 462
333 465
333 475
333 477
333 479
333 483
333 484
333 490
333 504
333 506
333 509
333 511
333 524
333 526
333 530
333 536
333 540
333 542
333 554
333 562
333 577
333 588
333 592
333 597
333 599
333 603
333 606
333 613
333 615
333 616
333 618
333 619
333 625
333 637
333 648
333 657
333 663
333 681
333 685
333 689
333 700
333 710
333 713
333 715
333 718
333 719
333 726
333 738
334 367
334 415
334 709
335 349
335 355
335 369
335 371
335 407
335 409
335 418
335 419
335 423
335 430
335 447
335 448
335 470
335 474
335 476
335 477
335 480
335 491
335 503
335 507
335 536
335 551
335 555
335 563
335 566
335 568
335 570
335 584
335 594
335 635
335 638
335 643
335 649
335 650
335 669
335 685
335 691
335 705
335 721
335 729
335 751
335 759
336 338
336 349
336 358
336 367
336 371
336 421
336 424
336 425
336 426
336 435
336 437
336 446
336 458
336 466
336 475
336 487
336 508
336 513
336 516
336 518
336 522
336 541
336 542
336 588
336 613
336 615
336 617
336 618
336 625
336 629
336 636
336 642
336 645
336 647
336 650
336 670
336 678
336 680
336 685
336 688
336 708
336 726
336 730
336 741
337 338
337 369
337 389
337 414
337 423
337 430
337 448
337 474
337 476
337 486
337 491
337 492
337 503
337 521
337 555
337 574
337 583
337 587
337 617
337 630
337 678
337 683
337 700
337 736
337 743
337 745
338 400
338 407
338 423
338 426
338 430
338 450
338 462
338 492
338 555
338 617
338 632
338 700
338 723
338 760
339 349
339 352
339 409
339 419
339 433
339 445
339 507
339 530
339 547
339 549
339 576
339 581
339 583
339 607
339 612
339 642
339 647
339 708
339 721
339 747
340 348
340 360
340 527
340 544
340 560
340 563
340 578
340 617
340 678
340 753
340 760
341 362
341 478
341 597
341 616
341 690
342 349
342 358
342 359
342 402
342 416
342 417
342 433
342 437
342 530
342 538
342 547
342 555
342 612
342 621
342 636
342 647
342 661
342 678
342 721
342 737
343 394
344 473
344 521
344 700
344 737
345 349
345 540
345 547
345 577
345 599
345 666
345 681
346 365
346 367
346 373
346 398
346 410
346 480
346 494
346 503
346 512
346 536
346 555
346 568
346 581
346 584
346 593
346 595
346 605
346 615
346 616
346 622
346 637
346 638
346 641
346 648
346 655
346 667
346 670
346 673
346 678
346 691
346 696
346 706
346 709
346 733
346 739
346 758
347 355
347 372
347 378
347 400
347 415
347 472
347 474
347 483
347 495
347 512
347 524
347 562
347 584
347 622
347 669
347 676
347 680
348 370
348 371
348 448
348 462
348 574
348 607
348 617
348 629
348 753
348 760
349 355
349 367
349 371
349 380
349 382
349 383
349 390
349 405
349 409
349 413
349 416
349 419
349 421
349 425
349 426
349 429
349 431
349 433
349 435
349 438
349 439
349 443
349 446
349 461
349 463
349 466
349 470
349 483
349 506
349 507
349 510
349 514
349 516
349 530
349 538
349 546
349 547
349 549
349 550
349 562
349 563
349 577
349 582
349 588
349 590
349 601
349 607
349 611
349 612
349 613
349 615
349 618
349 625
349 628
349 631
349 640
349 641
349 645
349 647
349 649
349 651
349 661
349 662
349 666
349 672
349 677
349 680
349 681
349 682
349 685
349 688
349 700
349 721
349 723
349 724
349 726
349 740
349 741
349 747
349 754
350 371
350 423
350 426
350 427
350 453
350 474
350 563
350 683
351 370
351 430
351 438
351 448
351 462
351 574
351 607
351 612
351 617
351 629
351 632
351 760
352 409
352 487
352 576
352 583
353 562
353 569
353 655
353 661
353 700
355 359
355 369
355 372
355 378
355 383
355 385
355 390
355 400
355 407
355 412
355 414
355 415
355 418
355 425
355 428
355 435
355 436
355 450
355 454
355 455
355 456
355 461
355 462
355 468
355 472
355 474
355 482
355 483
355 495
355 507
355 508
355 510
355 512
355 516
355 524
355 550
355 562
355 577
355 584
355 588
355 597
355 618
355 643
355 669
355 680
355 682
355 685
355 691
355 692
355 721
355 723
355 726
355 759
356 410
356 561
356 608
356 626
356 630
356 646
356 696
356 709
356 722
356 731
356 739
358 371
358 409
358 441
358 487
358 529
358 535
358 538
358 548
358 590
358 617
358 621
358 628
358 636
358 647
358 678
358 680
358 700
358 708
358 728
358 738
358 750
359 400
359 429
359 433
359 474
359 514
359 518
359 531
359 547
359 607
359 618
359 671
359 680
359 726
359 744
359 753
360 379
360 414
360 423
360 452
360 486
360 487
360 508
360 511
360 559
360 586
360 617
360 622
360 629
360 639
360 658
360 663
360 687
360 700
360 719
360 725
360 726
360 741
361 378
361 382
361 383
361 393
361 403
361 412
361 421
361 446
361 477
361 483
361 554
361 561
361 584
361 591
361 608
361 613
361 616
361 630
361 646
361 649
361 651
361 666
361 688
361 710
361 715
361 724
361 729
361 755
362 367
362 386
362 414
362 446
362 451
362 452
362 457
362 477
362 478
362 479
362 490
362 509
362 511
362 542
362 585
362 597
362 599
362 609
362 616
362 623
362 629
362 645
362 650
362 666
362 689
362 690
362 711
362 719
362 726
363 364
363 409
363 427
363 463
363 511
363 514
363 516
363 565
363 576
363 617
363 628
363 677
363 753
364 395
364 514
364 628
364 734
365 367
365 369
365 398
365 410
365 417
365 418
365 425
365 480
365 494
365 503
365 512
365 524
365 529
365 581
365 584
365 593
365 595
365 605
365 615
365 616
365 621
365 622
365 637
365 645
365 648
365 650
365 670
365 673
365 678
365 691
365 696
365 706
365 709
365 733
365 736
365 739
365 758
365 759
367 372
367 377
367 412
367 414
367 423
367 425
367 431
367 436
367 439
367 443
367 444
367 446
367 451
367 452
367 459
367 465
367 475
367 477
367 484
367 490
367 494
367 502
367 506
367 509
367 511
367 530
367 536
367 542
367 552
367 557
367 559
367 566
367 568
367 579
367 592
367 593
367 597
367 599
367 606
367 607
367 609
367 613
367 615
367 616
367 618
367 623
367 625
367 637
367 645
367 650
367 655
367 656
367 662
367 663
367 672
367 685
367 690
367 691
367 694
367 696
367 706
367 709
367 710
367 713
367 715
367 719
367 723
367 726
367 729
367 733
367 737
367 739
367 746
367 758
368 437
368 451
368 480
368 584
368 622
368 717
369 370
369 371
369 373
369 375
369 407
369 419
369 423
369 430
369 447
369 448
369 456
369 468
369 470
369 474
369 476
369 480
369 482
369 491
369 492
369 495
369 503
369 508
369 517
369 521
369 524
369 536
369 546
369 551
369 555
369 563
369 566
369 568
369 570
369 583
369 584
369 594
369 615
369 622
369 632
369 638
369 655
369 667
369 669
369 676
369 678
369 683
369 691
369 706
369 729
369 733
369 736
369 745
369 747
369 758
370 371
370 390
370 401
370 448
370 453
370 470
370 474
370 476
370 546
370 547
370 550
370 562
370 563
370 607
370 617
370 629
370 632
370 661
370 683
370 700
370 702
370 736
371 384
371 390
371 400
371 401
371 407
371 414
371 421
371 423
371 425
371 427
371 430
371 437
371 440
371 447
371 448
371 450
371 453
371 462
371 466
371 470
371 474
371 476
371 480
371 486
371 491
371 492
371 495
371 503
371 508
371 514
371 516
371 518
371 521
371 551
371 555
371 559
371 563
371 574
371 588
371 594
371 607
371 613
371 615
371 617
371 618
371 621
371 622
371 623
371 629
371 632
371 634
371 640
371 642
371 643
371 660
371 661
371 663
371 667
371 678
371 682
371 685
371 692
371 700
371 723
371 724
371 726
371 729
371 737
371 741
371 745
371 749
372 375
372 406
372 414
372 415
372 446
372 451
372 472
372 474
372 477
372 483
372 490
372 495
372 511
372 514
372 524
372 542
372 554
372 562
372 597
372 609
372 616
372 622
372 623
372 629
372 645
372 650
372 657
372 706
372 711
373 394
373 409
373 456
373 480
373 488
373 491
373 541
373 566
373 584
373 607
373 622
373 638
373 747
374 384
374 387
374 394
374 406
374 415
374 480
374 483
374 506
374 524
374 536
374 554
374 700
374 727
375 384
375 387
375 394
375 412
375 415
375 418
375 430
375 437
375 458
375 472
375 474
375 475
375 477
375 480
375 483
375 504
375 506
375 508
375 524
375 536
375 554
375 559
375 582
375 592
375 601
375 618
375 622
375 643
375 650
375 657
375 676
375 692
375 700
375 710
375 715
375 727
375 736
375 756
376 414
376 472
376 507
376 721
377 400
377 411
377 415
377 450
377 452
377 462
377 469
377 472
377 474
377 475
377 477
377 478
377 494
377 495
377 504
377 512
377 517
377 526
377 529
377 533
377 535
377 553
377 571
377 579
377 581
377 582
377 590
377 593
377 595
377 615
377 618
377 621
377 625
377 629
377 644
377 655
377 670
377 678
377 680
377 696
377 698
377 700
377 707
377 718
377 726
377 737
377 739
377 750
377 758
377 759
378 418
378 446
378 456
378 474
378 477
378 480
378 518
378 524
378 535
378 536
378 555
378 568
378 570
378 581
378 590
378 613
378 616
378 622
378 648
378 657
378 676
378 688
378 717
378 733
378 747
378 751
379 380
379 431
379 448
379 452
379 466
379 486
379 492
379 587
379 601
379 603
379 624
379 627
379 640
379 656
379 678
379 711
380 603
380 623
380 633
380 640
380 651
380 659
380 700
381 396
381 532
381 578
381 680
382 393
382 613
383 400
383 409
383 416
383 419
383 435
383 439
383 450
383 455
383 472
383 481
383 493
383 507
383 511
383 513
383 516
383 530
383 547
383 549
383 588
383 596
383 618
383 641
383 649
383 681
383 688
383 697
383 707
383 708
383 714
383 721
383 746
383 754
384 387
384 394
384 410
384 412
384 413
384 415
384 418
384 423
384 425
384 427
384 437
384 440
384 442
384 458
384 462
384 465
384 475
384 480
384 484
384 492
384 504
384 505
384 506
384 522
384 524
384 526
384 536
384 551
384 554
384 580
384 582
384 587
384 592
384 601
384 606
384 618
384 621
384 642
384 656
384 657
384 661
384 663
384 668
384 678
384 685
384 687
384 700
384 710
384 713
384 715
384 727
384 736
384 756
385 415
385 418
385 454
385 474
385 483
385 512
385 535
385 562
385 590
385 648
385 650
385 655
385 751
386 414
386 477
386 530
386 562
386 597
386 609
386 616
386 629
386 645
386 650
387 394
387 406
387 412
387 415
387 418
387 437
387 458
387 480
387 483
387 503
387 504
387 506
387 524
387 536
387 554
387 581
387 582
387 616
387 657
387 661
387 669
387 673
387 679
387 696
387 700
387 706
387 710
387 713
387 715
387 727
387 739
388 514
389 435
389 443
389 452
389 498
389 500
389 506
389 508
389 511
389 516
389 518
389 526
389 530
389 569
389 579
389 601
389 627
389 655
389 661
389 664
389 711
389 730
389 736
389 737
389 741
389 758
390 414
390 425
390 426
390 435
390 442
390 510
390 514
390 517
390 530
390 546
390 547
390 577
390 588
390 607
390 618
390 629
390 661
390 680
390 685
390 726
391 451
391 564
391 585
391 597
391 610
391 629
391 640
391 711
393 403
393 412
393 414
393 421
393 494
393 554
393 613
393 630
393 688
393 755
394 412
394 413
394 414
394 418
394 422
394 437
394 448
394 451
394 458
394 480
394 484
394 488
394 506
394 522
394 524
394 536
394 541
394 549
394 554
394 563
394 565
394 580
394 582
394 597
394 603
394 604
394 607
394 618
394 623
394 628
394 629
394 635
394 636
394 651
394 655
394 658
394 659
394 661
394 668
394 678
394 700
394 710
394 711
394 713
394 728
394 737
394 738
394 748
394 756
396 701
398 399
398 410
398 417
398 418
398 430
398 445
398 447
398 479
398 488
398 494
398 524
398 529
398 548
398 551
398 555
398 581
398 593
398 595
398 615
398 646
398 670
398 673
398 674
398 678
398 691
398 696
398 706
398 707
398 709
398 717
398 721
398 733
398 739
398 750
398 758
399 494
399 581
399 593
399 629
399 670
399 706
399 707
399 709
399 739
400 411
400 448
400 450
400 462
400 479
400 494
400 514
400 553
400 579
400 588
400 596
400 617
400 680
400 685
400 707
400 723
400 753
401 470
401 516
401 546
401 550
401 551
401 563
401 606
401 617
401 661
401 683
401 702
401 726
402 426
402 458
402 487
402 494
402 529
402 531
402 547
402 550
402 607
402 618
402 647
402 661
402 670
402 707
402 721
403 412
403 414
403 446
403 491
403 591
403 613
403 630
403 646
403 666
404 633
405 436
405 469
405 541
405 735
406 415
406 418
406 475
406 480
406 524
406 536
406 554
406 657
406 700
406 727
407 418
407 430
407 447
407 448
407 456
407 470
407 474
407 476
407 477
407 480
407 491
407 492
407 495
407 503
407 517
407 520
407 524
407 551
407 555
407 563
407 568
407 581
407 583
407 584
407 594
407 615
407 638
407 643
407 655
407 676
407 678
407 683
407 736
407 745
407 747
407 760
408 424
408 589
408 750
409 416
409 419
409 428
409 430
409 433
409 436
409 445
409 456
409 470
409 488
409 491
409 507
409 508
409 541
409 546
409 547
409 549
409 551
409 555
409 557
409 576
409 583
409 584
409 596
409 612
409 620
409 621
409 628
409 635
409 636
409 647
409 670
409 674
409 700
409 705
409 707
409 708
409 717
409 721
409 736
409 741
409 746
409 750
409 759
410 417
410 441
410 452
410 494
410 518
410 529
410 548
410 561
410 581
410 587
410 593
410 595
410 608
410 621
410 637
410 647
410 655
410 656
410 663
410 670
410 673
410 678
410 696
410 706
410 707
410 709
410 722
410 731
410 739
410 741
410 758
411 439
411 450
411 462
411 474
411 494
411 495
411 512
411 553
411 579
411 581
411 629
411 661
411 670
411 697
411 698
411 707
411 723
411 739
412 414
412 415
412 418
412 428
412 437
412 458
412 474
412 480
412 486
412 504
412 506
412 520
412 524
412 536
412 542
412 554
412 562
412 580
412 582
412 616
412 618
412 635
412 637
412 645
412 648
412 657
412 661
412 679
412 691
412 700
412 706
412 713
412 738
412 755
412 758
413 415
413 418
413 458
413 506
413 524
413 554
413 582
413 618
413 663
413 678
413 700
413 727
414 421
414 423
414 427
414 434
414 439
414 446
414 448
414 451
414 453
414 460
414 474
414 477
414 479
414 488
414 490
414 502
414 507
414 509
414 511
414 526
414 530
414 539
414 542
414 550
414 554
414 562
414 570
414 580
414 582
414 588
414 597
414 599
414 603
414 606
414 609
414 616
414 618
414 623
414 629
414 633
414 635
414 639
414 640
414 645
414 649
414 650
414 651
414 654
414 659
414 661
414 663
414 679
414 680
414 685
414 689
414 700
414 702
414 706
414 711
414 719
414 726
414 744
415 418
415 421
415 425
415 439
415 446
415 458
415 459
415 465
415 474
415 475
415 480
415 483
415 504
415 506
415 516
415 524
415 526
415 536
415 553
415 554
415 559
415 562
415 582
415 588
415 618
415 633
415 648
415 657
415 661
415 688
415 689
415 700
415 710
415 713
415 715
415 727
415 756
416 428
416 433
416 441
416 481
416 487
416 494
416 507
416 538
416 547
416 549
416 566
416 583
416 584
416 612
416 621
416 641
416 647
416 686
416 705
416 721
417 433
417 448
417 452
417 481
417 494
417 538
417 548
417 581
417 595
417 615
417 627
417 647
417 661
417 670
417 673
417 678
417 696
417 706
417 707
417 709
417 739
417 758
418 428
418 430
418 434
418 446
418 455
418 456
418 458
418 465
418 473
418 474
418 475
418 477
418 480
418 482
418 483
418 488
418 495
418 503
418 504
418 506
418 524
418 535
418 536
418 539
418 554
418 555
418 559
418 562
418 570
418 581
418 582
418 584
418 590
418 592
418 593
418 594
418 597
418 615
418 616
418 618
418 622
418 650
418 657
418 661
418 667
418 668
418 669
418 676
418 679
418 691
418 696
418 700
418 706
418 710
418 713
418 715
418 729
418 751
418 756
418 758
419 433
419 445
419 481
419 487
419 507
419 530
419 549
419 576
419 583
419 584
419 612
419 642
419 700
419 707
419 721
419 726
419 759
420 726
421 446
421 474
421 591
421 613
421 618
421 700
421 726
423 429
423 446
423 448
423 471
423 474
423 476
423 491
423 503
423 514
423 521
423 537
423 543
423 551
423 552
423 559
423 610
423 613
423 617
423 623
423 629
423 656
423 663
423 676
423 683
423 723
423 729
423 736
423 743
423 745
424 453
424 589
424 670
424 680
424 700
424 728
424 750
425 438
425 439
425 446
425 461
425 474
425 475
425 494
425 506
425 508
425 512
425 530
425 542
425 577
425 593
425 613
425 615
425 618
425 625
425 637
425 648
425 661
425 678
425 682
425 685
425 691
425 696
425 700
425 709
425 713
425 724
425 726
425 739
426 429
426 435
426 461
426 501
426 510
426 514
426 546
426 558
426 577
426 599
426 618
426 621
426 663
426 678
426 680
426 685
426 703
426 741
427 447
427 448
427 453
427 458
427 460
427 465
427 492
427 516
427 523
427 546
427 547
427 551
427 563
427 574
427 607
427 617
427 660
427 661
427 668
427 685
427 711
427 736
427 741
427 743
427 756
427 758
428 445
428 456
428 478
428 488
428 506
428 507
428 520
428 524
428 530
428 549
428 555
428 581
428 583
428 584
428 607
428 612
428 615
428 622
428 636
428 662
428 691
428 705
428 708
428 714
428 721
428 741
428 759
429 438
429 450
429 577
429 617
429 618
429 641
429 726
430 441
430 445
430 448
430 456
430 470
430 474
430 476
430 478
430 480
430 488
430 491
430 492
430 495
430 503
430 517
430 524
430 551
430 555
430 563
430 568
430 574
430 584
430 594
430 607
430 611
430 615
430 629
430 643
430 645
430 650
430 655
430 660
430 667
430 676
430 690
430 692
430 705
430 717
430 729
430 736
430 745
430 760
431 437
431 477
431 500
431 502
431 511
431 530
431 552
431 597
431 610
431 623
431 627
431 629
431 645
431 650
431 663
431 685
431 711
431 726
432 452
432 506
432 522
432 582
432 668
432 720
432 748
432 757
433 469
433 470
433 481
433 487
433 507
433 510
433 518
433 530
433 531
433 538
433 547
433 549
433 582
433 583
433 601
433 612
433 621
433 636
433 647
433 678
433 705
433 706
433 707
433 721
433 728
433 736
433 741
433 747
434 524
434 629
434 706
435 461
435 469
435 485
435 487
435 511
435 514
435 516
435 555
435 559
435 568
435 577
435 601
435 618
435 655
435 661
435 680
435 685
435 697
436 438
436 451
436 456
436 476
436 477
436 488
436 491
436 508
436 518
436 520
436 555
436 566
436 581
436 584
436 585
436 607
436 622
436 636
436 638
436 641
436 647
436 655
436 682
436 688
436 700
436 717
436 726
436 737
436 745
436 747
436 754
437 440
437 441
437 451
437 453
437 458
437 464
437 466
437 480
437 487
437 501
437 502
437 504
437 506
437 508
437 522
437 526
437 536
437 542
437 548
437 552
437 559
437 567
437 573
437 581
437 582
437 585
437 606
437 610
437 618
437 621
437 627
437 633
437 642
437 649
437 657
437 661
437 663
437 666
437 668
437 678
437 700
437 725
437 726
437 727
437 736
437 737
437 755
437 756
438 446
438 448
438 461
438 474
438 483
438 485
438 514
438 544
438 571
438 584
438 595
438 607
438 613
438 615
438 617
438 618
438 633
438 640
438 651
438 661
438 682
438 694
438 700
438 724
438 752
438 753
439 440
439 444
439 458
439 465
439 475
439 483
439 484
439 504
439 506
439 526
439 582
439 592
439 606
439 618
439 657
439 661
439 665
439 698
439 700
439 713
439 715
439 726
439 727
439 738
439 754
439 755
440 442
440 458
440 466
440 504
440 516
440 526
440 559
440 582
440 618
440 642
440 661
440 668
440 672
440 687
440 700
440 710
440 727
440 738
441 469
441 478
441 487
441 489
441 494
441 508
441 518
441 531
441 546
441 548
441 555
441 582
441 611
441 621
441 622
441 636
441 642
441 647
441 655
441 678
441 686
441 728
441 741
441 750
442 504
442 649
442 661
442 668
442 700
442 721
443 457
443 475
443 498
443 526
443 569
443 582
443 625
443 655
443 718
443 730
444 447
444 458
444 542
444 582
444 592
444 606
444 618
444 661
444 700
445 456
445 478
445 488
445 507
445 549
445 555
445 557
445 583
445 584
445 705
445 708
445 721
445 759
446 451
446 452
446 465
446 473
446 474
446 475
446 477
446 478
446 488
446 491
446 494
446 503
446 509
446 511
446 524
446 530
446 552
446 554
446 555
446 562
446 568
446 581
446 591
446 597
446 602
446 613
446 615
446 616
446 618
446 621
446 622
446 629
446 630
446 645
446 648
446 650
446 651
446 656
446 657
446 663
446 678
446 679
446 682
446 690
446 691
446 706
446 711
446 715
446 719
446 726
446 729
446 736
446 737
446 751
447 448
447 453
447 474
447 479
447 488
447 493
447 495
447 511
447 542
447 551
447 555
447 563
447 594
447 607
447 617
447 618
447 629
447 634
447 660
447 666
447 697
447 723
448 450
448 452
448 453
448 462
448 470
448 474
448 476
448 491
448 492
448 503
448 517
448 530
448 546
448 551
448 560
448 563
448 574
448 587
448 594
448 607
448 613
448 615
448 617
448 632
448 655
448 660
448 667
448 676
448 678
448 682
448 700
448 723
448 727
448 729
448 736
448 743
448 756
448 760
449 514
450 462
450 478
450 479
450 514
450 553
450 579
450 588
450 617
450 680
450 685
450 723
450 753
451 452
451 457
451 477
451 500
451 502
451 530
451 542
451 551
451 564
451 584
451 597
451 627
451 640
451 645
451 690
451 711
451 736
452 458
452 492
452 494
452 522
452 529
452 530
452 542
452 548
452 559
452 572
452 582
452 585
452 587
452 593
452 613
452 621
452 624
452 640
452 644
452 651
452 655
452 656
452 670
452 678
452 686
452 696
452 707
452 709
452 739
452 750
452 758
453 461
453 514
453 617
453 660
453 680
453 685
453 741
454 455
454 511
454 524
454 562
454 629
454 643
454 719
454 751
455 456
455 472
455 512
455 524
455 562
455 584
455 596
455 622
455 629
455 697
455 721
455 751
455 759
456 469
456 476
456 477
456 482
456 488
456 491
456 493
456 508
456 516
456 518
456 520
456 524
456 531
456 536
456 541
456 555
456 557
456 566
456 568
456 570
456 583
456 584
456 590
456 604
456 607
456 611
456 615
456 620
456 622
456 629
456 631
456 638
456 642
456 647
456 662
456 669
456 678
456 682
456 688
456 717
456 723
456 746
456 747
456 754
457 542
457 597
457 640
457 645
457 726
458 466
458 480
458 487
458 503
458 504
458 506
458 522
458 524
458 536
458 554
458 562
458 580
458 582
458 618
458 622
458 629
458 645
458 650
458 655
458 657
458 661
458 663
458 670
458 678
458 685
458 687
458 700
458 710
458 711
458 713
458 727
458 756
458 757
459 475
459 524
459 700
459 706
459 751
460 465
460 466
460 492
460 504
460 516
460 526
460 530
460 545
460 551
460 563
460 617
460 656
460 663
460 711
460 736
460 756
461 501
461 514
461 577
461 599
461 618
461 700
461 752
462 495
462 511
462 516
462 551
462 553
462 574
462 578
462 607
462 613
462 617
462 629
462 661
462 685
462 698
462 723
462 726
462 730
462 745
462 760
463 547
463 565
463 661
463 726
464 526
464 567
464 737
464 758
465 466
465 475
465 504
465 506
465 513
465 524
465 582
465 618
465 661
465 700
465 710
465 713
465 745
466 504
466 516
466 526
466 530
466 550
466 552
466 553
466 559
466 582
466 601
466 603
466 607
466 610
466 618
466 648
466 656
466 661
466 663
466 682
466 685
466 700
466 701
466 710
466 712
466 718
466 727
466 751
466 755
468 474
468 495
468 524
468 562
468 648
468 751
469 494
469 501
469 516
469 518
469 541
469 555
469 566
469 584
469 601
469 607
469 611
469 617
469 621
469 622
469 638
469 655
469 682
469 686
469 698
469 700
469 706
469 707
469 717
469 726
469 747
469 750
470 476
470 480
470 487
470 491
470 492
470 503
470 508
470 517
470 520
470 527
470 530
470 544
470 546
470 551
470 552
470 555
470 563
470 566
470 568
470 570
470 576
470 583
470 613
470 615
470 617
470 621
470 632
470 640
470 655
470 663
470 678
470 683
470 685
470 686
470 692
470 721
470 729
470 745
470 747
470 749
471 476
471 563
471 594
471 618
471 683
471 691
471 700
471 729
472 474
472 495
472 507
472 512
472 513
472 516
472 562
472 596
472 622
472 635
472 643
472 673
472 721
472 723
472 741
473 482
473 503
473 524
473 526
473 616
473 629
473 648
473 655
473 758
474 476
474 477
474 483
474 495
474 503
474 512
474 513
474 521
474 524
474 554
474 555
474 562
474 563
474 568
474 574
474 582
474 593
474 594
474 613
474 615
474 616
474 618
474 622
474 629
474 632
474 635
474 643
474 645
474 648
474 649
474 650
474 657
474 667
474 669
474 676
474 683
474 692
474 700
474 706
474 723
474 726
474 727
474 729
474 736
474 755
474 759
475 504
475 506
475 524
475 533
475 544
475 554
475 582
475 606
475 618
475 621
475 625
475 637
475 648
475 655
475 670
475 678
475 700
475 710
475 713
475 715
475 737
475 758
476 480
476 488
476 491
476 492
476 495
476 503
476 517
476 520
476 551
476 555
476 557
476 563
476 568
476 584
476 594
476 615
476 622
476 632
476 638
476 643
476 655
476 667
476 676
476 678
476 690
476 691
476 692
476 729
476 736
476 745
476 747
476 760
477 479
477 483
477 490
477 502
477 509
477 511
477 536
477 542
477 552
477 562
477 582
477 584
477 593
477 597
477 599
477 603
477 615
477 616
477 617
477 623
477 629
477 633
477 640
477 645
477 648
477 650
477 651
477 654
477 659
477 663
477 666
477 678
477 682
477 689
477 690
477 692
477 706
477 711
477 719
477 726
477 727
477 739
477 741
477 754
477 759
478 480
478 549
478 568
478 570
478 584
478 599
478 670
478 705
479 509
479 511
479 542
479 556
479 559
479 562
479 597
479 617
479 618
479 629
479 645
479 650
479 719
479 726
480 483
480 491
480 492
480 503
480 504
480 506
480 508
480 518
480 521
480 524
480 536
480 551
480 552
480 554
480 557
480 566
480 568
480 570
480 581
480 582
480 584
480 594
480 615
480 616
480 622
480 638
480 645
480 648
480 650
480 655
480 657
480 667
480 669
480 673
480 678
480 679
480 696
480 700
480 705
480 706
480 710
480 715
480 729
480 733
480 736
480 739
480 758
481 507
481 517
481 520
481 538
481 546
481 563
481 582
481 700
481 705
482 535
482 555
482 562
482 584
482 590
482 644
482 655
482 698
482 706
482 737
482 758
483 491
483 495
483 506
483 512
483 516
483 524
483 536
483 554
483 559
483 582
483 613
483 615
483 618
483 622
483 643
483 650
483 657
483 661
483 692
483 700
483 724
484 506
484 542
484 582
484 599
484 618
484 700
484 707
484 713
484 754
485 559
485 582
485 607
485 640
486 492
486 508
486 586
486 617
486 635
486 687
486 743
487 504
487 507
487 508
487 518
487 529
487 541
487 546
487 547
487 549
487 551
487 552
487 576
487 583
487 586
487 596
487 601
487 607
487 612
487 615
487 617
487 623
487 629
487 636
487 641
487 647
487 655
487 658
487 663
487 674
487 678
487 680
487 685
487 686
487 700
487 707
487 708
487 710
487 720
487 721
487 726
487 728
487 741
487 750
488 491
488 516
488 518
488 520
488 531
488 541
488 555
488 566
488 568
488 570
488 581
488 584
488 607
488 611
488 615
488 618
488 622
488 631
488 638
488 642
488 646
488 655
488 667
488 682
488 685
488 706
488 717
488 721
488 739
488 746
488 747
489 494
489 621
489 678
489 686
490 502
490 509
490 511
490 562
490 585
490 597
490 599
490 609
490 623
490 629
490 645
490 650
490 663
490 719
490 726
491 492
491 495
491 503
491 508
491 517
491 520
491 541
491 546
491 551
491 555
491 557
491 560
491 563
491 568
491 584
491 593
491 594
491 607
491 611
491 613
491 615
491 616
491 622
491 632
491 635
491 638
491 643
491 655
491 667
491 676
491 693
491 717
491 729
491 736
491 743
491 745
492 503
492 517
492 521
492 551
492 560
492 563
492 574
492 587
492 594
492 617
492 621
492 632
492 645
492 655
492 656
492 676
492 678
492 683
492 691
492 693
492 700
492 729
492 736
492 737
492 743
492 745
493 494
493 511
493 518
493 531
493 555
493 566
493 570
493 596
493 607
493 622
493 634
493 638
493 662
493 697
493 717
493 720
493 746
493 747
493 754
494 512
494 526
494 527
494 529
494 533
494 544
494 548
494 551
494 581
494 587
494 593
494 595
494 596
494 611
494 615
494 621
494 623
494 629
494 631
494 637
494 644
494 648
494 655
494 656
494 661
494 670
494 673
494 674
494 678
494 686
494 691
494 696
494 700
494 706
494 707
494 709
494 733
494 739
494 741
494 746
494 758
495 511
495 512
495 516
495 536
495 551
495 581
495 584
495 632
495 634
495 643
495 648
495 657
495 661
495 667
495 669
495 676
495 690
495 692
495 723
495 758
496 643
497 726
498 500
498 526
498 655
498 730
498 758
500 508
500 517
500 530
500 552
500 579
500 601
500 621
500 627
500 642
500 655
500 663
500 698
500 711
500 730
500 758
501 555
501 610
501 611
501 686
501 726
501 732
502 511
502 530
502 542
502 597
502 623
502 642
502 645
502 663
502 685
502 711
502 726
503 508
503 524
503 536
503 546
503 554
503 555
503 566
503 570
503 584
503 615
503 621
503 622
503 630
503 632
503 638
503 655
503 667
503 669
503 673
503 676
503 678
503 679
503 683
503 691
503 709
503 729
503 733
503 736
503 737
503 745
503 758
504 506
504 524
504 526
504 530
504 536
504 554
504 559
504 582
504 592
504 618
504 629
504 640
504 657
504 661
504 663
504 668
504 685
504 687
504 700
504 710
504 727
504 738
504 756
505 543
505 656
505 664
506 522
506 524
506 526
506 536
506 542
506 551
506 554
506 559
506 566
506 576
506 582
506 588
506 599
506 607
506 612
506 618
506 629
506 631
506 634
506 636
506 657
506 661
506 665
506 668
506 698
506 700
506 708
506 710
506 713
506 714
506 715
506 721
506 726
506 727
506 728
506 738
506 748
506 754
506 755
506 756
506 757
507 530
507 549
507 563
507 576
507 583
507 584
507 601
507 612
507 627
507 628
507 635
507 641
507 642
507 647
507 649
507 655
507 685
507 705
507 708
507 711
507 721
507 741
507 759
508 517
508 518
508 520
508 531
508 541
508 544
508 546
508 555
508 559
508 566
508 579
508 584
508 601
508 621
508 622
508 627
508 629
508 638
508 642
508 647
508 655
508 662
508 663
508 678
508 682
508 685
508 688
508 700
508 709
508 717
508 721
508 726
508 733
508 736
508 747
508 749
508 754
508 758
509 511
509 517
509 542
509 556
509 562
509 597
509 599
509 609
509 629
509 645
509 650
509 663
509 690
509 706
509 719
509 726
510 514
510 577
510 579
510 618
510 621
510 680
510 685
511 516
511 542
511 551
511 556
511 562
511 588
511 597
511 599
511 603
511 609
511 623
511 629
511 633
511 640
511 645
511 650
511 657
511 662
511 679
511 690
511 697
511 711
511 719
511 723
511 726
512 524
512 529
512 553
512 555
512 566
512 581
512 593
512 595
512 615
512 622
512 629
512 643
512 667
512 669
512 670
512 673
512 691
512 696
512 698
512 709
512 723
512 729
512 739
513 516
513 530
513 547
513 556
513 584
513 588
513 618
513 629
513 649
513 707
513 721
514 515
514 547
514 559
514 565
514 618
514 645
514 680
514 685
514 734
514 749
515 633
516 518
516 529
516 531
516 541
516 550
516 555
516 562
516 566
516 569
516 588
516 601
516 617
516 618
516 622
516 623
516 629
516 631
516 638
516 645
516 657
516 661
516 664
516 688
516 711
516 717
516 719
516 723
516 726
516 747
516 754
517 521
517 526
517 527
517 544
517 546
517 551
517 553
517 563
517 578
517 579
517 617
517 644
517 655
517 678
517 683
517 698
517 729
517 736
517 737
517 745
517 758
518 520
518 531
518 541
518 547
518 555
518 566
518 582
518 607
518 622
518 631
518 638
518 642
518 655
518 662
518 663
518 669
518 682
518 688
518 717
518 720
518 741
518 747
518 754
520 531
520 541
520 555
520 566
520 568
520 570
520 584
520 615
520 622
520 631
520 632
520 638
520 642
520 662
520 691
520 717
520 747
521 546
521 617
521 655
521 678
521 700
521 736
521 737
522 536
522 581
522 582
522 615
522 618
522 656
522 670
522 686
522 700
522 709
522 720
522 748
522 757
524 526
524 535
524 536
524 539
524 554
524 559
524 562
524 568
524 570
524 580
524 581
524 582
524 584
524 590
524 592
524 594
524 597
524 602
524 606
524 615
524 616
524 618
524 622
524 643
524 645
524 648
524 657
524 661
524 667
524 668
524 669
524 679
524 681
524 691
524 692
524 696
524 700
524 706
524 710
524 713
524 715
524 718
524 727
524 729
524 733
524 751
524 756
524 758
524 759
525 542
526 535
526 542
526 550
526 553
526 554
526 559
526 582
526 590
526 618
526 621
526 629
526 655
526 663
526 670
526 678
526 685
526 687
526 700
526 710
526 712
526 713
526 726
526 737
526 739
526 755
526 758
527 544
527 547
527 578
527 584
527 613
527 655
527 686
527 698
527 707
527 760
528 726
529 533
529 548
529 553
529 559
529 581
529 582
529 593
529 595
529 621
529 640
529 647
529 650
529 661
529 670
529 674
529 678
529 696
529 698
529 700
529 706
529 707
529 709
529 739
529 750
529 758
530 542
530 546
530 550
530 552
530 569
530 584
530 592
530 596
530 601
530 621
530 627
530 635
530 640
530 641
530 654
530 655
530 661
530 663
530 678
530 686
530 694
530 697
530 705
530 711
530 721
530 741
530 759
531 541
531 547
531 553
531 555
531 566
531 607
531 622
531 631
531 638
531 642
531 647
531 655
531 661
531 662
531 682
531 688
531 717
531 720
531 726
531 741
531 747
531 749
531 754
532 680
533 581
533 587
533 593
533 595
533 617
533 621
533 637
533 644
533 648
533 655
533 670
533 678
533 696
533 706
533 707
533 709
533 733
533 739
533 750
533 758
534 614
534 701
535 553
535 557
535 562
535 579
535 590
535 620
535 621
535 655
535 666
535 669
535 751
535 758
536 542
536 554
536 555
536 568
536 570
536 582
536 584
536 592
536 604
536 615
536 622
536 641
536 657
536 661
536 691
536 700
536 706
536 713
536 715
536 727
536 756
537 543
537 701
538 661
538 737
539 581
539 706
540 599
540 629
540 666
540 681
541 555
541 566
541 583
541 604
541 607
541 611
541 622
541 623
541 629
541 631
541 638
541 642
541 645
541 655
541 661
541 662
541 682
541 685
541 700
541 717
541 741
541 747
541 754
542 552
542 556
542 592
542 597
542 606
542 609
542 616
542 629
542 637
542 639
542 645
542 650
542 663
542 690
542 700
542 706
542 707
542 711
542 713
542 726
542 736
543 664
544 546
544 560
544 568
544 578
544 579
544 584
544 598
544 613
544 644
544 655
544 670
544 686
544 698
544 707
544 737
544 758
544 760
545 659
545 711
545 712
546 547
546 549
546 552
546 576
546 583
546 601
546 613
546 618
546 621
546 627
546 655
546 661
546 663
546 678
546 682
546 685
546 686
546 721
546 745
547 549
547 556
547 583
547 607
547 612
547 628
547 647
547 649
547 661
547 671
547 680
547 721
547 726
547 741
547 753
548 581
548 587
548 605
548 621
548 636
548 646
548 655
548 663
548 670
548 673
548 674
548 678
548 696
548 707
548 709
548 728
548 739
548 750
548 758
549 576
549 579
549 583
549 584
549 601
549 612
549 707
549 708
549 721
549 741
549 759
550 601
550 606
550 625
550 647
550 661
550 666
550 692
550 701
550 702
550 726
550 751
551 563
551 574
551 581
551 584
551 594
551 601
551 613
551 617
551 618
551 621
551 629
551 632
551 655
551 670
551 700
551 707
551 708
551 721
551 723
551 726
551 728
551 729
551 736
551 745
551 754
552 584
552 585
552 610
552 627
552 629
552 639
552 641
552 642
552 655
552 663
552 685
552 711
552 716
552 755
553 571
553 579
553 590
553 618
553 621
553 644
553 655
553 670
553 678
553 680
553 685
553 698
553 707
553 750
553 752
553 758
554 559
554 562
554 582
554 615
554 618
554 635
554 657
554 669
554 679
554 691
554 700
554 710
554 713
554 715
554 727
554 738
555 557
555 566
555 568
555 570
555 581
555 583
555 584
555 594
555 604
555 607
555 611
555 613
555 615
555 620
555 621
555 622
555 631
555 632
555 638
555 641
555 642
555 645
555 657
555 662
555 669
555 682
555 685
555 688
555 691
555 696
555 700
555 705
555 708
555 709
555 717
555 723
555 743
555 746
555 747
555 755
555 758
556 618
556 629
556 659
556 719
556 726
557 566
557 570
557 583
557 590
557 607
557 620
557 622
557 638
557 678
557 717
557 721
557 723
557 745
557 747
557 759
559 574
559 580
559 582
559 585
559 607
559 611
559 618
559 621
559 623
559 640
559 657
559 660
559 661
559 668
559 682
559 684
559 685
559 687
559 700
559 704
559 710
559 711
559 719
559 727
559 750
559 757
560 617
560 700
560 760
561 608
561 646
561 696
561 706
561 709
561 722
561 731
561 739
562 568
562 569
562 581
562 590
562 597
562 599
562 616
562 618
562 623
562 629
562 633
562 635
562 643
562 648
562 649
562 654
562 657
562 659
562 661
562 669
562 672
562 679
562 689
562 690
562 691
562 692
562 700
562 706
562 711
562 715
562 719
562 726
562 751
563 617
563 629
563 632
563 640
563 643
563 655
563 670
563 678
563 683
563 700
563 736
563 745
564 585
564 640
564 645
564 744
565 726
566 570
566 584
566 607
566 611
566 615
566 618
566 622
566 638
566 642
566 655
566 662
566 669
566 682
566 688
566 698
566 717
566 726
566 746
566 747
566 754
567 726
568 570
568 584
568 615
568 620
568 622
568 631
568 638
568 645
568 648
568 650
568 657
568 676
568 678
568 690
568 729
568 747
569 655
569 661
569 700
569 730
570 581
570 584
570 615
570 620
570 621
570 622
570 626
570 638
570 642
570 655
570 669
570 679
570 682
570 688
570 691
570 715
570 717
570 733
570 746
570 747
570 749
570 754
571 579
571 752
572 587
572 621
572 644
572 655
572 670
572 678
572 758
574 578
574 607
574 617
574 621
574 660
574 661
574 682
574 700
574 723
574 727
574 745
574 760
576 583
576 601
576 612
576 649
576 700
576 707
576 721
577 618
577 666
577 680
577 685
578 655
578 700
578 760
579 621
579 627
579 644
579 655
579 698
579 700
579 711
579 726
579 737
579 752
579 758
580 582
580 588
580 618
580 700
580 710
580 711
580 726
580 727
581 587
581 593
581 595
581 605
581 613
581 615
581 621
581 622
581 637
581 645
581 647
581 648
581 655
581 666
581 670
581 673
581 674
581 678
581 686
581 696
581 698
581 706
581 707
581 709
581 717
581 728
581 733
581 739
581 750
581 758
582 606
582 618
582 640
582 657
582 661
582 665
582 668
582 678
582 687
582 700
582 710
582 713
582 715
582 727
582 738
582 748
582 753
582 756
582 757
583 584
583 601
583 615
583 630
583 647
583 655
583 678
583 685
583 700
583 705
583 707
583 708
583 721
583 736
583 741
583 759
584 594
584 615
584 622
584 638
584 645
584 649
584 650
584 655
584 660
584 663
584 682
584 685
584 705
584 708
584 717
584 721
584 729
584 741
584 747
584 758
584 759
585 610
585 629
585 640
585 645
585 651
585 663
585 700
585 726
585 727
585 736
586 650
587 593
587 613
587 644
587 655
587 656
587 670
587 678
587 696
587 698
587 707
587 709
587 737
587 739
587 758
588 617
588 618
588 629
588 657
588 661
588 680
588 700
588 713
588 726
590 607
590 620
590 655
590 666
590 669
590 723
590 751
590 758
591 630
592 618
592 700
593 595
593 605
593 615
593 621
593 622
593 637
593 648
593 670
593 673
593 678
593 679
593 691
593 696
593 706
593 707
593 709
593 733
593 739
593 750
593 758
594 613
594 638
594 643
594 655
594 691
594 721
594 745
595 621
595 637
595 670
595 678
595 696
595 698
595 706
595 709
595 737
595 739
595 750
596 615
596 636
596 637
596 647
596 670
596 697
596 707
596 708
596 721
596 739
597 599
597 603
597 609
597 616
597 623
597 629
597 633
597 645
597 651
597 659
597 690
597 706
597 711
597 719
598 617
598 652
598 760
599 629
599 666
599 681
599 685
599 689
599 726
600 737
601 611
601 612
601 625
601 627
601 636
601 641
601 648
601 661
601 678
601 685
601 701
601 711
601 736
601 741
601 751
602 645
602 650
602 678
602 706
602 737
603 623
603 640
603 645
603 651
603 659
603 700
603 706
603 726
604 615
604 622
604 638
604 642
604 655
604 717
604 747
605 670
605 678
605 696
605 707
605 709
605 739
606 618
606 661
606 700
606 702
606 713
606 726
607 611
607 612
607 617
607 618
607 620
607 622
607 634
607 636
607 647
607 655
607 660
607 661
607 675
607 682
607 688
607 700
607 708
607 717
607 721
607 723
607 726
607 728
607 741
607 745
607 746
607 747
607 753
608 646
608 722
608 731
608 739
609 629
609 645
609 650
609 711
610 629
610 640
610 645
610 651
610 663
610 678
610 726
610 758
611 621
611 622
611 638
611 670
611 686
611 688
611 698
611 700
611 707
611 709
611 721
611 746
611 750
612 621
612 628
612 636
612 677
612 708
612 714
612 721
612 728
612 741
613 615
613 617
613 618
613 630
613 648
613 651
613 655
613 670
613 678
613 682
613 693
613 723
613 745
614 617
614 701
614 724
615 618
615 621
615 622
615 629
615 632
615 633
615 638
615 641
615 645
615 647
615 648
615 650
615 651
615 655
615 670
615 673
615 676
615 678
615 682
615 685
615 690
615 696
615 700
615 706
615 709
615 717
615 724
615 727
615 729
615 730
615 733
615 739
615 745
615 747
615 750
615 758
615 759
616 645
616 648
616 650
616 654
616 657
616 679
616 706
616 715
616 739
617 622
617 652
617 655
617 660
617 661
617 667
617 678
617 686
617 687
617 723
617 736
617 743
618 619
618 625
618 629
618 633
618 637
618 640
618 651
618 657
618 661
618 665
618 666
618 680
618 682
618 685
618 687
618 700
618 703
618 710
618 713
618 726
618 727
618 738
618 740
618 741
618 754
618 755
618 756
619 700
620 622
620 626
620 631
620 638
620 717
620 723
620 747
620 751
621 622
621 640
621 647
621 648
621 649
621 655
621 656
621 657
621 663
621 666
621 670
621 674
621 678
621 686
621 696
621 698
621 700
621 706
621 707
621 726
621 737
621 739
621 741
621 750
621 758
622 631
622 638
622 642
622 645
622 657
622 660
622 662
622 669
622 682
622 688
622 692
622 706
622 717
622 733
622 741
622 746
622 747
622 749
622 754
622 758
623 629
623 640
623 645
623 650
623 659
623 661
623 663
623 685
623 700
623 711
623 726
623 754
625 629
625 637
625 655
625 713
625 751
625 758
626 638
626 649
626 723
626 747
627 629
627 642
627 655
627 656
627 663
627 678
627 711
627 758
628 661
628 721
629 631
629 633
629 635
629 639
629 640
629 643
629 645
629 649
629 650
629 662
629 663
629 666
629 670
629 678
629 679
629 681
629 685
629 690
629 700
629 703
629 706
629 707
629 708
629 711
629 713
629 719
629 721
629 723
629 726
629 736
629 753
631 634
631 638
631 642
631 700
631 745
631 749
631 754
632 643
632 655
632 667
632 682
632 723
632 729
632 736
632 745
632 760
633 640
633 645
633 651
633 659
633 661
633 678
633 682
633 689
633 700
633 726
634 708
634 721
634 723
635 643
635 649
635 650
635 661
635 700
636 647
636 658
636 674
636 700
636 721
636 728
636 741
637 648
637 670
637 678
637 691
637 696
637 733
638 642
638 662
638 669
638 673
638 678
638 705
638 717
638 729
638 733
638 736
638 747
639 640
639 726
640 651
640 659
640 660
640 661
640 678
640 682
640 700
640 711
640 716
640 727
640 738
640 750
641 655
641 686
642 655
642 662
642 700
642 707
642 717
642 736
642 746
642 749
642 754
643 650
643 661
643 667
643 676
643 729
644 655
644 670
644 698
644 706
644 737
644 758
645 648
645 650
645 654
645 659
645 661
645 673
645 676
645 690
645 691
645 706
645 711
645 719
645 726
645 736
646 678
646 696
646 722
646 731
646 739
647 655
647 658
647 661
647 670
647 680
647 708
647 721
647 739
647 741
647 750
648 654
648 689
648 690
648 691
648 696
648 701
648 706
648 709
648 715
648 730
648 733
648 739
648 751
649 666
649 700
649 712
649 721
650 659
650 673
650 676
650 682
650 692
650 706
650 711
650 715
650 719
650 726
651 656
651 678
651 682
651 700
651 706
651 711
651 752
652 700
655 663
655 670
655 676
655 678
655 682
655 685
655 686
655 693
655 698
655 707
655 718
655 720
655 727
655 729
655 736
655 737
655 741
655 745
655 746
655 758
656 670
656 678
656 711
656 736
657 661
657 669
657 700
657 710
657 738
658 680
658 750
659 670
659 679
659 706
659 726
659 741
660 682
660 700
660 727
661 663
661 664
661 668
661 682
661 685
661 687
661 700
661 702
661 710
661 713
661 718
661 727
661 738
661 748
661 749
661 756
662 717
662 747
662 754
663 678
663 685
663 711
663 741
665 700
665 707
666 681
667 676
667 692
668 700
668 756
669 717
669 733
670 673
670 674
670 678
670 691
670 696
670 698
670 700
670 706
670 707
670 709
670 721
670 726
670 728
670 733
670 739
670 750
670 758
673 691
673 696
673 706
673 709
673 733
673 739
673 758
674 678
674 698
674 707
674 709
674 728
674 739
674 750
676 692
676 729
676 745
677 682
678 691
678 696
678 698
678 700
678 701
678 706
678 707
678 709
678 710
678 726
678 727
678 733
678 736
678 737
678 739
678 745
678 758
679 700
679 721
680 685
680 700
680 741
681 688
682 688
682 700
682 717
682 724
682 741
682 749
683 700
683 729
683 736
685 726
685 741
686 707
686 709
686 758
687 700
687 710
688 740
688 747
688 754
689 724
690 706
691 696
691 706
691 709
691 739
692 715
692 751
692 759
693 745
696 698
696 706
696 707
696 709
696 721
696 728
696 731
696 733
696 739
696 750
696 758
697 723
698 707
698 726
698 739
698 750
698 758
700 708
700 709
700 710
700 711
700 712
700 713
700 715
700 716
700 719
700 725
700 726
700 727
700 736
700 737
700 738
700 740
700 741
700 743
700 748
700 753
700 755
700 756
700 757
700 760
701 751
702 726
705 708
705 721
705 747
705 759
706 709
706 711
706 733
706 739
706 758
707 708
707 709
707 721
707 728
707 739
707 746
707 750
708 714
708 721
708 728
708 741
709 715
709 722
709 731
709 733
709 739
709 750
709 758
710 727
710 738
710 755
710 756
711 712
711 726
711 754
712 755
713 727
714 721
715 751
717 746
717 747
717 754
719 726
721 741
721 746
721 759
722 731
722 739
723 745
723 747
725 726
726 741
726 744
726 749
727 738
728 739
728 750
729 737
729 745
731 739
732 753
733 739
733 758
736 743
736 745
737 756
737 758
738 748
739 750
739 758
741 747
741 754
743 745
745 747
746 747
747 754
747 758
750 758
