%%MatrixMarket matrix coordinate pattern symmetric
961 961 18806
1 2
1 16
1 17
1 24
1 60
1 72
1 88
1 92
1 93
1 103
1 105
1 112
1 136
1 143
1 149
1 154
1 204
1 207
1 222
1 226
1 229
1 232
1 236
1 261
1 270
1 275
1 287
1 311
1 317
1 324
1 334
1 373
1 384
1 385
1 388
1 399
1 406
1 408
1 410
1 439
1 458
1 510
1 538
1 555
1 562
1 563
1 575
1 580
1 606
1 627
1 645
1 650
1 679
1 697
1 706
1 709
1 718
1 742
1 760
1 780
1 792
1 796
1 805
1 806
1 848
1 850
1 852
1 863
1 866
1 888
1 891
1 893
1 903
2 16
2 19
2 24
2 88
2 91
2 122
2 147
2 194
2 204
2 222
2 229
2 232
2 236
2 243
2 275
2 284
2 287
2 290
2 308
2 324
2 328
2 379
2 385
2 416
2 419
2 453
2 529
2 574
2 575
2 580
2 599
2 602
2 614
2 627
2 679
2 705
2 758
2 803
2 805
2 829
2 848
2 865
2 869
2 897
2 903
2 956
2 957
3 679
4 5
4 21
4 210
4 271
4 309
4 592
4 800
4 821
4 841
4 845
4 930
5 10
5 34
5 47
5 78
5 83
5 122
5 175
5 242
5 243
5 273
5 297
5 338
5 367
5 428
5 434
5 467
5 521
5 525
5 527
5 535
5 549
5 569
5 576
5 633
5 655
5 710
5 760
5 763
5 774
5 821
5 854
5 876
5 878
5 883
5 895
5 913
6 64
6 73
6 99
6 204
6 265
6 284
6 348
6 413
6 415
6 424
6 561
6 563
6 747
6 794
6 805
6 812
6 943
7 11
7 34
7 61
7 78
7 97
7 119
7 171
7 174
7 221
7 261
7 365
7 367
7 373
7 416
7 451
7 467
7 472
7 490
7 532
7 545
7 562
7 569
7 572
7 574
7 584
7 608
7 679
7 722
7 751
7 770
7 779
7 796
7 807
7 827
7 828
7 874
7 888
7 889
8 61
8 103
8 116
8 132
8 143
8 153
8 262
8 339
8 408
8 410
8 601
8 682
8 728
8 795
8 832
8 851
9 19
9 56
9 77
9 86
9 132
9 134
9 147
9 150
9 151
9 160
9 161
9 204
9 259
9 260
9 273
9 293
9 302
9 427
9 431
9 434
9 440
9 488
9 494
9 495
9 521
9 557
9 562
9 578
9 581
9 582
9 597
9 627
9 679
9 704
9 707
9 716
9 723
9 738
9 782
9 784
9 789
9 790
9 825
9 832
9 859
9 867
9 876
9 879
9 894
9 905
9 958
10 16
10 19
10 30
10 54
10 64
10 72
10 73
10 81
10 85
10 98
10 114
10 132
10 149
10 154
10 160
10 162
10 172
10 184
10 198
10 206
10 214
10 222
10 228
10 244
10 246
10 265
10 275
10 308
10 312
10 334
10 348
10 366
10 371
10 373
10 381
10 393
10 405
10 408
10 413
10 416
10 419
10 430
10 455
10 471
10 474
10 489
10 525
10 529
10 555
10 570
10 574
10 579
10 580
10 607
10 627
10 633
10 659
10 669
10 679
10 691
10 697
10 699
10 709
10 710
10 747
10 748
10 758
10 772
10 811
10 812
10 836
10 859
10 873
10 877
10 911
10 944
10 947
10 948
10 953
11 21
11 34
11 38
11 44
11 110
11 119
11 258
11 337
11 365
11 370
11 372
11 373
11 459
11 467
11 478
11 499
11 527
11 532
11 545
11 576
11 592
11 608
11 626
11 710
11 712
11 725
11 726
11 727
11 743
11 821
11 827
11 828
11 841
11 845
11 922
11 924
11 933
11 951
12 125
12 178
12 185
12 225
12 300
12 563
13 18
13 161
13 249
13 425
13 443
13 447
13 574
13 657
13 659
13 689
13 700
13 746
13 809
13 844
13 896
14 101
14 865
14 909
14 925
15 46
15 217
15 249
15 262
15 315
15 384
15 562
15 706
15 744
15 780
15 796
15 888
15 961
16 24
16 64
16 88
16 91
16 150
16 154
16 204
16 232
16 236
16 275
16 287
16 308
16 324
16 326
16 328
16 337
16 366
16 373
16 379
16 385
16 416
16 555
16 561
16 574
16 575
16 580
16 627
16 644
16 699
16 758
16 794
16 803
16 812
16 829
16 836
16 846
16 848
16 865
16 872
16 957
17 25
17 72
17 145
17 146
17 154
17 184
17 222
17 230
17 244
17 251
17 265
17 270
17 275
17 287
17 291
17 328
17 381
17 396
17 403
17 404
17 413
17 456
17 501
17 538
17 575
17 579
17 633
17 652
17 691
17 697
17 722
17 731
17 742
17 761
17 804
17 807
17 824
17 851
17 891
17 911
17 923
17 939
18 45
18 55
18 61
18 113
18 142
18 147
18 155
18 186
18 196
18 256
18 259
18 276
18 282
18 299
18 307
18 343
18 410
18 422
18 436
18 450
18 493
18 497
18 530
18 620
18 632
18 668
18 696
18 700
18 703
18 708
18 721
18 791
18 795
18 797
18 811
18 863
18 872
18 888
18 894
19 48
19 64
19 77
19 94
19 96
19 105
19 136
19 149
19 163
19 172
19 179
19 186
19 189
19 190
19 214
19 230
19 232
19 255
19 262
19 268
19 275
19 283
19 288
19 308
19 309
19 311
19 312
19 315
19 317
19 328
19 331
19 339
19 343
19 384
19 400
19 404
19 410
19 413
19 424
19 439
19 452
19 480
19 526
19 530
19 540
19 555
19 558
19 563
19 572
19 617
19 627
19 632
19 649
19 679
19 685
19 690
19 692
19 697
19 703
19 706
19 712
19 731
19 738
19 739
19 754
19 769
19 796
19 805
19 820
19 829
19 840
19 850
19 855
19 872
19 881
19 905
19 911
19 918
19 937
19 942
19 943
19 957
19 958
20 44
20 158
20 337
20 487
20 547
20 576
20 622
20 633
20 854
20 899
20 923
21 58
21 208
21 370
21 576
21 626
21 800
21 845
21 930
22 52
22 94
22 101
22 113
22 163
22 198
22 214
22 246
22 291
22 363
22 384
22 400
22 429
22 448
22 491
22 498
22 645
22 649
22 685
22 688
22 709
22 723
22 733
22 747
22 823
22 825
22 831
22 868
22 872
23 90
23 129
23 250
23 293
23 299
23 376
23 536
23 540
23 616
23 708
23 860
23 883
24 204
24 308
24 324
24 379
24 385
24 627
25 72
25 98
25 103
25 145
25 146
25 149
25 150
25 154
25 160
25 184
25 206
25 209
25 214
25 216
25 222
25 230
25 244
25 248
25 265
25 270
25 275
25 332
25 353
25 373
25 396
25 405
25 456
25 464
25 501
25 579
25 599
25 633
25 646
25 669
25 679
25 691
25 697
25 712
25 716
25 731
25 742
25 807
25 824
25 865
25 887
25 888
25 904
25 911
25 918
25 923
26 70
26 71
26 74
26 103
26 105
26 201
26 204
26 217
26 236
26 302
26 317
26 321
26 343
26 369
26 377
26 406
26 517
26 530
26 586
26 617
26 718
26 738
26 888
26 892
26 961
27 44
27 632
27 655
27 759
28 44
28 83
28 162
28 205
28 338
28 451
28 532
28 535
28 576
28 584
28 633
28 636
28 727
28 821
28 837
28 845
28 907
28 930
29 49
29 153
29 406
29 562
29 640
29 667
29 888
30 35
30 52
30 98
30 101
30 121
30 183
30 203
30 206
30 228
30 238
30 245
30 260
30 261
30 273
30 279
30 308
30 309
30 319
30 324
30 326
30 328
30 329
30 332
30 354
30 366
30 379
30 381
30 398
30 415
30 417
30 419
30 423
30 426
30 430
30 444
30 455
30 456
30 483
30 510
30 518
30 524
30 526
30 529
30 542
30 555
30 561
30 579
30 580
30 602
30 629
30 635
30 646
30 679
30 714
30 747
30 748
30 758
30 762
30 772
30 774
30 803
30 804
30 807
30 853
30 859
30 875
30 885
30 891
30 897
30 907
30 918
30 954
30 957
30 959
31 143
31 157
31 182
31 237
31 386
31 470
31 578
31 585
31 592
31 616
31 649
31 671
31 709
31 753
31 760
31 851
31 873
31 925
31 926
31 949
31 958
32 35
32 40
32 57
32 199
32 245
32 288
32 323
32 328
32 423
32 439
32 443
32 456
32 561
32 644
32 679
32 690
32 804
32 846
32 897
32 928
33 46
34 44
34 57
34 100
34 116
34 119
34 171
34 221
34 225
34 246
34 252
34 271
34 367
34 373
34 467
34 490
34 532
34 535
34 576
34 608
34 621
34 662
34 710
34 726
34 743
34 763
34 770
34 788
34 874
34 949
35 64
35 206
35 229
35 230
35 242
35 260
35 293
35 326
35 332
35 423
35 430
35 433
35 444
35 490
35 526
35 532
35 542
35 579
35 610
35 627
35 679
35 744
35 747
35 804
35 805
35 807
35 853
35 869
35 897
35 907
35 932
35 954
36 76
36 141
36 210
36 239
36 265
36 268
36 295
36 309
36 398
36 464
36 468
36 483
36 489
36 516
36 585
36 592
36 646
36 903
36 959
37 301
37 679
38 102
38 138
38 252
38 428
38 487
38 527
38 542
38 545
38 633
38 705
38 779
38 841
38 888
38 889
38 899
39 48
39 74
39 99
39 134
39 136
39 155
39 160
39 204
39 206
39 230
39 236
39 249
39 256
39 274
39 275
39 288
39 315
39 317
39 326
39 369
39 403
39 410
39 426
39 446
39 466
39 480
39 488
39 542
39 562
39 610
39 615
39 646
39 647
39 651
39 679
39 690
39 718
39 738
39 746
39 773
39 801
39 805
39 810
39 855
39 872
39 888
39 957
40 59
40 64
40 76
40 87
40 199
40 203
40 210
40 220
40 239
40 245
40 259
40 260
40 268
40 284
40 293
40 295
40 331
40 379
40 414
40 423
40 439
40 456
40 458
40 471
40 488
40 495
40 508
40 526
40 529
40 572
40 602
40 631
40 794
40 798
40 804
40 812
40 856
40 859
40 872
40 887
40 914
40 928
40 939
41 76
41 180
41 195
41 215
41 271
41 549
41 672
41 683
41 920
41 951
42 103
42 236
42 637
42 718
43 783
44 66
44 83
44 120
44 125
44 138
44 141
44 163
44 171
44 174
44 185
44 225
44 235
44 246
44 252
44 253
44 292
44 319
44 337
44 338
44 394
44 413
44 421
44 451
44 457
44 463
44 467
44 525
44 527
44 576
44 584
44 626
44 636
44 655
44 725
44 726
44 733
44 743
44 747
44 750
44 755
44 759
44 769
44 770
44 779
44 845
44 945
45 50
45 90
45 103
45 126
45 145
45 155
45 157
45 226
45 231
45 236
45 256
45 259
45 265
45 270
45 276
45 291
45 293
45 299
45 307
45 315
45 340
45 384
45 410
45 461
45 526
45 538
45 587
45 632
45 668
45 671
45 679
45 712
45 729
45 760
45 791
45 807
45 820
45 831
45 862
45 891
45 894
45 936
45 958
45 961
46 77
46 79
46 103
46 155
46 188
46 194
46 201
46 249
46 251
46 262
46 270
46 293
46 315
46 321
46 374
46 444
46 448
46 461
46 530
46 562
46 586
46 618
46 623
46 656
46 668
46 716
46 744
46 761
46 773
46 780
46 791
46 860
46 894
46 901
46 961
47 59
47 96
47 101
47 139
47 147
47 166
47 176
47 194
47 204
47 227
47 230
47 293
47 299
47 301
47 326
47 393
47 411
47 429
47 471
47 474
47 476
47 522
47 542
47 558
47 561
47 618
47 639
47 644
47 645
47 651
47 742
47 760
47 791
47 805
47 836
47 867
47 872
47 914
47 957
48 59
48 75
48 89
48 128
48 131
48 137
48 146
48 162
48 164
48 177
48 190
48 201
48 217
48 232
48 248
48 251
48 256
48 260
48 270
48 301
48 315
48 328
48 382
48 395
48 396
48 400
48 420
48 432
48 438
48 461
48 469
48 474
48 475
48 481
48 488
48 530
48 531
48 534
48 558
48 562
48 571
48 579
48 581
48 582
48 590
48 595
48 600
48 604
48 610
48 615
48 617
48 624
48 633
48 646
48 647
48 656
48 679
48 682
48 691
48 715
48 719
48 722
48 738
48 739
48 768
48 790
48 798
48 835
48 851
48 862
48 867
48 888
48 893
48 894
48 905
48 912
48 917
48 932
48 936
48 955
49 113
49 118
49 128
49 134
49 136
49 154
49 160
49 176
49 261
49 270
49 299
49 315
49 376
49 386
49 480
49 540
49 556
49 562
49 595
49 620
49 640
49 671
49 677
49 688
49 713
49 729
49 734
49 820
49 832
49 865
49 873
49 888
50 95
50 131
50 190
50 191
50 201
50 216
50 232
50 285
50 353
50 358
50 360
50 422
50 461
50 571
50 631
50 632
50 666
50 719
50 776
50 791
50 844
50 878
50 881
50 888
51 205
51 553
51 728
51 755
51 869
51 916
52 53
52 57
52 72
52 73
52 75
52 127
52 132
52 146
52 147
52 154
52 158
52 161
52 162
52 163
52 176
52 198
52 205
52 208
52 214
52 222
52 229
52 230
52 234
52 236
52 241
52 246
52 255
52 256
52 258
52 260
52 264
52 284
52 293
52 299
52 308
52 309
52 325
52 328
52 329
52 351
52 361
52 373
52 383
52 398
52 400
52 403
52 407
52 413
52 419
52 423
52 432
52 443
52 458
52 464
52 476
52 489
52 495
52 501
52 504
52 518
52 525
52 526
52 539
52 542
52 543
52 555
52 562
52 563
52 633
52 646
52 659
52 665
52 681
52 685
52 688
52 690
52 709
52 710
52 713
52 728
52 733
52 742
52 746
52 747
52 748
52 751
52 755
52 769
52 774
52 780
52 793
52 794
52 795
52 804
52 807
52 811
52 812
52 823
52 829
52 832
52 836
52 837
52 855
52 868
52 869
52 872
52 888
52 899
52 907
52 915
52 916
52 928
52 939
53 103
53 150
53 230
53 256
53 288
53 304
53 407
53 413
53 443
53 481
53 502
53 505
53 618
53 646
53 650
53 709
53 757
53 792
53 805
53 829
53 836
53 863
53 872
53 875
53 883
53 949
54 154
54 162
54 163
54 206
54 214
54 229
54 287
54 329
54 373
54 403
54 407
54 413
54 416
54 424
54 456
54 476
54 495
54 539
54 574
54 579
54 633
54 645
54 655
54 804
54 823
54 835
55 71
55 99
55 103
55 186
55 196
55 226
55 236
55 259
55 284
55 286
55 311
55 315
55 461
55 502
55 516
55 595
55 637
55 681
55 703
55 704
55 761
55 840
55 875
55 894
55 912
56 113
56 132
56 134
56 143
56 147
56 155
56 161
56 166
56 246
56 260
56 264
56 278
56 293
56 299
56 311
56 315
56 436
56 488
56 489
56 494
56 521
56 587
56 592
56 601
56 616
56 704
56 710
56 723
56 780
56 784
56 832
56 836
56 851
56 859
56 865
56 921
56 949
56 958
57 59
57 75
57 81
57 116
57 119
57 134
57 139
57 160
57 166
57 168
57 194
57 203
57 231
57 232
57 246
57 256
57 284
57 293
57 301
57 311
57 312
57 313
57 417
57 429
57 467
57 471
57 496
57 521
57 522
57 526
57 528
57 536
57 550
57 558
57 562
57 572
57 608
57 646
57 647
57 650
57 669
57 671
57 679
57 701
57 709
57 710
57 711
57 746
57 748
57 760
57 788
57 792
57 810
57 837
57 865
57 869
57 872
57 874
57 879
57 887
57 888
57 891
57 908
57 921
57 926
57 929
57 940
57 949
57 952
58 370
58 621
58 636
59 75
59 111
59 139
59 141
59 142
59 144
59 145
59 147
59 160
59 166
59 194
59 203
59 206
59 229
59 232
59 246
59 261
59 284
59 293
59 301
59 312
59 313
59 325
59 328
59 343
59 373
59 388
59 429
59 435
59 436
59 441
59 471
59 472
59 474
59 496
59 526
59 531
59 558
59 561
59 594
59 597
59 610
59 617
59 618
59 632
59 650
59 656
59 669
59 679
59 688
59 701
59 712
59 748
59 760
59 790
59 792
59 807
59 855
59 871
59 872
59 879
59 885
59 887
59 891
59 904
59 907
59 940
59 956
59 958
59 959
60 75
60 103
60 112
60 127
60 182
60 192
60 204
60 317
60 343
60 362
60 373
60 388
60 399
60 408
60 429
60 484
60 522
60 558
60 593
60 650
60 670
60 701
60 709
60 718
60 748
60 780
60 787
60 801
60 805
60 850
60 863
60 937
60 939
60 952
61 64
61 102
61 103
61 146
61 155
61 162
61 178
61 179
61 184
61 199
61 206
61 211
61 214
61 229
61 230
61 239
61 241
61 252
61 253
61 256
61 265
61 283
61 291
61 293
61 308
61 348
61 362
61 373
61 379
61 381
61 390
61 405
61 407
61 426
61 428
61 456
61 458
61 466
61 476
61 479
61 493
61 496
61 498
61 508
61 526
61 529
61 542
61 562
61 570
61 574
61 594
61 602
61 626
61 633
61 646
61 651
61 652
61 685
61 700
61 716
61 718
61 722
61 779
61 780
61 791
61 792
61 794
61 803
61 805
61 831
61 841
61 888
61 897
61 933
62 679
63 88
63 98
63 154
63 162
63 191
63 199
63 204
63 207
63 216
63 220
63 238
63 241
63 279
63 364
63 455
63 458
63 550
63 558
63 580
63 689
63 754
63 804
63 805
63 807
63 829
63 844
63 853
63 872
63 878
63 888
63 956
64 72
64 89
64 91
64 98
64 103
64 126
64 127
64 132
64 141
64 145
64 146
64 150
64 154
64 155
64 163
64 181
64 182
64 183
64 184
64 188
64 198
64 199
64 206
64 210
64 217
64 220
64 222
64 227
64 228
64 229
64 239
64 245
64 246
64 255
64 265
64 268
64 274
64 275
64 293
64 309
64 323
64 328
64 336
64 348
64 351
64 381
64 403
64 405
64 408
64 413
64 423
64 424
64 433
64 455
64 456
64 464
64 476
64 482
64 483
64 508
64 526
64 550
64 555
64 561
64 563
64 599
64 602
64 635
64 644
64 669
64 709
64 710
64 744
64 765
64 793
64 794
64 804
64 811
64 829
64 830
64 835
64 856
64 859
64 875
64 891
64 897
64 914
64 915
64 935
64 939
64 942
64 943
65 146
65 155
65 160
65 238
65 270
65 291
65 377
65 399
65 438
65 468
65 480
65 488
65 617
65 704
65 865
65 885
65 894
65 928
65 929
65 934
66 120
66 171
66 182
66 214
66 225
66 235
66 249
66 292
66 412
66 451
66 735
66 829
66 882
66 945
67 86
67 108
67 117
67 128
67 131
67 132
67 134
67 136
67 147
67 151
67 236
67 246
67 278
67 293
67 299
67 302
67 323
67 339
67 377
67 393
67 406
67 475
67 505
67 540
67 557
67 562
67 579
67 581
67 586
67 613
67 616
67 640
67 666
67 674
67 716
67 721
67 742
67 762
67 801
67 855
67 865
67 870
67 872
67 888
67 902
67 958
68 128
68 173
68 201
68 264
68 266
68 296
68 299
68 307
68 311
68 315
68 321
68 353
68 382
68 462
68 537
68 571
68 604
68 607
68 631
68 632
68 667
68 719
68 754
68 878
68 905
68 956
69 349
69 420
69 461
69 754
70 112
70 147
70 275
70 291
70 340
70 369
70 531
70 572
70 579
70 624
70 679
70 712
70 729
70 739
70 773
70 776
71 90
71 103
71 126
71 157
71 201
71 204
71 236
71 264
71 276
71 282
71 291
71 302
71 307
71 315
71 321
71 343
71 422
71 436
71 460
71 461
71 493
71 517
71 530
71 531
71 543
71 562
71 582
71 586
71 603
71 612
71 644
71 645
71 656
71 685
71 708
71 744
71 767
71 774
71 791
71 865
71 872
71 888
71 892
71 949
71 958
72 82
72 85
72 91
72 105
72 128
72 145
72 146
72 149
72 150
72 154
72 172
72 184
72 188
72 192
72 206
72 220
72 222
72 230
72 238
72 243
72 275
72 302
72 308
72 324
72 334
72 373
72 377
72 381
72 393
72 423
72 430
72 455
72 456
72 489
72 494
72 501
72 525
72 550
72 555
72 579
72 599
72 627
72 633
72 646
72 660
72 679
72 691
72 697
72 711
72 716
72 737
72 742
72 748
72 758
72 772
72 773
72 804
72 807
72 812
72 829
72 848
72 873
72 923
72 937
72 944
72 953
73 127
73 132
73 163
73 198
73 199
73 214
73 230
73 246
73 325
73 326
73 329
73 348
73 413
73 415
73 419
73 456
73 489
73 501
73 504
73 539
73 542
73 651
73 688
73 709
73 710
73 726
73 746
73 747
73 769
73 794
73 812
73 823
73 829
73 836
73 846
73 869
73 907
73 939
73 957
73 958
74 296
74 311
74 317
74 351
74 369
74 399
74 452
74 531
74 615
74 712
74 734
74 738
74 739
74 741
74 761
74 776
74 798
74 840
75 127
75 128
75 132
75 146
75 147
75 155
75 161
75 163
75 172
75 194
75 203
75 214
75 230
75 255
75 256
75 260
75 293
75 311
75 312
75 313
75 339
75 343
75 362
75 373
75 388
75 419
75 436
75 456
75 488
75 494
75 505
75 522
75 562
75 574
75 578
75 593
75 669
75 674
75 681
75 688
75 709
75 710
75 718
75 746
75 747
75 769
75 780
75 789
75 823
75 859
75 868
75 872
75 887
75 894
75 902
75 940
75 957
76 141
76 210
76 238
76 239
76 268
76 284
76 295
76 411
76 434
76 464
76 516
76 543
76 585
76 592
76 814
76 837
76 841
76 876
76 959
77 118
77 128
77 132
77 134
77 160
77 177
77 188
77 229
77 231
77 233
77 250
77 259
77 260
77 264
77 270
77 284
77 293
77 302
77 376
77 384
77 400
77 434
77 440
77 460
77 481
77 491
77 536
77 550
77 562
77 592
77 595
77 612
77 616
77 620
77 648
77 649
77 666
77 671
77 679
77 688
77 709
77 740
77 746
77 749
77 753
77 852
77 857
77 872
77 876
77 893
77 894
77 897
77 905
77 921
77 936
78 104
78 174
78 365
78 416
78 490
78 532
78 569
78 622
78 634
78 751
78 827
78 828
78 922
78 933
79 109
79 130
79 265
79 275
79 282
79 315
79 323
79 340
79 373
79 441
79 474
79 538
79 562
79 624
79 628
79 646
79 667
79 679
79 716
79 718
79 722
79 731
79 779
79 807
79 808
79 810
79 847
79 888
80 187
80 197
80 451
80 487
80 500
80 662
80 770
80 804
81 194
81 232
81 312
81 313
81 393
81 430
81 555
81 637
81 669
81 697
81 701
81 748
81 758
81 760
81 807
81 869
81 879
81 887
81 928
81 948
82 145
82 149
82 154
82 160
82 162
82 163
82 164
82 184
82 214
82 220
82 246
82 325
82 329
82 373
82 403
82 451
82 457
82 501
82 539
82 566
82 574
82 633
82 662
82 690
82 710
82 742
82 748
82 769
82 794
82 795
82 812
82 872
82 887
83 175
83 242
83 338
83 428
83 451
83 535
83 576
83 633
83 636
83 760
83 763
83 821
83 845
84 137
84 176
84 190
84 353
84 442
84 719
84 761
84 776
84 785
84 840
85 105
85 145
85 147
85 149
85 154
85 172
85 184
85 206
85 216
85 222
85 230
85 234
85 249
85 275
85 311
85 312
85 317
85 337
85 343
85 371
85 373
85 377
85 399
85 407
85 411
85 458
85 503
85 574
85 679
85 690
85 697
85 710
85 718
85 756
85 805
85 812
85 850
85 957
86 108
86 117
86 151
86 674
86 859
86 902
87 90
87 155
87 186
87 323
87 328
87 343
87 493
87 497
87 523
87 565
87 586
87 592
87 613
87 616
87 632
87 642
87 676
87 722
87 723
87 729
87 768
87 789
87 808
87 859
87 961
88 95
88 103
88 105
88 109
88 112
88 130
88 154
88 156
88 162
88 172
88 184
88 191
88 204
88 207
88 214
88 216
88 220
88 222
88 232
88 236
88 238
88 265
88 275
88 279
88 287
88 288
88 329
88 364
88 366
88 373
88 385
88 413
88 416
88 452
88 455
88 456
88 458
88 476
88 495
88 501
88 515
88 552
88 580
88 627
88 628
88 667
88 679
88 681
88 689
88 690
88 699
88 742
88 754
88 804
88 807
88 844
88 848
88 876
88 878
88 888
88 915
88 956
89 126
89 137
89 146
89 259
89 276
89 299
89 309
89 321
89 325
89 382
89 469
89 655
89 664
89 679
89 729
89 749
89 785
89 885
89 891
89 905
89 961
90 103
90 113
90 134
90 155
90 157
90 173
90 204
90 236
90 264
90 276
90 293
90 299
90 307
90 321
90 343
90 444
90 461
90 475
90 491
90 493
90 530
90 556
90 583
90 586
90 587
90 612
90 613
90 616
90 640
90 642
90 646
90 668
90 703
90 704
90 718
90 754
90 785
90 789
90 795
90 872
90 879
90 912
90 921
90 935
90 937
91 149
91 184
91 222
91 230
91 232
91 275
91 287
91 405
91 552
91 555
91 627
91 697
91 742
91 757
91 792
91 805
91 836
91 876
91 937
92 103
92 236
92 498
92 502
92 645
92 760
92 863
93 149
93 275
93 311
93 317
93 358
93 377
93 399
93 590
93 640
93 646
93 718
93 739
93 754
93 888
94 159
94 291
94 475
94 517
94 523
94 685
94 715
94 760
94 761
94 791
94 802
94 831
95 102
95 105
95 109
95 149
95 154
95 191
95 207
95 216
95 236
95 265
95 275
95 312
95 317
95 353
95 360
95 371
95 473
95 552
95 679
95 697
95 719
95 738
95 741
95 752
95 754
95 776
95 841
95 888
95 948
96 103
96 147
96 236
96 277
96 352
96 373
96 402
96 496
96 526
96 571
96 578
96 597
96 663
96 745
96 752
96 758
96 791
96 900
96 937
96 940
96 946
97 532
97 609
97 726
97 743
97 800
98 121
98 132
98 191
98 203
98 216
98 220
98 222
98 228
98 230
98 238
98 252
98 273
98 275
98 290
98 293
98 308
98 324
98 328
98 329
98 354
98 366
98 377
98 393
98 398
98 423
98 430
98 434
98 455
98 456
98 483
98 490
98 501
98 529
98 550
98 555
98 561
98 579
98 602
98 629
98 635
98 646
98 656
98 697
98 758
98 762
98 804
98 836
98 837
98 853
98 897
98 914
98 919
98 939
98 948
98 954
98 957
99 103
99 106
99 112
99 147
99 161
99 164
99 203
99 204
99 226
99 229
99 236
99 259
99 274
99 284
99 291
99 293
99 313
99 411
99 418
99 420
99 436
99 443
99 502
99 516
99 550
99 563
99 566
99 585
99 592
99 637
99 645
99 646
99 667
99 669
99 676
99 681
99 685
99 686
99 687
99 693
99 701
99 703
99 720
99 748
99 752
99 791
99 796
99 850
99 856
99 894
99 915
99 934
99 937
99 940
100 115
100 260
100 268
100 345
100 489
100 598
100 710
100 757
100 770
100 836
101 103
101 111
101 132
101 134
101 146
101 151
101 161
101 163
101 198
101 204
101 214
101 234
101 236
101 238
101 246
101 248
101 259
101 264
101 309
101 311
101 325
101 331
101 339
101 345
101 354
101 355
101 398
101 400
101 413
101 419
101 434
101 448
101 474
101 495
101 512
101 518
101 522
101 529
101 539
101 556
101 561
101 575
101 581
101 586
101 601
101 617
101 639
101 648
101 655
101 671
101 674
101 681
101 685
101 688
101 709
101 710
101 714
101 733
101 747
101 760
101 769
101 774
101 780
101 787
101 793
101 804
101 811
101 820
101 822
101 823
101 829
101 831
101 832
101 837
101 842
101 868
101 872
101 888
101 907
101 927
101 934
101 939
101 949
101 954
102 138
102 174
102 208
102 252
102 283
102 335
102 337
102 373
102 383
102 409
102 527
102 683
102 705
102 722
102 779
102 796
102 841
102 911
103 106
103 112
103 126
103 128
103 136
103 145
103 155
103 157
103 159
103 160
103 161
103 162
103 169
103 173
103 188
103 191
103 192
103 196
103 204
103 210
103 223
103 229
103 231
103 236
103 237
103 255
103 256
103 264
103 266
103 277
103 284
103 285
103 286
103 291
103 301
103 302
103 311
103 312
103 321
103 322
103 328
103 343
103 352
103 369
103 388
103 389
103 393
103 400
103 402
103 406
103 408
103 416
103 429
103 436
103 438
103 443
103 448
103 460
103 474
103 495
103 496
103 498
103 502
103 505
103 510
103 517
103 518
103 521
103 526
103 530
103 531
103 543
103 552
103 561
103 562
103 563
103 566
103 571
103 572
103 578
103 582
103 583
103 586
103 589
103 597
103 606
103 607
103 611
103 612
103 617
103 633
103 637
103 639
103 644
103 645
103 646
103 650
103 663
103 676
103 679
103 681
103 682
103 685
103 686
103 689
103 693
103 694
103 701
103 718
103 730
103 744
103 760
103 767
103 784
103 790
103 791
103 792
103 805
103 811
103 844
103 853
103 855
103 860
103 863
103 865
103 866
103 870
103 872
103 878
103 883
103 888
103 891
103 893
103 900
103 917
103 921
103 925
103 937
103 940
103 944
103 946
103 950
103 956
104 125
104 158
104 178
104 179
104 193
104 208
104 225
104 240
104 330
104 394
104 416
104 421
104 454
104 457
104 463
104 527
104 532
104 584
104 606
104 626
104 687
104 743
104 750
104 751
104 765
104 799
104 830
104 906
104 907
104 913
104 922
105 149
105 154
105 156
105 172
105 190
105 192
105 201
105 216
105 222
105 228
105 236
105 275
105 287
105 290
105 328
105 329
105 343
105 362
105 371
105 377
105 381
105 399
105 458
105 521
105 575
105 624
105 630
105 646
105 697
105 716
105 718
105 731
105 739
105 756
105 794
105 804
105 911
106 112
106 192
106 204
106 266
106 462
106 611
106 644
106 645
106 667
106 679
106 738
106 754
106 844
106 878
106 956
107 186
107 264
107 304
107 325
107 363
107 374
107 620
107 632
107 637
107 648
107 678
107 825
107 855
107 892
107 909
108 151
108 323
108 328
108 461
108 557
108 581
108 586
108 616
108 674
108 902
109 156
109 191
109 241
109 279
109 290
109 348
109 366
109 413
109 416
109 473
109 482
109 486
109 508
109 515
109 529
109 541
109 569
109 627
109 630
109 732
109 736
109 741
109 752
109 803
109 882
109 888
110 115
110 138
110 141
110 148
110 152
110 174
110 175
110 180
110 205
110 252
110 267
110 269
110 284
110 310
110 320
110 337
110 372
110 499
110 521
110 541
110 549
110 576
110 692
110 743
110 774
110 846
110 895
110 898
110 933
110 957
111 160
111 200
111 229
111 284
111 295
111 417
111 436
111 448
111 528
111 558
111 601
111 679
111 792
112 130
112 139
112 160
112 204
112 224
112 264
112 266
112 291
112 293
112 299
112 410
112 444
112 568
112 596
112 631
112 645
112 646
112 667
112 689
112 695
112 754
112 791
112 832
112 844
112 878
112 888
112 917
113 143
113 155
113 161
113 196
113 201
113 203
113 204
113 254
113 284
113 286
113 291
113 293
113 299
113 321
113 343
113 350
113 382
113 420
113 436
113 450
113 460
113 468
113 529
113 531
113 585
113 592
113 604
113 618
113 632
113 671
113 676
113 685
113 686
113 704
113 720
113 723
113 729
113 753
113 784
113 839
113 867
113 936
114 206
114 230
114 249
114 268
114 326
114 332
114 337
114 373
114 405
114 407
114 426
114 456
114 466
114 471
114 474
114 542
114 550
114 579
114 580
114 644
114 646
114 651
114 679
114 691
114 716
114 747
114 794
114 805
114 807
114 817
114 859
114 869
114 908
114 957
115 150
115 168
115 194
115 210
115 212
115 238
115 239
115 268
115 312
115 329
115 345
115 398
115 407
115 415
115 434
115 439
115 501
115 518
115 525
115 598
115 618
115 627
115 655
115 710
115 714
115 757
115 829
115 836
115 837
115 863
116 119
116 231
116 238
116 367
116 411
116 467
116 471
116 504
116 521
116 523
116 528
116 536
116 550
116 558
116 608
116 645
116 646
116 650
116 686
116 689
116 746
116 784
116 788
116 837
116 865
116 874
116 891
116 919
116 926
116 949
117 151
117 581
117 674
117 721
117 902
118 121
118 136
118 139
118 147
118 160
118 163
118 188
118 191
118 227
118 229
118 250
118 257
118 270
118 297
118 309
118 311
118 320
118 321
118 328
118 329
118 369
118 376
118 387
118 390
118 405
118 416
118 429
118 434
118 435
118 436
118 537
118 541
118 561
118 562
118 572
118 580
118 614
118 617
118 627
118 650
118 669
118 679
118 683
118 719
118 746
118 752
118 760
118 774
118 781
118 832
118 855
118 871
118 885
118 887
118 888
118 891
118 907
118 910
118 911
118 925
118 927
118 961
119 171
119 221
119 225
119 257
119 367
119 467
119 478
119 532
119 535
119 576
119 608
119 726
119 743
119 770
119 788
119 821
119 874
120 182
120 214
120 225
120 235
120 249
120 292
120 451
120 457
120 576
120 735
120 829
121 147
121 148
121 160
121 183
121 184
121 203
121 206
121 228
121 238
121 246
121 257
121 268
121 273
121 287
121 310
121 313
121 373
121 395
121 416
121 418
121 525
121 562
121 579
121 580
121 603
121 610
121 614
121 641
121 644
121 656
121 687
121 710
121 746
121 762
121 774
121 804
121 835
121 853
121 954
121 957
122 242
122 829
123 430
123 748
124 157
124 288
124 314
124 492
124 679
124 835
124 941
125 178
125 179
125 252
125 454
125 456
125 463
125 563
125 765
125 830
125 951
126 142
126 146
126 226
126 236
126 264
126 291
126 309
126 311
126 375
126 382
126 420
126 436
126 460
126 562
126 583
126 585
126 592
126 603
126 604
126 640
126 656
126 667
126 676
126 693
126 718
126 729
126 744
126 773
126 791
126 862
126 864
126 888
126 891
126 905
126 956
126 961
127 132
127 163
127 164
127 198
127 214
127 243
127 246
127 260
127 290
127 328
127 329
127 362
127 373
127 388
127 391
127 398
127 403
127 413
127 419
127 449
127 458
127 483
127 518
127 539
127 544
127 554
127 593
127 671
127 688
127 709
127 710
127 714
127 718
127 733
127 747
127 772
127 780
127 793
127 794
127 804
127 805
127 823
127 829
127 836
127 859
127 863
127 868
127 872
127 939
127 950
128 147
128 155
128 163
128 164
128 165
128 173
128 176
128 192
128 204
128 222
128 236
128 255
128 260
128 264
128 266
128 275
128 293
128 299
128 302
128 307
128 309
128 313
128 315
128 321
128 373
128 381
128 389
128 393
128 413
128 424
128 429
128 435
128 436
128 441
128 493
128 494
128 496
128 498
128 515
128 519
128 525
128 571
128 578
128 587
128 589
128 595
128 607
128 631
128 640
128 645
128 648
128 667
128 669
128 670
128 678
128 679
128 689
128 697
128 703
128 709
128 710
128 716
128 737
128 747
128 748
128 754
128 769
128 772
128 794
128 844
128 865
128 870
128 872
128 878
128 888
128 891
128 894
128 921
128 927
128 934
128 937
128 939
128 949
128 953
128 956
128 958
129 155
129 232
129 250
129 259
129 293
129 295
129 299
129 321
129 331
129 452
129 536
129 592
129 632
129 773
129 872
129 891
129 894
129 950
130 275
130 285
130 311
130 353
130 515
130 568
130 615
130 679
130 689
130 718
130 738
130 752
130 754
130 761
130 878
130 888
130 891
131 190
131 200
131 201
131 231
131 296
131 317
131 328
131 343
131 358
131 363
131 374
131 391
131 461
131 481
131 640
131 649
131 679
131 685
131 718
131 738
131 739
131 795
131 825
131 831
131 860
131 872
131 892
131 958
132 134
132 155
132 161
132 163
132 165
132 166
132 172
132 194
132 198
132 203
132 214
132 246
132 255
132 256
132 260
132 261
132 264
132 293
132 302
132 313
132 327
132 329
132 373
132 388
132 400
132 443
132 468
132 489
132 494
132 501
132 502
132 505
132 518
132 539
132 555
132 572
132 574
132 582
132 593
132 595
132 606
132 642
132 647
132 650
132 659
132 669
132 685
132 688
132 704
132 707
132 709
132 710
132 711
132 723
132 733
132 746
132 747
132 769
132 780
132 784
132 794
132 795
132 811
132 812
132 823
132 836
132 866
132 869
132 872
132 878
132 879
132 886
132 887
132 888
132 893
132 921
132 939
132 947
132 958
133 679
134 140
134 142
134 143
134 147
134 151
134 155
134 157
134 161
134 179
134 181
134 203
134 230
134 249
134 256
134 260
134 261
134 264
134 293
134 299
134 309
134 311
134 312
134 315
134 321
134 339
134 384
134 410
134 436
134 443
134 468
134 480
134 493
134 495
134 516
134 556
134 562
134 592
134 612
134 616
134 646
134 664
134 671
134 675
134 682
134 685
134 704
134 709
134 710
134 713
134 723
134 745
134 746
134 747
134 748
134 749
134 780
134 784
134 788
134 790
134 793
134 829
134 832
134 842
134 864
134 865
134 872
134 878
134 883
134 888
134 893
134 912
134 921
134 949
134 956
134 958
135 155
135 229
135 250
135 321
135 410
135 450
135 620
135 704
135 723
136 147
136 153
136 176
136 223
136 229
136 231
136 236
136 270
136 302
136 311
136 317
136 333
136 340
136 351
136 388
136 406
136 437
136 438
136 481
136 493
136 494
136 498
136 517
136 534
136 540
136 555
136 562
136 617
136 639
136 650
136 679
136 712
136 716
136 718
136 731
136 810
136 855
136 857
136 885
136 888
136 891
136 907
136 936
136 958
137 190
137 232
137 311
137 315
137 321
137 353
137 442
137 461
137 469
137 530
137 673
137 679
137 703
137 729
137 761
137 785
137 798
137 840
137 862
137 881
137 905
138 146
138 148
138 152
138 171
138 230
138 252
138 269
138 310
138 337
138 361
138 365
138 373
138 394
138 409
138 412
138 451
138 463
138 499
138 626
138 633
138 634
138 638
138 646
138 679
138 692
138 727
138 779
138 841
138 845
138 874
138 891
138 899
138 911
138 923
138 933
138 951
138 957
139 144
139 229
139 238
139 249
139 291
139 326
139 327
139 328
139 348
139 382
139 411
139 416
139 446
139 522
139 565
139 592
139 606
139 617
139 644
139 650
139 679
139 711
139 713
139 753
139 760
139 805
139 829
139 855
139 863
139 874
139 903
139 907
139 926
139 957
140 147
140 270
140 340
140 387
140 556
140 562
140 671
140 720
140 722
140 734
140 864
140 888
140 925
141 161
141 184
141 210
141 233
141 239
141 264
141 265
141 268
141 284
141 295
141 309
141 311
141 321
141 328
141 357
141 439
141 464
141 475
141 516
141 526
141 548
141 580
141 585
141 636
141 700
141 859
141 885
141 887
141 957
141 959
142 143
142 147
142 260
142 282
142 315
142 328
142 339
142 375
142 436
142 512
142 529
142 561
142 562
142 583
142 601
142 603
142 682
142 722
142 729
142 744
142 791
142 796
142 820
143 251
143 261
143 265
143 270
143 282
143 299
143 315
143 369
143 384
143 386
143 437
143 470
143 494
143 496
143 526
143 538
143 540
143 562
143 582
143 601
143 640
143 671
143 682
143 704
143 706
143 716
143 722
143 780
143 784
143 792
143 796
143 806
143 820
143 832
143 851
143 863
143 865
143 873
143 879
143 888
143 893
144 147
144 230
144 291
144 313
144 373
144 474
144 496
144 526
144 531
144 579
144 594
144 632
144 650
144 669
144 679
144 698
144 712
144 760
144 792
144 871
144 891
144 904
144 907
144 940
144 958
145 146
145 150
145 154
145 155
145 160
145 162
145 166
145 172
145 184
145 194
145 203
145 206
145 230
145 244
145 246
145 265
145 268
145 275
145 293
145 301
145 312
145 313
145 328
145 353
145 364
145 373
145 393
145 396
145 405
145 430
145 434
145 455
145 456
145 458
145 461
145 472
145 476
145 495
145 496
145 501
145 505
145 508
145 518
145 529
145 542
145 550
145 552
145 555
145 561
145 566
145 579
145 602
145 627
145 644
145 646
145 656
145 669
145 691
145 697
145 699
145 710
145 722
145 733
145 748
145 754
145 794
145 807
145 823
145 824
145 836
145 860
145 872
145 875
145 887
145 923
145 935
145 944
145 950
145 954
145 957
146 147
146 154
146 155
146 156
146 162
146 184
146 206
146 209
146 210
146 230
146 238
146 244
146 247
146 250
146 255
146 265
146 268
146 270
146 275
146 284
146 293
146 312
146 337
146 373
146 388
146 407
146 413
146 416
146 426
146 434
146 456
146 457
146 471
146 472
146 476
146 488
146 496
146 501
146 505
146 526
146 542
146 555
146 562
146 575
146 579
146 602
146 617
146 627
146 630
146 633
146 646
146 667
146 668
146 669
146 676
146 679
146 691
146 710
146 737
146 750
146 780
146 792
146 794
146 804
146 805
146 807
146 824
146 835
146 836
146 860
146 887
146 904
146 908
146 917
146 923
146 929
146 933
146 935
146 937
146 950
146 953
146 957
147 149
147 160
147 161
147 163
147 176
147 188
147 192
147 203
147 204
147 206
147 210
147 214
147 223
147 227
147 230
147 236
147 248
147 250
147 255
147 256
147 259
147 260
147 261
147 265
147 268
147 270
147 273
147 275
147 284
147 291
147 293
147 296
147 299
147 302
147 303
147 308
147 309
147 313
147 315
147 320
147 321
147 355
147 369
147 374
147 379
147 385
147 398
147 400
147 403
147 405
147 408
147 410
147 411
147 417
147 420
147 426
147 429
147 432
147 434
147 436
147 441
147 444
147 456
147 464
147 466
147 468
147 470
147 472
147 474
147 494
147 496
147 501
147 502
147 505
147 529
147 531
147 538
147 542
147 554
147 558
147 562
147 575
147 578
147 579
147 582
147 592
147 594
147 603
147 610
147 615
147 617
147 624
147 627
147 631
147 645
147 647
147 649
147 651
147 656
147 667
147 668
147 669
147 670
147 671
147 673
147 676
147 679
147 681
147 685
147 688
147 701
147 704
147 706
147 709
147 738
147 739
147 740
147 744
147 746
147 748
147 753
147 754
147 760
147 773
147 774
147 791
147 792
147 794
147 796
147 804
147 807
147 810
147 812
147 844
147 846
147 855
147 857
147 859
147 860
147 862
147 865
147 872
147 873
147 885
147 887
147 888
147 893
147 894
147 897
147 905
147 907
147 908
147 911
147 925
147 927
147 936
147 937
147 949
147 957
147 958
148 197
148 221
148 267
148 269
148 310
148 337
148 365
148 373
148 379
148 383
148 390
148 478
148 527
148 609
148 662
148 672
148 679
148 828
148 899
148 933
149 154
149 172
149 184
149 201
149 209
149 216
149 220
149 222
149 229
149 255
149 265
149 270
149 275
149 299
149 308
149 311
149 312
149 317
149 328
149 351
149 362
149 364
149 369
149 371
149 373
149 377
149 381
149 396
149 407
149 410
149 435
149 458
149 473
149 476
149 489
149 502
149 505
149 508
149 525
149 529
149 555
149 558
149 562
149 574
149 579
149 599
149 614
149 624
149 627
149 635
149 646
149 649
149 679
149 691
149 697
149 706
149 716
149 718
149 719
149 731
149 739
149 742
149 754
149 756
149 794
149 807
149 810
149 851
149 855
149 885
149 891
149 911
149 917
149 923
149 953
150 156
150 198
150 203
150 206
150 214
150 216
150 228
150 229
150 230
150 265
150 268
150 302
150 323
150 326
150 328
150 334
150 348
150 381
150 390
150 405
150 413
150 418
150 423
150 430
150 441
150 445
150 472
150 483
150 494
150 495
150 496
150 504
150 505
150 525
150 526
150 539
150 550
150 561
150 572
150 574
150 581
150 582
150 602
150 644
150 660
150 669
150 679
150 687
150 697
150 722
150 737
150 748
150 758
150 773
150 792
150 794
150 804
150 812
150 823
150 829
150 904
150 918
150 942
150 953
151 323
151 374
151 413
151 436
151 552
151 557
151 562
151 581
151 586
151 590
151 613
151 648
151 674
151 678
151 679
151 688
151 721
151 790
151 822
151 894
151 902
152 252
152 337
152 499
152 576
152 633
152 634
152 692
152 726
152 735
152 743
152 799
152 951
152 957
153 230
153 266
153 296
153 321
153 406
153 426
153 443
153 559
153 561
153 604
153 637
153 639
153 785
153 807
153 842
153 855
154 160
154 162
154 172
154 184
154 189
154 191
154 201
154 207
154 214
154 216
154 220
154 222
154 243
154 244
154 255
154 265
154 275
154 277
154 312
154 324
154 325
154 328
154 329
154 336
154 348
154 364
154 373
154 403
154 404
154 413
154 419
154 424
154 455
154 458
154 464
154 476
154 484
154 488
154 493
154 495
154 501
154 508
154 543
154 555
154 558
154 564
154 566
154 574
154 602
154 607
154 617
154 633
154 635
154 640
154 644
154 646
154 652
154 679
154 689
154 690
154 697
154 709
154 733
154 780
154 804
154 807
154 812
154 829
154 836
154 840
154 872
154 878
154 911
154 923
154 929
154 931
154 939
154 944
154 950
155 161
155 166
155 169
155 177
155 184
155 186
155 188
155 196
155 203
155 204
155 206
155 222
155 230
155 231
155 232
155 234
155 236
155 238
155 246
155 248
155 249
155 250
155 251
155 255
155 256
155 260
155 264
155 270
155 274
155 276
155 293
155 299
155 302
155 312
155 315
155 321
155 328
155 337
155 339
155 343
155 350
155 357
155 362
155 373
155 391
155 400
155 401
155 410
155 413
155 432
155 434
155 436
155 441
155 444
155 449
155 450
155 456
155 466
155 468
155 480
155 487
155 488
155 489
155 493
155 494
155 495
155 497
155 502
155 512
155 523
155 526
155 531
155 550
155 556
155 562
155 587
155 606
155 613
155 618
155 620
155 632
155 633
155 637
155 645
155 646
155 647
155 651
155 668
155 669
155 674
155 675
155 676
155 679
155 681
155 682
155 685
155 704
155 709
155 710
155 712
155 715
155 716
155 718
155 720
155 723
155 725
155 740
155 744
155 747
155 749
155 761
155 773
155 784
155 785
155 791
155 792
155 793
155 794
155 795
155 807
155 829
155 832
155 836
155 859
155 860
155 863
155 865
155 867
155 872
155 883
155 888
155 894
155 905
155 912
155 932
155 934
155 935
156 207
156 212
156 222
156 236
156 246
156 265
156 275
156 279
156 290
156 332
156 345
156 348
156 373
156 458
156 552
156 555
156 575
156 690
156 710
156 742
156 757
156 805
156 829
156 836
156 878
156 897
156 904
157 203
157 223
157 229
157 231
157 236
157 237
157 260
157 264
157 276
157 284
157 357
157 376
157 406
157 443
157 460
157 466
157 468
157 493
157 495
157 531
157 571
157 578
157 592
157 600
157 635
157 650
157 675
157 709
157 718
157 773
157 793
157 811
157 865
157 883
157 885
157 910
157 912
157 925
157 935
157 958
157 961
158 179
158 205
158 240
158 361
158 383
158 562
158 576
158 728
158 751
158 755
158 796
158 854
158 869
158 888
158 913
158 916
158 933
159 400
159 517
159 586
159 872
160 184
160 190
160 191
160 201
160 214
160 220
160 223
160 226
160 227
160 236
160 243
160 249
160 255
160 256
160 261
160 270
160 284
160 288
160 291
160 312
160 320
160 325
160 336
160 358
160 364
160 376
160 378
160 399
160 400
160 403
160 411
160 424
160 432
160 434
160 436
160 438
160 452
160 458
160 468
160 480
160 484
160 488
160 493
160 495
160 501
160 508
160 517
160 522
160 529
160 530
160 555
160 562
160 566
160 574
160 578
160 580
160 585
160 586
160 597
160 613
160 617
160 640
160 646
160 647
160 652
160 673
160 676
160 693
160 694
160 718
160 739
160 762
160 791
160 801
160 805
160 832
160 855
160 865
160 871
160 872
160 876
160 885
160 891
160 894
160 926
160 927
160 929
160 934
160 936
160 937
160 952
160 954
160 956
161 166
161 169
161 176
161 194
161 204
161 209
161 234
161 248
161 274
161 293
161 295
161 309
161 322
161 327
161 328
161 331
161 339
161 343
161 384
161 443
161 449
161 464
161 468
161 480
161 489
161 495
161 505
161 512
161 516
161 518
161 526
161 528
161 544
161 556
161 558
161 585
161 592
161 635
161 642
161 645
161 650
161 657
161 659
161 669
161 701
161 704
161 710
161 713
161 728
161 734
161 747
161 784
161 785
161 791
161 795
161 814
161 829
161 865
161 872
161 883
161 887
161 896
161 903
161 917
161 926
161 929
161 935
161 959
162 164
162 184
162 198
162 199
162 214
162 222
162 230
162 234
162 246
162 268
162 283
162 301
162 340
162 353
162 356
162 359
162 364
162 366
162 370
162 373
162 403
162 407
162 413
162 419
162 455
162 458
162 476
162 487
162 534
162 538
162 542
162 554
162 555
162 574
162 580
162 595
162 629
162 633
162 679
162 691
162 710
162 722
162 733
162 747
162 780
162 792
162 807
162 864
162 888
162 912
162 928
162 936
162 939
162 950
163 191
163 198
163 206
163 214
163 246
163 257
163 260
163 264
163 275
163 288
163 301
163 309
163 313
163 322
163 325
163 328
163 329
163 333
163 336
163 341
163 348
163 356
163 359
163 362
163 369
163 373
163 398
163 400
163 403
163 413
163 418
163 419
163 456
163 458
163 464
163 486
163 489
163 504
163 512
163 525
163 538
163 539
163 563
163 576
163 593
163 595
163 606
163 633
163 646
163 649
163 655
163 656
163 671
163 679
163 680
163 681
163 685
163 688
163 690
163 702
163 709
163 710
163 714
163 733
163 747
163 769
163 780
163 794
163 811
163 812
163 823
163 829
163 835
163 836
163 859
163 865
163 868
163 872
163 918
163 939
163 943
163 953
164 214
164 237
164 256
164 260
164 284
164 301
164 356
164 359
164 362
164 403
164 407
164 419
164 435
164 474
164 476
164 485
164 508
164 519
164 520
164 550
164 554
164 558
164 566
164 592
164 611
164 659
164 671
164 689
164 753
164 780
164 797
164 855
164 888
164 939
164 940
164 950
165 192
165 256
165 429
165 461
165 502
165 589
165 670
165 688
165 701
165 709
165 723
165 748
165 865
165 866
165 872
165 893
166 168
166 176
166 194
166 203
166 232
166 246
166 260
166 293
166 301
166 312
166 313
166 436
166 471
166 496
166 505
166 526
166 558
166 606
166 669
166 688
166 701
166 704
166 710
166 723
166 734
166 748
166 754
166 784
166 791
166 805
166 836
166 859
166 869
166 872
166 879
166 883
166 887
166 935
166 940
167 235
167 412
167 459
167 609
167 672
167 765
167 815
167 827
167 884
167 920
168 194
168 230
168 246
168 301
168 309
168 312
168 313
168 319
168 364
168 419
168 433
168 434
168 452
168 518
168 611
168 618
168 646
168 655
168 669
168 747
168 748
168 810
168 837
168 850
168 869
168 876
168 919
169 260
169 354
169 446
169 502
169 516
169 522
169 592
169 637
169 757
169 805
169 829
169 831
169 846
169 863
169 876
169 903
169 926
170 679
170 729
171 174
171 185
171 235
171 337
171 394
171 412
171 490
171 576
171 625
171 735
171 750
171 759
171 765
171 783
171 845
171 891
171 924
171 945
171 949
172 184
172 206
172 216
172 222
172 228
172 265
172 275
172 308
172 311
172 312
172 317
172 318
172 328
172 329
172 343
172 364
172 366
172 371
172 373
172 377
172 381
172 399
172 458
172 479
172 489
172 555
172 574
172 679
172 697
172 718
172 731
172 737
172 756
172 801
172 807
172 829
172 850
172 873
172 923
172 944
172 947
173 264
173 276
173 299
173 307
173 315
173 321
173 422
173 537
173 571
173 596
173 631
173 646
173 956
174 208
174 252
174 335
174 412
174 465
174 496
174 508
174 527
174 547
174 576
174 633
174 638
174 755
174 779
174 807
174 828
174 841
174 945
175 242
175 297
175 338
175 428
175 535
175 760
175 763
175 821
176 198
176 204
176 234
176 249
176 295
176 326
176 331
176 408
176 411
176 468
176 505
176 644
176 650
176 674
176 681
176 704
176 713
176 747
176 781
176 805
176 812
176 829
176 865
176 935
176 957
177 188
177 200
177 248
177 251
177 270
177 273
177 293
177 299
177 321
177 382
177 384
177 400
177 420
177 534
177 536
177 604
177 610
177 620
177 649
177 656
177 679
177 712
177 715
177 729
177 768
177 862
177 894
177 905
177 912
177 936
178 179
178 252
178 283
178 454
178 456
178 463
178 563
178 626
178 830
179 193
179 225
179 240
179 252
179 283
179 335
179 373
179 416
179 421
179 454
179 463
179 576
179 606
179 609
179 626
179 633
179 679
179 751
179 765
179 799
179 841
179 854
179 906
179 913
179 922
179 933
180 195
180 271
180 367
180 576
180 683
180 743
180 765
180 951
180 959
181 254
181 295
181 516
181 556
181 585
181 616
181 959
182 234
182 235
182 292
182 324
182 354
182 386
182 449
182 457
182 470
182 483
182 502
182 510
182 518
182 558
182 563
182 592
182 637
182 646
182 650
182 686
182 709
182 727
182 760
182 762
182 801
182 810
182 814
182 829
182 853
182 890
182 903
182 926
182 949
183 184
183 206
183 210
183 233
183 239
183 257
183 260
183 268
183 302
183 309
183 328
183 329
183 354
183 410
183 418
183 419
183 456
183 525
183 529
183 543
183 548
183 555
183 556
183 561
183 592
183 617
183 630
183 633
183 660
183 679
183 720
183 762
183 769
183 780
183 804
183 814
183 832
183 859
183 885
183 953
183 957
184 198
184 201
184 206
184 210
184 214
184 216
184 220
184 222
184 230
184 239
184 244
184 265
184 268
184 270
184 275
184 317
184 348
184 364
184 368
184 371
184 373
184 377
184 381
184 399
184 405
184 407
184 413
184 430
184 444
184 455
184 456
184 457
184 458
184 464
184 476
184 496
184 501
184 508
184 518
184 522
184 526
184 529
184 555
184 574
184 599
184 602
184 633
184 646
184 652
184 656
184 669
184 691
184 697
184 710
184 756
184 780
184 792
184 804
184 805
184 807
184 824
184 836
184 848
184 850
184 864
184 872
184 877
184 887
184 907
184 911
184 923
184 928
184 944
184 953
185 539
185 576
185 655
185 759
186 200
186 229
186 264
186 328
186 363
186 374
186 382
186 450
186 493
186 578
186 604
186 618
186 632
186 679
186 686
186 704
186 740
186 761
186 825
186 840
186 867
186 888
187 197
187 500
187 545
187 662
187 804
187 911
188 206
188 248
188 250
188 251
188 259
188 260
188 264
188 270
188 293
188 315
188 382
188 405
188 420
188 441
188 456
188 461
188 526
188 536
188 610
188 614
188 617
188 656
188 668
188 679
188 704
188 706
188 715
188 744
188 753
188 773
188 777
188 790
188 796
188 804
188 857
188 872
188 885
188 894
188 905
188 908
188 925
188 932
189 199
189 246
189 288
189 326
189 336
189 348
189 403
189 413
189 419
189 424
189 564
189 679
189 690
189 731
189 793
189 807
189 918
190 232
190 315
190 321
190 369
190 371
190 374
190 396
190 437
190 442
190 462
190 582
190 640
190 649
190 716
190 718
190 738
190 754
190 798
190 840
190 856
190 881
191 204
191 207
191 216
191 222
191 244
191 257
191 279
191 337
191 364
191 455
191 458
191 473
191 476
191 502
191 508
191 515
191 527
191 580
191 589
191 629
191 667
191 689
191 741
191 754
191 807
191 844
191 878
191 888
191 956
192 201
192 222
192 229
192 265
192 266
192 275
192 302
192 317
192 321
192 334
192 353
192 373
192 377
192 381
192 389
192 393
192 399
192 429
192 562
192 569
192 589
192 611
192 649
192 667
192 670
192 689
192 697
192 703
192 709
192 718
192 738
192 746
192 748
192 754
192 758
192 780
192 791
192 822
192 844
192 872
192 878
192 888
192 932
192 937
192 956
193 240
193 454
193 765
193 799
193 913
194 203
194 230
194 232
194 246
194 256
194 260
194 261
194 293
194 301
194 312
194 313
194 327
194 328
194 390
194 405
194 408
194 413
194 434
194 452
194 480
194 496
194 505
194 518
194 526
194 550
194 558
194 572
194 578
194 589
194 606
194 618
194 669
194 701
194 709
194 710
194 711
194 746
194 747
194 748
194 754
194 792
194 795
194 810
194 829
194 836
194 837
194 865
194 869
194 872
194 879
194 887
194 908
194 940
194 947
194 952
195 271
195 683
195 845
195 951
196 204
196 206
196 231
196 236
196 248
196 255
196 286
196 293
196 319
196 382
196 384
196 407
196 456
196 460
196 488
196 523
196 526
196 556
196 562
196 604
196 618
196 620
196 632
196 645
196 655
196 668
196 685
196 686
196 704
196 723
196 729
196 754
196 780
196 837
196 874
196 907
197 225
197 500
197 509
197 609
197 662
197 804
197 821
197 930
198 203
198 214
198 222
198 229
198 234
198 238
198 246
198 264
198 268
198 313
198 325
198 329
198 341
198 348
198 364
198 398
198 400
198 403
198 407
198 413
198 419
198 451
198 456
198 471
198 476
198 489
198 501
198 525
198 529
198 539
198 543
198 561
198 595
198 671
198 679
198 680
198 685
198 687
198 688
198 709
198 710
198 713
198 714
198 733
198 747
198 748
198 769
198 780
198 794
198 811
198 812
198 823
198 829
198 836
198 837
198 859
198 868
198 869
198 872
198 907
198 915
198 939
199 204
199 220
199 245
199 246
199 257
199 279
199 288
199 313
199 329
199 336
199 345
199 348
199 405
199 439
199 455
199 456
199 458
199 479
199 525
199 526
199 602
199 644
199 690
199 714
199 733
199 744
199 757
199 804
199 807
199 820
199 885
199 897
199 914
199 928
199 939
199 947
200 295
200 363
200 384
200 448
200 601
200 649
200 787
200 811
200 842
200 932
201 222
201 229
201 232
201 265
201 275
201 296
201 299
201 311
201 315
201 317
201 321
201 328
201 343
201 351
201 353
201 360
201 369
201 373
201 374
201 376
201 410
201 452
201 462
201 480
201 530
201 537
201 558
201 560
201 574
201 589
201 615
201 617
201 624
201 640
201 646
201 649
201 656
201 666
201 670
201 673
201 679
201 718
201 719
201 729
201 738
201 739
201 754
201 756
201 761
201 776
201 798
201 832
201 840
201 860
201 881
201 912
201 917
201 929
201 936
201 944
201 949
202 255
202 284
202 309
202 320
202 357
202 405
202 474
202 494
202 541
202 774
202 857
202 895
202 925
202 927
203 204
203 230
203 236
203 238
203 244
203 246
203 255
203 260
203 264
203 273
203 293
203 309
203 312
203 313
203 327
203 328
203 339
203 374
203 391
203 413
203 420
203 434
203 436
203 460
203 468
203 471
203 472
203 494
203 496
203 505
203 528
203 556
203 558
203 561
203 572
203 592
203 606
203 616
203 644
203 664
203 669
203 671
203 688
203 701
203 709
203 710
203 720
203 747
203 748
203 754
203 773
203 792
203 811
203 824
203 836
203 853
203 859
203 865
203 869
203 872
203 879
203 883
203 887
203 907
203 921
203 935
203 940
203 954
204 206
204 207
204 222
204 229
204 232
204 236
204 248
204 255
204 256
204 260
204 261
204 274
204 275
204 284
204 286
204 287
204 291
204 293
204 301
204 307
204 309
204 313
204 328
204 379
204 385
204 388
204 408
204 411
204 422
204 429
204 440
204 441
204 443
204 448
204 456
204 460
204 474
204 475
204 484
204 488
204 495
204 496
204 498
204 502
204 505
204 508
204 516
204 517
204 521
204 526
204 529
204 552
204 562
204 563
204 566
204 571
204 575
204 580
204 585
204 586
204 592
204 595
204 596
204 599
204 604
204 606
204 633
204 637
204 645
204 647
204 656
204 667
204 669
204 676
204 681
204 685
204 686
204 689
204 695
204 701
204 703
204 704
204 709
204 718
204 720
204 723
204 740
204 742
204 746
204 748
204 752
204 754
204 760
204 767
204 791
204 796
204 811
204 836
204 837
204 844
204 848
204 850
204 863
204 866
204 872
204 876
204 878
204 883
204 887
204 888
204 891
204 897
204 907
204 908
204 912
204 915
204 928
204 934
204 936
204 937
204 940
204 959
205 258
205 305
205 330
205 361
205 383
205 451
205 553
205 625
205 633
205 728
205 747
205 751
205 755
205 830
205 846
205 869
205 913
205 916
206 210
206 230
206 260
206 263
206 275
206 286
206 309
206 319
206 322
206 326
206 328
206 329
206 334
206 357
206 373
206 396
206 400
206 403
206 405
206 407
206 408
206 416
206 419
206 424
206 426
206 430
206 441
206 443
206 452
206 455
206 456
206 460
206 466
206 495
206 501
206 505
206 517
206 519
206 521
206 524
206 525
206 529
206 534
206 542
206 547
206 555
206 563
206 617
206 622
206 633
206 645
206 646
206 651
206 655
206 687
206 691
206 699
206 706
206 722
206 737
206 747
206 758
206 760
206 769
206 773
206 780
206 790
206 791
206 793
206 794
206 804
206 807
206 808
206 810
206 812
206 823
206 835
206 846
206 849
206 855
206 859
206 865
206 869
206 872
206 875
206 876
206 882
206 891
206 894
206 903
206 907
206 908
206 923
206 939
206 947
206 952
206 953
206 957
206 959
207 216
207 220
207 455
207 458
207 580
207 689
207 754
207 844
208 230
208 240
208 252
208 279
208 283
208 305
208 310
208 335
208 366
208 367
208 370
208 383
208 409
208 428
208 451
208 465
208 501
208 527
208 579
208 584
208 626
208 638
208 705
208 728
208 742
208 751
208 755
208 765
208 779
208 807
208 841
208 858
208 891
208 899
208 916
209 234
209 238
209 239
209 248
209 264
209 339
209 413
209 436
209 512
209 635
209 642
209 794
209 829
209 855
209 865
209 876
209 957
210 227
210 233
210 234
210 239
210 260
210 268
210 280
210 284
210 295
210 309
210 348
210 390
210 407
210 413
210 423
210 464
210 501
210 502
210 516
210 561
210 585
210 592
210 606
210 636
210 710
210 753
210 757
210 760
210 762
210 774
210 780
210 795
210 800
210 814
210 829
210 845
210 859
210 863
210 869
210 876
210 907
210 926
210 947
210 953
210 957
210 959
211 295
211 366
211 482
211 541
211 627
211 637
211 655
211 700
211 803
211 829
211 882
212 222
212 236
212 246
212 332
212 345
212 552
212 575
212 598
212 710
212 733
212 742
212 747
212 757
212 836
213 865
214 220
214 226
214 235
214 243
214 246
214 249
214 250
214 256
214 264
214 292
214 301
214 325
214 328
214 329
214 341
214 348
214 356
214 359
214 362
214 373
214 400
214 403
214 405
214 407
214 418
214 419
214 432
214 451
214 457
214 464
214 474
214 476
214 482
214 501
214 527
214 539
214 554
214 574
214 576
214 595
214 602
214 626
214 633
214 644
214 671
214 679
214 680
214 681
214 685
214 688
214 690
214 709
214 710
214 726
214 728
214 733
214 742
214 743
214 746
214 747
214 748
214 751
214 757
214 769
214 773
214 779
214 780
214 794
214 801
214 807
214 811
214 812
214 823
214 829
214 836
214 847
214 868
214 872
214 882
214 918
214 932
214 939
214 944
214 950
214 957
215 467
215 717
216 222
216 265
216 275
216 311
216 312
216 317
216 328
216 364
216 366
216 371
216 377
216 399
216 406
216 455
216 458
216 464
216 489
216 501
216 554
216 574
216 575
216 580
216 585
216 607
216 615
216 617
216 627
216 646
216 659
216 690
216 718
216 731
216 738
216 739
216 754
216 756
216 807
216 829
216 832
216 836
216 850
216 872
216 878
216 886
216 888
216 923
216 937
216 939
216 943
216 956
217 259
217 262
217 316
217 382
217 420
217 450
217 563
217 604
217 640
217 656
217 703
217 787
217 825
217 840
217 894
217 961
218 433
218 464
218 479
218 931
219 251
219 261
219 270
219 280
219 337
219 538
219 679
219 682
219 894
219 912
220 222
220 227
220 255
220 257
220 275
220 290
220 293
220 308
220 324
220 329
220 336
220 348
220 351
220 381
220 413
220 424
220 526
220 602
220 607
220 633
220 652
220 662
220 679
220 690
220 697
220 744
220 747
220 780
220 804
220 829
220 836
220 840
220 856
220 872
220 914
220 939
221 337
221 367
221 467
221 608
221 758
221 788
221 874
222 229
222 236
222 246
222 265
222 270
222 275
222 279
222 285
222 287
222 290
222 302
222 308
222 321
222 324
222 328
222 332
222 334
222 336
222 339
222 345
222 351
222 364
222 369
222 371
222 373
222 377
222 379
222 381
222 385
222 402
222 410
222 413
222 424
222 430
222 443
222 458
222 470
222 476
222 489
222 508
222 552
222 555
222 558
222 579
222 580
222 617
222 646
222 670
222 679
222 687
222 689
222 691
222 697
222 699
222 701
222 710
222 719
222 742
222 747
222 748
222 754
222 757
222 772
222 780
222 794
222 804
222 805
222 824
222 829
222 832
222 836
222 848
222 873
222 878
222 888
222 914
222 917
222 923
222 948
222 956
223 230
223 236
223 291
223 302
223 406
223 426
223 437
223 438
223 498
223 534
223 586
223 617
223 693
223 718
223 855
223 891
223 908
223 958
225 235
225 249
225 292
225 333
225 451
225 463
225 467
225 532
225 576
225 608
225 625
225 634
225 636
225 726
225 735
225 765
225 769
225 821
225 829
226 251
226 256
226 259
226 261
226 265
226 270
226 313
226 315
226 324
226 340
226 384
226 399
226 488
226 494
226 526
226 529
226 538
226 558
226 562
226 617
226 671
226 703
226 706
226 722
226 729
226 796
226 807
226 820
226 852
226 872
226 888
226 934
226 937
226 952
227 265
227 268
227 411
227 456
227 464
227 563
227 580
227 602
227 614
227 744
227 804
227 855
227 907
227 911
228 230
228 238
228 329
228 381
228 393
228 413
228 430
228 525
228 579
228 679
228 697
228 699
228 718
228 807
228 817
228 853
228 953
229 230
229 236
229 238
229 243
229 251
229 255
229 260
229 262
229 273
229 276
229 288
229 309
229 311
229 312
229 315
229 317
229 321
229 329
229 331
229 332
229 343
229 350
229 369
229 373
229 379
229 399
229 400
229 406
229 407
229 408
229 410
229 413
229 417
229 429
229 436
229 450
229 456
229 496
229 526
229 534
229 537
229 555
229 574
229 575
229 585
229 592
229 601
229 617
229 620
229 632
229 637
229 640
229 649
229 664
229 666
229 669
229 671
229 679
229 681
229 690
229 697
229 703
229 718
229 723
229 729
229 738
229 747
229 748
229 752
229 780
229 792
229 796
229 805
229 807
229 810
229 829
229 840
229 855
229 863
229 867
229 872
229 875
229 887
229 891
229 907
229 926
229 928
229 937
229 940
229 952
229 953
230 246
230 249
230 252
230 260
230 261
230 268
230 270
230 275
230 278
230 288
230 291
230 309
230 322
230 326
230 327
230 328
230 332
230 337
230 339
230 357
230 366
230 369
230 373
230 396
230 398
230 405
230 407
230 413
230 416
230 417
230 423
230 426
230 436
230 441
230 443
230 446
230 454
230 455
230 456
230 466
230 480
230 488
230 489
230 505
230 510
230 524
230 529
230 531
230 542
230 558
230 561
230 562
230 563
230 567
230 572
230 579
230 599
230 606
230 611
230 615
230 617
230 630
230 633
230 646
230 647
230 651
230 652
230 656
230 679
230 687
230 691
230 698
230 710
230 711
230 716
230 718
230 722
230 731
230 737
230 738
230 742
230 747
230 757
230 760
230 761
230 773
230 774
230 791
230 794
230 804
230 805
230 807
230 812
230 817
230 823
230 829
230 834
230 837
230 846
230 859
230 869
230 874
230 875
230 886
230 887
230 888
230 889
230 891
230 904
230 907
230 908
230 911
230 912
230 923
230 935
230 936
230 942
230 951
230 954
230 957
231 236
231 299
231 363
231 374
231 384
231 406
231 410
231 411
231 434
231 437
231 441
231 461
231 471
231 481
231 526
231 534
231 550
231 555
231 562
231 618
231 632
231 639
231 646
231 649
231 650
231 671
231 712
231 718
231 746
231 748
231 788
231 810
231 855
231 873
231 874
231 891
231 907
231 926
231 932
231 949
231 958
232 246
232 250
232 276
232 287
232 293
232 299
232 301
232 302
232 312
232 313
232 315
232 317
232 349
232 353
232 379
232 385
232 396
232 410
232 442
232 444
232 475
232 524
232 530
232 534
232 552
232 558
232 562
232 571
232 575
232 580
232 589
232 599
232 627
232 631
232 640
232 651
232 669
232 673
232 679
232 691
232 710
232 715
232 716
232 719
232 740
232 742
232 748
232 754
232 776
232 777
232 785
232 813
232 832
232 836
232 840
232 848
232 859
232 862
232 869
232 872
232 879
232 881
232 887
232 894
232 949
233 237
233 238
233 260
233 268
233 298
233 354
233 413
233 424
233 464
233 592
233 648
233 704
233 720
233 814
233 829
233 845
233 853
233 859
233 954
233 957
234 238
234 246
234 248
234 274
234 460
234 468
234 489
234 505
234 512
234 635
234 747
234 829
234 865
234 872
234 935
235 394
235 562
235 609
235 625
235 633
235 735
235 750
235 796
235 829
235 841
236 237
236 248
236 256
236 261
236 264
236 266
236 275
236 286
236 287
236 290
236 291
236 293
236 301
236 302
236 307
236 321
236 328
236 343
236 345
236 351
236 360
236 369
236 385
236 388
236 389
236 406
236 408
236 422
236 436
236 438
236 440
236 441
236 443
236 460
236 461
236 475
236 496
236 498
236 502
236 517
236 526
236 529
236 531
236 552
236 562
236 563
236 571
236 575
236 583
236 586
236 589
236 595
236 603
236 604
236 606
236 612
236 617
236 623
236 637
236 639
236 644
236 645
236 656
236 674
236 681
236 682
236 685
236 686
236 689
236 693
236 694
236 701
236 703
236 709
236 710
236 712
236 718
236 720
236 722
236 723
236 730
236 742
236 744
236 754
236 757
236 760
236 767
236 784
236 790
236 791
236 792
236 804
236 811
236 835
236 836
236 844
236 851
236 855
236 862
236 863
236 866
236 870
236 872
236 876
236 878
236 887
236 888
236 891
236 894
236 907
236 908
236 912
236 917
236 936
236 937
236 949
236 956
236 958
237 246
237 254
237 260
237 284
237 291
237 304
237 309
237 354
237 382
237 384
237 406
237 420
237 460
237 528
237 531
237 592
237 601
237 606
237 618
237 710
237 720
237 753
237 773
237 774
237 925
238 243
238 268
238 273
238 293
238 308
238 312
238 324
238 334
238 345
238 354
238 364
238 393
238 413
238 423
238 448
238 449
238 455
238 471
238 483
238 501
238 504
238 512
238 521
238 523
238 529
238 539
238 543
238 555
238 562
238 579
238 580
238 592
238 629
238 635
238 643
238 646
238 656
238 667
238 687
238 704
238 737
238 746
238 758
238 762
238 772
238 774
238 804
238 807
238 829
238 837
238 846
238 853
238 859
238 872
238 887
238 915
238 928
238 937
238 953
238 954
238 957
239 268
239 295
239 309
239 326
239 407
239 464
239 548
239 585
239 689
239 780
239 805
239 859
239 878
239 907
239 957
239 959
240 416
240 454
240 606
240 765
240 906
240 913
240 922
241 279
241 364
241 366
241 381
241 416
241 458
241 482
241 529
241 555
241 627
241 667
241 689
241 690
241 888
241 928
242 243
242 297
242 337
242 338
242 367
242 428
242 521
242 535
242 760
242 763
242 821
243 273
243 275
243 287
243 288
243 290
243 295
243 311
243 312
243 328
243 333
243 405
243 413
243 424
243 428
243 550
243 579
243 602
243 646
243 690
243 699
243 747
243 793
243 804
243 836
243 837
243 846
243 865
243 875
243 883
243 888
243 897
243 914
243 919
243 956
244 265
244 275
244 287
244 293
244 353
244 373
244 419
244 456
244 464
244 472
244 501
244 505
244 552
244 555
244 574
244 575
244 627
244 651
244 659
244 690
244 691
244 794
244 807
244 810
244 887
244 888
244 911
244 923
244 935
244 956
245 246
245 274
245 288
245 416
245 424
245 436
245 439
245 456
245 635
245 804
245 897
245 928
245 931
246 247
246 250
246 255
246 264
246 284
246 290
246 293
246 312
246 313
246 323
246 325
246 328
246 329
246 332
246 336
246 337
246 341
246 345
246 348
246 359
246 373
246 388
246 391
246 396
246 398
246 400
246 405
246 407
246 413
246 419
246 455
246 486
246 487
246 489
246 505
246 518
246 539
246 552
246 555
246 561
246 575
246 592
246 617
246 627
246 633
246 644
246 646
246 669
246 680
246 685
246 688
246 690
246 708
246 709
246 710
246 725
246 733
246 742
246 747
246 748
246 757
246 769
246 792
246 794
246 807
246 811
246 812
246 823
246 829
246 835
246 836
246 859
246 868
246 869
246 872
246 935
246 939
246 947
246 954
246 958
247 312
247 359
247 373
247 413
247 423
247 489
247 505
247 555
247 574
247 613
247 627
247 633
247 669
247 679
247 691
247 747
247 760
247 792
247 793
247 887
247 935
248 259
248 260
248 261
248 264
248 286
248 293
248 296
248 299
248 302
248 315
248 321
248 339
248 373
248 382
248 384
248 400
248 410
248 420
248 436
248 444
248 461
248 512
248 526
248 534
248 537
248 595
248 604
248 607
248 610
248 631
248 635
248 645
248 656
248 668
248 669
248 679
248 686
248 703
248 709
248 715
248 740
248 744
248 748
248 754
248 829
248 855
248 862
248 865
248 888
248 894
248 905
248 907
248 912
248 917
248 929
248 936
249 253
249 257
249 260
249 291
249 293
249 299
249 309
249 325
249 326
249 343
249 373
249 390
249 403
249 410
249 426
249 436
249 438
249 441
249 446
249 451
249 457
249 466
249 480
249 488
249 498
249 525
249 526
249 530
249 542
249 556
249 574
249 586
249 602
249 616
249 617
249 646
249 648
249 651
249 664
249 687
249 703
249 718
249 734
249 735
249 748
249 773
249 794
249 805
249 807
249 817
249 855
249 864
249 869
249 872
249 891
249 897
249 902
249 907
249 912
249 917
249 925
249 929
249 937
249 957
250 254
250 259
250 260
250 293
250 295
250 299
250 302
250 309
250 311
250 313
250 315
250 320
250 321
250 353
250 359
250 384
250 398
250 403
250 410
250 416
250 419
250 420
250 444
250 450
250 452
250 480
250 484
250 521
250 524
250 529
250 536
250 537
250 540
250 562
250 566
250 592
250 600
250 607
250 610
250 616
250 620
250 645
250 671
250 681
250 686
250 703
250 706
250 723
250 753
250 768
250 773
250 774
250 818
250 832
250 857
250 862
250 865
250 867
250 874
250 885
250 894
250 905
250 908
250 925
250 927
250 934
250 949
250 950
250 957
251 261
251 264
251 265
251 270
251 280
251 296
251 299
251 302
251 315
251 321
251 328
251 384
251 400
251 420
251 461
251 538
251 562
251 582
251 610
251 620
251 624
251 644
251 646
251 649
251 671
251 679
251 682
251 706
251 716
251 718
251 722
251 729
251 768
251 780
251 785
251 807
251 820
251 832
251 851
251 873
251 888
251 894
251 912
251 932
251 936
252 258
252 283
252 284
252 305
252 335
252 337
252 383
252 394
252 409
252 451
252 463
252 490
252 499
252 500
252 545
252 576
252 579
252 626
252 634
252 692
252 705
252 726
252 727
252 755
252 765
252 774
252 779
252 828
252 841
252 845
252 854
252 895
252 899
252 957
253 451
253 457
253 562
253 672
253 751
253 841
254 260
254 291
254 293
254 656
254 720
254 867
255 293
255 302
255 309
255 311
255 312
255 313
255 319
255 320
255 328
255 329
255 351
255 362
255 373
255 388
255 405
255 413
255 435
255 441
255 456
255 474
255 484
255 488
255 489
255 494
255 495
255 501
255 505
255 508
255 525
255 531
255 555
255 566
255 574
255 578
255 593
255 594
255 602
255 645
255 646
255 655
255 656
255 669
255 681
255 701
255 706
255 709
255 710
255 737
255 747
255 748
255 792
255 794
255 795
255 796
255 807
255 829
255 836
255 851
255 857
255 859
255 869
255 872
255 875
255 885
255 887
255 897
255 912
255 927
255 929
255 937
255 940
255 946
255 956
255 958
256 260
256 261
256 270
256 293
256 311
256 323
256 325
256 328
256 373
256 399
256 400
256 416
256 426
256 429
256 432
256 443
256 452
256 480
256 488
256 493
256 495
256 501
256 502
256 503
256 522
256 526
256 550
256 558
256 562
256 571
256 597
256 602
256 617
256 637
256 640
256 642
256 644
256 645
256 647
256 650
256 654
256 669
256 671
256 679
256 688
256 709
256 718
256 739
256 740
256 746
256 747
256 748
256 752
256 791
256 801
256 855
256 866
256 872
256 888
256 891
256 893
256 919
256 929
256 934
256 936
256 937
256 947
256 952
257 268
257 289
257 295
257 311
257 320
257 331
257 398
257 405
257 416
257 418
257 419
257 456
257 524
257 525
257 526
257 580
257 614
257 679
257 683
257 746
257 748
257 762
257 774
257 788
257 793
257 804
257 807
257 837
257 885
257 949
257 957
258 305
258 361
258 383
258 532
258 576
258 608
258 625
258 743
258 747
258 751
258 755
258 766
258 859
258 869
258 916
258 933
258 951
259 260
259 270
259 284
259 296
259 302
259 315
259 320
259 321
259 342
259 353
259 376
259 382
259 384
259 405
259 420
259 427
259 432
259 440
259 444
259 468
259 493
259 502
259 536
259 550
259 562
259 575
259 581
259 592
259 600
259 610
259 614
259 637
259 656
259 671
259 681
259 686
259 687
259 688
259 703
259 715
259 716
259 719
259 720
259 723
259 740
259 818
259 825
259 832
259 862
259 867
259 875
259 894
259 905
259 925
259 932
259 934
259 949
259 956
259 958
260 261
260 264
260 266
260 268
260 284
260 293
260 309
260 312
260 315
260 354
260 362
260 400
260 405
260 423
260 432
260 440
260 460
260 461
260 474
260 488
260 489
260 491
260 516
260 521
260 524
260 526
260 536
260 550
260 552
260 563
260 581
260 583
260 592
260 595
260 610
260 612
260 616
260 620
260 644
260 645
260 648
260 655
260 656
260 666
260 671
260 679
260 681
260 685
260 688
260 704
260 709
260 710
260 711
260 720
260 723
260 730
260 733
260 740
260 746
260 747
260 748
260 749
260 753
260 762
260 767
260 773
260 787
260 789
260 794
260 797
260 804
260 811
260 812
260 814
260 823
260 836
260 857
260 859
260 865
260 866
260 869
260 872
260 876
260 887
260 891
260 893
260 894
260 897
260 907
260 912
260 921
260 926
260 936
260 957
260 959
261 265
261 270
261 293
261 299
261 302
261 309
261 315
261 328
261 339
261 384
261 400
261 432
261 439
261 445
261 456
261 480
261 488
261 496
261 526
261 534
261 538
261 542
261 550
261 558
261 561
261 562
261 563
261 595
261 645
261 647
261 649
261 650
261 654
261 656
261 671
261 679
261 682
261 706
261 709
261 712
261 722
261 729
261 740
261 746
261 748
261 754
261 796
261 801
261 807
261 808
261 811
261 820
261 851
261 852
261 862
261 865
261 872
261 873
261 876
261 888
261 891
261 893
261 904
261 907
261 912
261 926
261 936
261 937
261 956
261 957
261 958
262 328
262 559
262 623
262 640
262 679
262 703
262 795
262 917
262 961
263 319
263 328
263 329
263 495
263 645
263 655
263 679
263 939
264 276
264 293
264 299
264 307
264 321
264 325
264 341
264 368
264 400
264 419
264 422
264 434
264 443
264 489
264 512
264 536
264 539
264 556
264 571
264 583
264 585
264 592
264 595
264 603
264 604
264 607
264 612
264 618
264 631
264 640
264 646
264 648
264 656
264 671
264 682
264 685
264 688
264 703
264 709
264 733
264 747
264 754
264 767
264 769
264 773
264 780
264 784
264 794
264 811
264 823
264 832
264 836
264 865
264 872
264 883
264 894
264 912
265 270
265 275
265 287
265 296
265 302
265 315
265 324
265 328
265 332
265 364
265 384
265 396
265 407
265 416
265 419
265 441
265 445
265 458
265 466
265 472
265 474
265 501
265 508
265 529
265 538
265 541
265 558
265 562
265 575
265 579
265 580
265 582
265 589
265 599
265 602
265 624
265 627
265 629
265 633
265 646
265 652
265 682
265 690
265 691
265 698
265 706
265 709
265 716
265 718
265 722
265 729
265 731
265 742
265 804
265 805
265 807
265 808
265 810
265 811
265 812
265 847
265 851
265 852
265 875
265 878
265 888
265 897
265 911
265 923
265 936
265 944
266 389
266 410
266 571
266 642
266 645
266 670
266 685
266 689
266 703
266 723
266 737
266 754
266 844
266 878
266 888
266 925
266 956
267 269
267 310
267 365
267 373
267 390
267 827
267 933
268 284
268 295
268 309
268 323
268 326
268 327
268 328
268 364
268 405
268 407
268 411
268 416
268 419
268 441
268 456
268 464
268 476
268 501
268 504
268 516
268 518
268 521
268 524
268 526
268 529
268 539
268 542
268 548
268 575
268 585
268 592
268 606
268 633
268 655
268 700
268 710
268 720
268 734
268 757
268 760
268 773
268 793
268 804
268 807
268 853
268 859
268 864
268 876
268 891
268 895
268 907
268 908
268 928
268 957
268 959
269 305
269 310
269 337
269 359
269 390
269 459
269 500
269 527
269 549
269 622
269 933
270 272
270 275
270 280
270 287
270 291
270 296
270 302
270 313
270 315
270 321
270 324
270 332
270 340
270 374
270 382
270 384
270 386
270 396
270 400
270 410
270 420
270 436
270 439
270 445
270 466
270 472
270 494
270 496
270 501
270 524
270 526
270 529
270 530
270 534
270 536
270 538
270 550
270 556
270 558
270 562
270 563
270 567
270 575
270 579
270 582
270 610
270 620
270 624
270 627
270 640
270 644
270 646
270 649
270 651
270 656
270 671
270 679
270 682
270 685
270 691
270 698
270 703
270 706
270 712
270 715
270 716
270 722
270 723
270 729
270 742
270 744
270 768
270 791
270 796
270 807
270 808
270 810
270 820
270 831
270 832
270 840
270 847
270 851
270 852
270 860
270 862
270 873
270 878
270 888
270 891
270 894
270 904
270 905
270 911
270 912
270 915
270 917
270 919
270 923
270 932
270 934
270 936
270 937
270 958
271 490
271 592
271 683
271 717
271 959
272 538
273 343
273 369
273 384
273 408
273 483
273 558
273 563
273 568
273 579
273 640
273 641
273 649
273 679
273 804
273 853
273 856
273 891
273 952
273 954
274 323
274 328
274 354
274 403
274 405
274 418
274 436
274 460
274 483
274 488
274 518
274 561
274 599
274 615
274 679
274 686
274 699
274 746
274 772
274 829
275 279
275 285
275 287
275 290
275 308
275 315
275 317
275 321
275 324
275 328
275 334
275 337
275 369
275 371
275 373
275 381
275 385
275 396
275 407
275 410
275 413
275 416
275 426
275 435
275 458
275 470
275 476
275 495
275 527
275 555
275 558
275 575
275 579
275 580
275 599
275 602
275 617
275 624
275 633
275 640
275 644
275 646
275 649
275 651
275 652
275 679
275 681
275 689
275 690
275 691
275 697
275 710
275 712
275 716
275 739
275 742
275 748
275 754
275 779
275 780
275 793
275 794
275 796
275 804
275 805
275 824
275 836
275 841
275 848
275 850
275 851
275 859
275 869
275 876
275 878
275 888
275 891
275 897
275 915
275 917
275 923
275 939
275 944
276 293
276 299
276 302
276 307
276 311
276 321
276 351
276 401
276 410
276 422
276 444
276 469
276 567
276 583
276 587
276 646
276 668
276 671
276 679
276 785
276 832
276 855
276 905
276 917
276 932
277 311
277 352
277 402
277 496
277 578
277 646
277 679
277 745
277 758
277 929
277 940
277 946
278 299
278 307
278 321
278 374
278 448
278 493
278 495
278 586
278 674
278 679
278 704
278 716
278 718
278 723
278 784
278 863
278 902
278 905
279 348
279 366
279 416
279 455
279 456
279 473
279 482
279 515
279 541
279 555
279 627
279 679
279 736
279 741
279 803
279 882
279 888
280 562
280 679
280 682
280 710
280 794
280 894
280 912
281 311
281 546
281 615
281 738
282 315
282 328
282 339
282 436
282 493
282 531
282 562
282 591
282 601
282 624
282 650
282 712
282 716
282 791
282 792
282 806
282 873
282 888
282 891
283 335
283 370
283 409
283 463
283 480
283 487
283 545
283 562
283 626
283 636
283 705
283 722
283 770
283 779
283 796
283 841
283 854
283 899
283 911
284 295
284 309
284 321
284 327
284 331
284 354
284 357
284 413
284 414
284 417
284 419
284 423
284 436
284 464
284 495
284 499
284 516
284 521
284 522
284 526
284 528
284 563
284 575
284 578
284 580
284 585
284 592
284 606
284 614
284 651
284 692
284 713
284 753
284 760
284 762
284 774
284 793
284 807
284 822
284 829
284 836
284 850
284 891
284 895
284 907
284 908
284 915
284 927
284 942
284 959
285 291
285 315
285 321
285 340
285 360
285 410
285 436
285 461
285 476
285 530
285 574
285 578
285 624
285 628
285 646
285 659
285 667
285 689
285 707
285 716
285 747
285 776
285 791
285 832
285 844
285 855
285 878
285 888
285 912
285 917
286 309
286 354
286 384
286 456
286 460
286 618
286 632
286 645
286 651
286 668
286 686
286 704
286 723
286 795
286 837
286 872
286 912
287 308
287 311
287 328
287 332
287 353
287 371
287 377
287 379
287 385
287 439
287 458
287 466
287 501
287 552
287 575
287 580
287 599
287 614
287 627
287 644
287 651
287 679
287 691
287 742
287 754
287 756
287 824
287 829
287 836
287 848
287 859
287 894
287 911
287 923
287 957
288 294
288 323
288 328
288 329
288 337
288 413
288 424
288 429
288 439
288 476
288 486
288 504
288 521
288 542
288 550
288 561
288 564
288 579
288 631
288 648
288 656
288 679
288 687
288 690
288 699
288 746
288 772
288 790
288 794
288 803
288 804
288 829
288 836
288 837
288 846
288 872
288 875
288 883
288 902
288 914
288 915
288 928
288 939
288 957
290 366
290 403
290 495
290 552
290 575
290 580
290 644
290 679
290 710
290 736
290 747
290 804
290 829
290 836
290 897
291 315
291 321
291 325
291 328
291 351
291 369
291 396
291 400
291 405
291 408
291 420
291 441
291 461
291 470
291 496
291 498
291 502
291 510
291 526
291 531
291 534
291 561
291 562
291 563
291 568
291 572
291 575
291 579
291 580
291 586
291 592
291 596
291 599
291 616
291 617
291 644
291 645
291 652
291 671
291 679
291 685
291 689
291 694
291 703
291 713
291 716
291 718
291 729
291 754
291 760
291 761
291 767
291 773
291 776
291 791
291 810
291 820
291 831
291 835
291 855
291 871
291 878
291 883
291 886
291 888
291 891
291 905
291 923
291 925
291 929
291 937
291 952
291 956
291 961
292 421
292 451
292 457
292 576
292 735
292 829
292 933
293 295
293 299
293 301
293 302
293 309
293 312
293 313
293 315
293 321
293 339
293 348
293 350
293 353
293 391
293 401
293 410
293 413
293 420
293 423
293 432
293 433
293 436
293 441
293 444
293 450
293 461
293 474
293 475
293 488
293 489
293 494
293 496
293 501
293 505
293 524
293 526
293 550
293 555
293 556
293 587
293 589
293 592
293 595
293 596
293 602
293 616
293 618
293 620
293 632
293 645
293 646
293 649
293 668
293 669
293 671
293 676
293 679
293 685
293 701
293 704
293 709
293 710
293 712
293 715
293 716
293 722
293 723
293 740
293 744
293 747
293 748
293 749
293 754
293 758
293 768
293 784
293 785
293 791
293 794
293 795
293 796
293 798
293 804
293 811
293 832
293 836
293 859
293 862
293 865
293 867
293 869
293 872
293 879
293 883
293 887
293 888
293 894
293 897
293 907
293 908
293 914
293 935
293 936
293 957
293 958
294 328
294 404
294 439
294 915
295 309
295 331
295 405
295 414
295 417
295 443
295 448
295 452
295 461
295 464
295 468
295 471
295 482
295 495
295 505
295 516
295 528
295 558
295 585
295 592
295 601
295 650
295 706
295 713
295 722
295 734
295 748
295 793
295 808
295 817
295 855
295 864
295 882
295 934
295 935
295 959
296 299
296 302
296 315
296 321
296 343
296 363
296 369
296 374
296 382
296 391
296 410
296 440
296 461
296 462
296 466
296 470
296 537
296 557
296 562
296 567
296 577
296 590
296 614
296 624
296 640
296 649
296 656
296 670
296 673
296 676
296 679
296 713
296 716
296 729
296 768
296 785
296 840
296 851
296 872
296 917
297 428
297 467
297 521
297 535
297 760
297 763
298 845
299 302
299 307
299 321
299 362
299 382
299 396
299 401
299 410
299 413
299 426
299 436
299 444
299 461
299 489
299 502
299 524
299 525
299 536
299 537
299 556
299 571
299 587
299 589
299 600
299 607
299 620
299 631
299 632
299 646
299 668
299 671
299 676
299 679
299 682
299 686
299 703
299 712
299 713
299 716
299 723
299 744
299 754
299 761
299 785
299 791
299 832
299 836
299 837
299 855
299 862
299 879
299 891
299 905
299 917
299 953
299 961
301 309
301 312
301 313
301 315
301 356
301 359
301 403
301 419
301 496
301 534
301 554
301 558
301 595
301 615
301 659
301 669
301 671
301 679
301 701
301 709
301 722
301 738
301 748
301 754
301 780
301 831
301 869
301 872
301 879
301 912
301 936
301 939
301 950
302 309
302 311
302 313
302 315
302 320
302 321
302 339
302 353
302 406
302 410
302 436
302 440
302 444
302 461
302 493
302 494
302 498
302 523
302 525
302 530
302 538
302 562
302 579
302 586
302 612
302 617
302 624
302 639
302 644
302 646
302 649
302 650
302 660
302 666
302 670
302 679
302 682
302 698
302 706
302 712
302 716
302 718
302 737
302 744
302 746
302 777
302 790
302 791
302 807
302 832
302 851
302 856
302 872
302 883
302 885
302 888
302 891
302 894
302 912
302 927
302 953
302 958
303 763
303 897
304 460
304 529
304 601
304 618
304 620
304 648
304 678
304 679
304 729
304 753
304 774
304 798
304 855
304 881
305 330
305 361
305 383
305 553
305 728
305 747
305 751
305 755
305 916
305 933
306 400
307 321
307 410
307 420
307 422
307 444
307 461
307 493
307 537
307 557
307 562
307 571
307 581
307 592
307 607
307 631
307 667
307 668
307 669
307 686
307 719
307 905
307 912
307 956
308 311
308 313
308 324
308 328
308 336
308 354
308 362
308 373
308 377
308 379
308 381
308 385
308 405
308 407
308 413
308 424
308 426
308 489
308 501
308 521
308 529
308 555
308 574
308 580
308 627
308 635
308 644
308 679
308 687
308 710
308 772
308 804
308 805
308 829
308 853
308 859
308 873
308 885
308 919
308 928
308 948
308 954
308 956
308 957
309 312
309 313
309 320
309 327
309 328
309 329
309 331
309 354
309 355
309 357
309 378
309 379
309 398
309 405
309 411
309 416
309 419
309 441
309 456
309 464
309 470
309 474
309 488
309 494
309 496
309 505
309 508
309 518
309 526
309 529
309 548
309 556
309 558
309 563
309 572
309 578
309 585
309 586
309 592
309 594
309 603
309 606
309 610
309 617
309 644
309 645
309 648
309 650
309 656
309 668
309 669
309 671
309 676
309 679
309 694
309 699
309 706
309 720
309 733
309 740
309 748
309 753
309 760
309 762
309 774
309 791
309 792
309 796
309 800
309 804
309 808
309 837
309 845
309 850
309 852
309 853
309 865
309 869
309 872
309 876
309 883
309 885
309 887
309 888
309 891
309 895
309 907
309 908
309 912
309 919
309 925
309 926
309 927
309 932
309 934
309 940
309 956
309 957
309 959
310 337
310 365
310 367
310 373
310 390
310 518
310 662
310 751
310 762
310 828
310 933
311 315
311 317
311 328
311 332
311 333
311 336
311 343
311 348
311 351
311 353
311 362
311 371
311 388
311 396
311 399
311 406
311 411
311 416
311 429
311 438
311 441
311 461
311 464
311 473
311 474
311 484
311 488
311 493
311 494
311 515
311 525
311 526
311 529
311 530
311 546
311 552
311 561
311 575
311 604
311 614
311 615
311 617
311 633
311 637
311 646
311 650
311 659
311 679
311 687
311 689
311 690
311 706
311 708
311 718
311 719
311 731
311 734
311 738
311 739
311 752
311 754
311 756
311 776
311 778
311 780
311 784
311 787
311 790
311 795
311 805
311 824
311 835
311 840
311 850
311 855
311 864
311 865
311 872
311 881
311 883
311 885
311 891
311 907
311 911
311 917
311 934
311 937
311 946
311 956
312 313
312 317
312 351
312 359
312 364
312 373
312 405
312 413
312 434
312 441
312 453
312 460
312 472
312 489
312 494
312 496
312 504
312 505
312 516
312 526
312 529
312 552
312 555
312 556
312 574
312 602
312 646
312 659
312 669
312 676
312 679
312 690
312 701
312 710
312 712
312 716
312 737
312 740
312 747
312 748
312 792
312 793
312 794
312 836
312 850
312 852
312 869
312 879
312 883
312 887
312 911
312 927
312 935
312 940
312 947
312 958
313 320
313 340
313 362
313 373
313 398
313 407
313 413
313 416
313 435
313 441
313 474
313 488
313 494
313 496
313 501
313 526
313 531
313 542
313 558
313 571
313 594
313 614
313 650
313 669
313 671
313 688
313 706
313 709
313 710
313 712
313 714
313 746
313 747
313 748
313 754
313 780
313 790
313 792
313 796
313 829
313 850
313 851
313 852
313 859
313 865
313 866
313 872
313 887
313 888
313 891
313 927
313 939
313 940
313 956
313 958
314 492
314 679
314 697
314 941
315 317
315 321
315 322
315 323
315 325
315 328
315 340
315 351
315 353
315 358
315 369
315 374
315 384
315 400
315 405
315 432
315 436
315 438
315 445
315 461
315 469
315 472
315 474
315 488
315 491
315 496
315 502
315 516
315 529
315 538
315 556
315 558
315 561
315 562
315 579
315 582
315 590
315 592
315 595
315 601
315 602
315 604
315 610
315 620
315 623
315 624
315 628
315 637
315 648
315 649
315 656
315 661
315 667
315 671
315 676
315 678
315 679
315 682
315 685
315 703
315 706
315 708
315 712
315 716
315 718
315 719
315 722
315 729
315 739
315 740
315 752
315 754
315 761
315 776
315 781
315 784
315 787
315 789
315 790
315 791
315 796
315 797
315 807
315 808
315 820
315 822
315 835
315 840
315 847
315 851
315 852
315 860
315 862
315 865
315 873
315 878
315 885
315 886
315 888
315 894
315 905
315 908
315 912
315 917
315 921
315 929
315 932
315 937
315 956
315 958
315 961
316 450
316 563
317 329
317 331
317 343
317 351
317 353
317 358
317 360
317 369
317 371
317 377
317 393
317 399
317 400
317 406
317 416
317 429
317 458
317 466
317 534
317 575
317 615
317 617
317 637
317 646
317 649
317 659
317 670
317 679
317 690
317 697
317 716
317 718
317 738
317 739
317 752
317 754
317 756
317 840
317 850
317 855
317 872
317 888
317 891
317 929
317 937
318 476
318 699
318 775
318 786
318 829
318 844
319 329
319 403
319 407
319 456
319 460
319 468
319 495
319 521
319 529
319 542
319 563
319 576
319 645
319 655
319 803
319 814
319 829
319 869
319 872
319 876
319 882
319 939
320 357
320 387
320 405
320 417
320 474
320 494
320 529
320 541
320 617
320 651
320 683
320 687
320 706
320 774
320 857
320 895
320 908
320 925
320 927
320 957
321 328
321 353
321 366
321 374
321 382
321 396
321 406
321 410
321 422
321 427
321 432
321 436
321 443
321 444
321 448
321 461
321 462
321 469
321 475
321 481
321 484
321 496
321 501
321 512
321 518
321 529
321 530
321 534
321 537
321 540
321 556
321 561
321 567
321 571
321 583
321 586
321 587
321 590
321 596
321 600
321 604
321 607
321 628
321 631
321 632
321 637
321 646
321 649
321 656
321 668
321 679
321 682
321 686
321 715
321 719
321 740
321 746
321 752
321 754
321 760
321 761
321 768
321 773
321 785
321 791
321 798
321 811
321 832
321 840
321 860
321 862
321 865
321 867
321 872
321 878
321 879
321 883
321 894
321 909
321 912
321 917
321 929
321 932
321 935
321 936
321 956
321 961
322 327
322 337
322 369
322 438
322 456
322 542
322 618
322 646
322 649
322 690
322 744
322 757
322 805
322 825
322 829
322 863
322 903
323 328
323 413
323 493
323 528
323 615
323 632
323 674
323 679
323 747
323 855
323 895
323 902
323 953
324 336
324 354
324 373
324 379
324 382
324 384
324 407
324 413
324 420
324 424
324 456
324 464
324 529
324 550
324 562
324 574
324 579
324 580
324 671
324 706
324 780
324 796
324 829
324 853
324 859
324 885
324 931
324 939
325 334
325 398
325 399
325 400
325 406
325 413
325 458
325 508
325 517
325 525
325 526
325 531
325 539
325 540
325 574
325 585
325 586
325 617
325 620
325 632
325 640
325 648
325 650
325 678
325 688
325 693
325 709
325 712
325 747
325 780
325 823
325 829
325 855
325 872
325 907
325 929
325 937
325 953
325 961
326 373
326 390
326 403
326 405
326 407
326 411
326 426
326 446
326 456
326 466
326 488
326 490
326 495
326 501
326 525
326 532
326 542
326 574
326 617
326 635
326 646
326 651
326 687
326 737
326 758
326 773
326 794
326 805
326 817
326 828
326 829
326 846
326 859
326 869
326 897
326 908
326 953
326 957
327 328
327 390
327 399
327 468
327 472
327 495
327 505
327 516
327 519
327 544
327 558
327 561
327 572
327 578
327 585
327 594
327 606
327 617
327 618
327 645
327 646
327 650
327 669
327 709
327 734
327 746
327 748
327 791
327 822
327 865
327 866
327 872
327 900
327 908
327 952
328 329
328 331
328 334
328 350
328 379
328 392
328 393
328 400
328 403
328 407
328 419
328 424
328 433
328 436
328 439
328 445
328 450
328 460
328 488
328 493
328 494
328 501
328 502
328 519
328 525
328 526
328 531
328 538
328 543
328 550
328 555
328 558
328 562
328 563
328 574
328 580
328 586
328 591
328 606
328 615
328 617
328 624
328 627
328 633
328 637
328 646
328 649
328 669
328 681
328 682
328 688
328 690
328 697
328 699
328 710
328 716
328 723
328 737
328 746
328 747
328 748
328 758
328 769
328 794
328 796
328 805
328 807
328 814
328 816
328 820
328 829
328 836
328 855
328 859
328 866
328 868
328 869
328 872
328 885
328 891
328 902
328 908
328 935
328 940
328 943
328 947
328 953
328 958
328 961
329 336
329 348
329 351
329 354
329 403
329 413
329 418
329 419
329 426
329 429
329 430
329 451
329 456
329 457
329 460
329 474
329 476
329 489
329 495
329 501
329 504
329 508
329 518
329 542
329 550
329 555
329 602
329 633
329 644
329 645
329 646
329 655
329 662
329 679
329 685
329 690
329 706
329 710
329 731
329 733
329 742
329 747
329 769
329 780
329 794
329 804
329 812
329 823
329 829
329 868
329 872
329 891
329 897
329 911
329 914
329 928
329 939
329 957
330 361
330 383
330 553
330 728
330 751
330 755
330 765
330 869
330 916
331 408
331 414
331 416
331 528
331 561
331 676
331 679
331 760
331 781
331 793
331 795
331 883
331 885
331 929
332 357
332 405
332 407
332 426
332 456
332 464
332 466
332 510
332 542
332 552
332 575
332 599
332 646
332 651
332 679
332 687
332 710
332 716
332 742
332 757
332 772
332 792
332 836
332 859
332 923
332 934
332 957
333 406
333 627
333 632
333 666
333 681
333 718
333 855
334 381
334 393
334 430
334 525
334 570
334 637
334 697
334 699
334 737
334 748
334 758
334 804
334 829
334 929
334 947
334 948
334 953
335 465
335 576
335 633
335 638
335 726
335 755
335 779
335 807
335 841
335 854
335 858
336 348
336 377
336 379
336 405
336 413
336 424
336 455
336 456
336 489
336 522
336 564
336 580
336 617
336 644
336 646
336 652
336 691
336 733
336 747
336 774
336 794
336 804
336 807
336 829
336 914
336 939
336 954
337 357
337 361
337 362
337 379
337 394
337 407
337 409
337 426
337 446
337 451
337 456
337 457
337 487
337 499
337 512
337 535
337 542
337 545
337 575
337 579
337 584
337 626
337 633
337 638
337 646
337 651
337 679
337 683
337 692
337 725
337 727
337 751
337 804
337 836
337 841
337 845
337 854
337 877
337 891
337 899
337 911
337 923
337 945
337 957
338 428
338 451
338 527
338 535
338 576
338 633
338 636
338 760
338 763
338 821
338 845
338 930
339 346
339 362
339 401
339 406
339 410
339 423
339 436
339 443
339 444
339 460
339 512
339 521
339 522
339 541
339 556
339 562
339 592
339 616
339 627
339 635
339 642
339 646
339 650
339 664
339 667
339 669
339 670
339 679
339 704
339 710
339 713
339 748
339 772
339 788
339 791
339 831
339 832
339 842
339 865
339 878
339 883
340 384
340 441
340 474
340 529
340 562
340 603
340 617
340 618
340 624
340 667
340 679
340 685
340 722
340 776
340 785
340 807
340 820
340 851
340 864
340 888
340 891
340 900
340 907
340 925
340 932
341 348
341 413
341 419
341 508
341 539
341 709
341 794
341 829
341 872
341 939
342 382
342 600
342 949
343 355
343 362
343 373
343 377
343 388
343 391
343 399
343 410
343 429
343 468
343 493
343 552
343 568
343 571
343 574
343 586
343 595
343 613
343 615
343 640
343 670
343 674
343 679
343 703
343 708
343 718
343 730
343 738
343 761
343 776
343 789
343 840
343 902
343 917
343 921
343 936
343 937
344 810
344 888
345 409
345 415
345 552
345 575
345 598
345 644
345 710
345 714
345 742
345 757
345 829
345 836
345 837
345 846
345 855
345 863
345 907
345 943
347 525
348 368
348 371
348 377
348 413
348 418
348 424
348 471
348 521
348 525
348 539
348 555
348 563
348 580
348 602
348 645
348 650
348 690
348 710
348 746
348 747
348 756
348 769
348 794
348 801
348 805
348 807
348 812
348 829
348 836
348 846
348 855
348 869
348 872
348 877
348 897
348 904
348 907
348 942
348 943
348 953
349 754
349 813
350 704
350 723
350 795
351 371
351 381
351 399
351 402
351 406
351 413
351 416
351 451
351 546
351 568
351 615
351 617
351 679
351 689
351 697
351 699
351 718
351 738
351 776
351 792
351 794
351 805
351 835
351 840
351 850
351 855
351 878
351 888
351 937
351 941
352 402
352 496
352 572
352 578
352 663
352 679
352 745
352 752
352 758
352 872
352 904
352 940
352 946
353 360
353 373
353 429
353 443
353 458
353 470
353 476
353 480
353 494
353 530
353 552
353 574
353 575
353 589
353 603
353 607
353 612
353 615
353 617
353 627
353 633
353 670
353 673
353 685
353 709
353 719
353 738
353 740
353 752
353 754
353 761
353 776
353 778
353 785
353 787
353 791
353 798
353 832
353 836
353 840
353 862
353 881
353 888
353 915
353 925
353 936
353 937
353 949
353 956
354 379
354 398
354 413
354 418
354 455
354 456
354 516
354 592
354 720
354 733
354 753
354 762
354 774
354 814
354 829
354 846
354 849
354 853
354 876
354 954
355 580
355 669
355 679
355 718
355 746
355 957
356 359
356 400
356 403
356 419
356 475
356 476
356 480
356 496
356 554
356 674
356 780
356 907
357 405
357 456
357 466
357 474
357 542
357 651
357 687
357 774
357 791
357 805
357 857
357 895
357 908
357 925
357 927
357 957
358 640
358 649
358 739
359 403
359 419
359 476
359 555
359 580
359 633
359 659
359 669
359 671
359 709
359 710
359 769
359 780
359 793
359 869
359 939
360 406
360 476
360 719
360 738
360 752
360 776
360 778
360 840
360 855
360 881
361 383
361 553
361 728
361 751
361 755
361 869
361 899
361 916
362 371
362 373
362 377
362 388
362 391
362 393
362 419
362 489
362 493
362 502
362 522
362 562
362 574
362 593
362 610
362 670
362 681
362 688
362 702
362 709
362 710
362 718
362 739
362 747
362 756
362 758
362 780
362 790
362 835
362 855
362 859
362 872
362 894
362 902
362 937
362 939
363 384
363 448
363 481
363 649
363 685
363 729
363 825
363 831
364 373
364 424
364 455
364 456
364 458
364 476
364 489
364 501
364 508
364 529
364 539
364 555
364 574
364 580
364 589
364 644
364 652
364 689
364 709
364 807
364 837
364 844
364 853
364 878
364 888
364 915
364 928
364 944
364 956
365 372
365 373
365 451
365 490
365 545
365 569
365 633
365 751
365 827
365 828
365 841
365 854
365 899
365 922
365 933
366 371
366 373
366 398
366 416
366 482
366 484
366 486
366 495
366 529
366 541
366 550
366 554
366 555
366 570
366 627
366 630
366 637
366 644
366 646
366 679
366 697
366 710
366 718
366 768
366 803
366 807
366 829
366 836
366 846
366 869
366 877
366 882
366 888
366 937
366 939
366 943
366 949
366 957
367 373
367 451
367 467
367 532
367 544
367 562
367 584
367 608
367 625
367 717
367 728
367 758
367 763
367 765
367 770
367 788
367 874
367 933
367 949
368 371
368 434
368 480
368 559
368 664
368 756
368 894
369 374
369 410
369 423
369 437
369 470
369 474
369 481
369 496
369 558
369 562
369 572
369 577
369 579
369 601
369 624
369 649
369 690
369 697
369 712
369 716
369 738
369 739
369 748
369 752
369 776
369 790
369 791
369 792
369 851
369 872
369 873
369 915
369 917
370 415
370 428
370 457
370 480
370 487
370 516
370 634
370 636
370 683
370 710
370 725
370 750
370 833
370 945
371 373
371 377
371 399
371 458
371 575
371 615
371 633
371 679
371 697
371 718
371 731
371 738
371 742
371 756
371 841
371 850
371 855
371 881
371 907
371 937
372 710
372 712
372 799
372 828
372 899
372 922
372 933
373 377
373 379
373 381
373 388
373 405
373 407
373 413
373 426
373 451
373 456
373 458
373 466
373 476
373 484
373 490
373 495
373 496
373 501
373 508
373 526
373 527
373 531
373 539
373 542
373 554
373 555
373 566
373 574
373 575
373 593
373 627
373 633
373 646
373 651
373 652
373 659
373 666
373 669
373 681
373 687
373 704
373 709
373 710
373 712
373 718
373 719
373 747
373 765
373 769
373 779
373 780
373 792
373 805
373 807
373 824
373 827
373 829
373 841
373 845
373 853
373 854
373 855
373 859
373 860
373 872
373 873
373 876
373 887
373 904
373 907
373 918
373 923
373 933
373 937
373 939
373 940
373 944
373 948
373 957
373 958
374 391
374 406
374 416
374 437
374 481
374 534
374 540
374 562
374 577
374 619
374 640
374 649
374 716
374 721
374 768
374 840
374 888
374 892
374 917
374 932
374 949
375 436
375 583
375 603
375 744
375 806
375 888
376 384
376 470
376 480
376 493
376 524
376 592
376 631
376 740
376 862
376 926
376 927
377 381
377 388
377 399
377 413
377 429
377 458
377 574
377 575
377 615
377 640
377 646
377 670
377 679
377 690
377 718
377 731
377 738
377 739
377 742
377 756
377 805
377 829
377 850
377 937
377 947
378 411
378 540
378 713
378 927
379 385
379 413
379 424
379 489
379 561
379 574
379 580
379 602
379 627
379 644
379 649
379 725
379 733
379 774
379 812
379 829
379 956
380 836
381 393
381 429
381 430
381 525
381 570
381 574
381 629
381 670
381 679
381 689
381 691
381 697
381 699
381 718
381 733
381 748
381 758
381 780
381 804
381 878
381 937
381 944
381 947
381 948
382 384
382 395
382 396
382 420
382 441
382 461
382 475
382 481
382 529
382 557
382 580
382 596
382 600
382 604
382 610
382 618
382 620
382 656
382 679
382 686
382 715
382 720
382 729
382 734
382 768
382 818
382 862
382 867
382 885
382 891
382 894
382 905
382 925
382 932
382 936
383 409
383 553
383 705
383 728
383 751
383 755
383 858
383 869
383 899
383 916
384 420
384 439
384 470
384 472
384 476
384 480
384 481
384 488
384 529
384 538
384 562
384 592
384 604
384 618
384 620
384 649
384 668
384 671
384 679
384 686
384 706
384 722
384 729
384 780
384 796
384 851
384 852
384 864
384 867
384 888
384 905
384 961
385 413
385 518
385 552
385 574
385 575
385 580
385 627
385 649
385 679
385 804
385 807
386 470
386 522
386 540
386 592
386 606
386 620
386 671
386 814
386 829
386 851
386 863
386 873
386 903
386 926
386 932
387 429
387 474
387 562
387 617
387 752
387 887
387 888
387 925
388 391
388 399
388 406
388 429
388 493
388 574
388 575
388 593
388 607
388 615
388 627
388 649
388 669
388 681
388 709
388 710
388 718
388 738
388 747
388 758
388 760
388 769
388 780
388 807
388 840
388 859
388 902
388 937
388 952
389 628
389 645
389 667
389 670
389 718
389 737
389 844
389 878
389 956
390 419
390 445
390 468
390 472
390 505
390 525
390 526
390 538
390 562
390 572
390 606
390 609
390 618
390 669
390 722
390 737
390 748
390 792
390 808
390 822
390 887
390 900
390 907
390 933
390 952
390 953
391 460
391 489
391 493
391 575
391 632
391 649
391 651
391 708
391 718
391 721
391 859
391 865
391 869
391 872
391 935
392 650
392 760
392 810
392 885
392 952
393 403
393 430
393 474
393 484
393 525
393 570
393 593
393 697
393 699
393 748
393 758
393 853
393 947
393 948
394 398
394 576
394 625
394 750
394 765
394 769
394 888
394 891
394 899
394 949
395 420
395 531
395 534
395 656
395 679
395 710
395 729
395 768
395 818
395 905
396 410
396 413
396 429
396 438
396 443
396 456
396 466
396 470
396 475
396 510
396 530
396 558
396 562
396 572
396 575
396 579
396 586
396 599
396 604
396 610
396 617
396 640
396 649
396 651
396 652
396 679
396 693
396 694
396 698
396 742
396 754
396 760
396 761
396 785
396 810
396 824
396 831
396 840
396 848
396 851
396 855
396 872
396 885
396 888
396 891
396 911
396 923
396 932
396 937
396 952
397 478
398 400
398 403
398 416
398 419
398 433
398 434
398 456
398 476
398 529
398 554
398 595
398 709
398 714
398 733
398 747
398 757
398 769
398 793
398 807
398 811
398 823
398 829
398 868
398 872
398 876
398 919
398 939
398 950
399 429
399 438
399 442
399 488
399 498
399 502
399 566
399 591
399 597
399 615
399 617
399 670
399 679
399 688
399 718
399 738
399 752
399 756
399 850
399 855
399 885
399 891
399 908
399 929
399 934
399 937
399 952
400 403
400 419
400 432
400 461
400 475
400 491
400 534
400 539
400 561
400 567
400 595
400 603
400 644
400 647
400 656
400 679
400 685
400 688
400 704
400 709
400 715
400 718
400 722
400 740
400 747
400 794
400 811
400 862
400 863
400 865
400 872
400 893
400 894
400 912
400 917
400 925
400 926
400 932
400 936
400 950
400 958
401 436
401 723
401 791
401 836
402 424
402 663
402 745
402 758
402 855
402 872
402 940
402 946
403 407
403 413
403 419
403 432
403 451
403 458
403 464
403 475
403 476
403 488
403 502
403 504
403 508
403 516
403 518
403 526
403 529
403 531
403 539
403 554
403 566
403 595
403 602
403 633
403 637
403 644
403 659
403 671
403 676
403 680
403 681
403 704
403 709
403 714
403 717
403 722
403 733
403 747
403 748
403 769
403 780
403 823
403 829
403 859
403 863
403 872
403 883
403 914
403 939
403 950
403 957
404 501
404 652
404 679
404 847
404 911
405 407
405 416
405 417
405 419
405 424
405 426
405 456
405 466
405 474
405 495
405 504
405 524
405 529
405 542
405 550
405 555
405 558
405 563
405 602
405 611
405 633
405 646
405 651
405 656
405 664
405 669
405 686
405 687
405 691
405 697
405 710
405 734
405 747
405 756
405 774
405 791
405 793
405 804
405 805
405 807
405 817
405 837
405 846
405 847
405 857
405 862
405 875
405 876
405 887
405 891
405 895
405 907
405 908
405 918
405 925
405 927
405 949
405 957
406 437
406 480
406 481
406 498
406 531
406 534
406 540
406 555
406 559
406 617
406 639
406 679
406 693
406 718
406 731
406 795
406 855
406 891
406 907
406 958
407 413
407 419
407 426
407 445
407 456
407 466
407 495
407 496
407 518
407 526
407 542
407 550
407 555
407 561
407 574
407 645
407 651
407 655
407 679
407 691
407 697
407 706
407 716
407 757
407 780
407 792
407 804
407 805
407 807
407 817
407 823
407 875
407 887
407 888
407 923
407 957
408 440
408 468
408 474
408 476
408 510
408 563
408 574
408 592
408 617
408 645
408 669
408 670
408 679
408 685
408 689
408 701
408 703
408 760
408 810
408 871
408 883
408 885
408 888
408 891
408 908
408 918
408 919
408 944
408 952
408 956
409 451
409 638
409 705
409 757
409 841
409 858
409 899
410 418
410 432
410 444
410 493
410 497
410 498
410 529
410 530
410 556
410 558
410 567
410 586
410 588
410 590
410 596
410 601
410 604
410 607
410 610
410 631
410 642
410 645
410 646
410 649
410 656
410 668
410 673
410 679
410 690
410 696
410 707
410 716
410 718
410 719
410 744
410 754
410 773
410 777
410 785
410 791
410 795
410 832
410 840
410 860
410 878
410 883
410 888
410 891
410 912
410 917
410 934
411 441
411 446
411 527
411 528
411 558
411 592
411 617
411 618
411 639
411 651
411 701
411 706
411 760
411 791
411 805
411 876
411 878
411 895
411 915
411 927
411 957
412 459
412 576
412 633
412 672
412 735
412 884
412 898
412 920
412 924
412 945
413 416
413 423
413 424
413 430
413 436
413 451
413 465
413 473
413 489
413 495
413 496
413 504
413 512
413 518
413 521
413 525
413 526
413 529
413 539
413 550
413 552
413 561
413 564
413 575
413 579
413 602
413 613
413 635
413 643
413 644
413 646
413 655
413 669
413 679
413 687
413 690
413 691
413 699
413 709
413 710
413 725
413 733
413 742
413 746
413 747
413 748
413 765
413 769
413 774
413 790
413 792
413 793
413 794
413 804
413 807
413 812
413 815
413 822
413 823
413 829
413 835
413 836
413 837
413 846
413 853
413 855
413 869
413 872
413 875
413 885
413 909
413 928
413 935
413 939
413 943
413 953
413 958
414 417
414 528
414 558
414 601
415 529
415 794
415 837
415 875
415 943
416 418
416 430
416 441
416 446
416 454
416 460
416 468
416 471
416 482
416 495
416 502
416 505
416 518
416 519
416 524
416 529
416 541
416 550
416 555
416 575
416 579
416 580
416 606
416 610
416 614
416 617
416 627
416 640
416 646
416 651
416 659
416 669
416 676
416 691
416 711
416 746
416 762
416 765
416 774
416 788
416 799
416 803
416 807
416 826
416 835
416 836
416 837
416 856
416 859
416 874
416 876
416 882
416 885
416 888
416 895
416 904
416 907
416 915
416 917
416 922
416 926
417 468
417 522
417 528
417 558
417 600
417 601
417 671
417 734
417 793
417 859
417 865
417 908
417 925
418 419
418 579
418 580
418 617
418 630
418 633
418 690
418 762
418 769
418 791
418 829
418 847
418 876
418 885
418 891
418 904
418 918
418 925
418 927
418 939
418 957
419 430
419 433
419 458
419 464
419 476
419 489
419 501
419 505
419 516
419 529
419 538
419 539
419 547
419 554
419 563
419 574
419 580
419 592
419 597
419 622
419 626
419 659
419 671
419 710
419 714
419 726
419 733
419 743
419 746
419 747
419 769
419 774
419 780
419 794
419 807
419 811
419 812
419 823
419 829
419 836
419 842
419 869
419 872
419 903
419 904
419 907
419 915
419 918
419 931
419 939
419 950
419 957
419 959
420 422
420 461
420 475
420 523
420 529
420 531
420 534
420 537
420 561
420 592
420 600
420 604
420 618
420 620
420 631
420 656
420 671
420 679
420 686
420 715
420 720
420 721
420 722
420 729
420 768
420 773
420 818
420 867
420 885
420 894
420 925
421 576
421 606
421 765
422 461
422 537
422 557
422 562
422 596
422 605
422 620
422 631
422 632
422 667
422 669
422 686
422 888
422 905
423 480
423 526
423 529
423 550
423 555
423 562
423 575
423 602
423 633
423 636
423 646
423 710
423 712
423 723
423 744
423 794
423 804
423 807
423 853
423 859
423 887
423 897
423 914
423 949
423 954
423 957
423 959
424 436
424 443
424 494
424 561
424 564
424 575
424 602
424 617
424 631
424 635
424 652
424 679
424 733
424 748
424 804
424 807
424 829
424 859
425 659
426 439
426 446
426 456
426 466
426 542
426 558
426 562
426 572
426 579
426 617
426 646
426 647
426 651
426 679
426 687
426 791
426 794
426 804
426 805
426 817
426 829
426 869
426 891
426 908
426 912
426 957
427 540
427 596
427 679
427 888
428 467
428 521
428 527
428 535
428 636
428 760
428 763
428 779
428 821
428 841
428 880
429 438
429 498
429 502
429 558
429 562
429 569
429 578
429 589
429 617
429 644
429 667
429 669
429 670
429 679
429 685
429 688
429 689
429 697
429 718
429 738
429 748
429 791
429 792
429 795
429 840
429 850
429 872
429 878
429 888
429 937
429 956
430 463
430 490
430 525
430 529
430 550
430 555
430 561
430 570
430 580
430 644
430 660
430 678
430 679
430 687
430 697
430 699
430 733
430 748
430 758
430 794
430 803
430 804
430 807
430 827
430 828
430 829
430 869
430 908
430 947
430 948
430 953
430 957
431 604
431 723
432 461
432 488
432 531
432 534
432 554
432 617
432 646
432 647
432 671
432 679
432 715
432 832
432 862
432 872
432 894
432 925
432 932
432 936
433 434
433 561
433 679
433 714
433 804
433 897
434 439
434 452
434 480
434 495
434 518
434 550
434 558
434 614
434 618
434 646
434 774
434 793
434 803
434 810
434 849
434 915
434 919
434 938
435 485
435 519
435 520
435 558
435 611
435 667
435 679
435 844
435 878
435 888
435 934
436 441
436 460
436 474
436 493
436 495
436 496
436 505
436 512
436 518
436 529
436 537
436 538
436 556
436 561
436 562
436 583
436 587
436 594
436 603
436 606
436 617
436 618
436 635
436 642
436 645
436 646
436 704
436 722
436 723
436 746
436 754
436 760
436 784
436 791
436 804
436 812
436 822
436 865
436 867
436 878
436 883
436 894
436 908
437 438
437 475
437 481
437 534
437 601
437 617
437 639
437 649
437 679
437 718
437 798
437 806
437 832
437 851
437 855
437 873
437 891
437 907
437 958
438 517
438 586
438 617
438 640
438 650
438 679
438 693
438 694
438 703
438 718
438 795
438 855
438 891
438 907
438 929
438 932
438 937
438 952
438 961
439 443
439 468
439 501
439 518
439 525
439 529
439 538
439 547
439 561
439 562
439 627
439 650
439 671
439 679
439 690
439 706
439 722
439 741
439 796
439 815
439 824
439 847
439 851
439 888
439 915
439 928
439 939
439 953
440 557
440 620
440 645
440 679
440 716
440 723
440 740
440 749
440 894
441 468
441 494
441 521
441 525
441 526
441 563
441 578
441 594
441 646
441 709
441 713
441 737
441 760
441 773
441 774
441 796
441 807
441 847
441 852
441 855
441 887
441 891
441 907
441 908
441 923
441 927
441 952
441 953
441 958
442 738
442 776
442 840
443 452
443 464
443 471
443 495
443 502
443 522
443 524
443 526
443 556
443 607
443 631
443 639
443 642
443 645
443 646
443 650
443 659
443 669
443 690
443 713
443 746
443 796
443 831
443 856
443 863
443 865
443 872
443 883
443 891
443 896
443 907
443 910
443 912
443 928
443 949
444 461
444 497
444 524
444 530
444 586
444 632
444 646
444 650
444 716
444 744
444 754
444 785
444 832
444 912
444 917
445 472
445 505
445 538
445 562
445 579
445 624
445 646
445 706
445 722
445 729
445 746
445 792
445 808
445 847
445 875
445 911
445 961
446 466
446 542
446 644
446 651
446 679
446 691
446 805
446 829
446 863
446 957
448 450
448 523
448 528
448 582
448 601
448 623
448 644
448 649
448 685
448 704
448 723
448 787
448 811
448 825
448 831
448 842
448 872
448 929
449 489
449 747
449 772
449 829
450 497
450 563
450 616
450 620
450 632
450 686
450 811
450 894
451 457
451 465
451 504
451 576
451 584
451 633
451 636
451 662
451 725
451 728
451 735
451 750
451 751
451 771
451 794
451 828
451 829
451 872
451 888
451 901
451 945
452 468
452 480
452 503
452 529
452 540
452 558
452 561
452 562
452 611
452 617
452 646
452 651
452 671
452 679
452 700
452 716
452 774
452 810
452 817
452 849
452 891
452 919
452 938
452 949
452 952
453 816
453 860
453 953
454 456
454 463
454 563
454 735
454 750
454 751
454 765
454 830
454 845
454 913
454 951
455 456
455 458
455 522
455 554
455 580
455 689
455 714
455 733
455 753
455 754
455 807
455 844
455 853
455 877
455 878
455 888
455 915
456 458
456 460
456 463
456 466
456 495
456 501
456 517
456 521
456 529
456 542
456 554
456 555
456 563
456 579
456 580
456 633
456 644
456 645
456 646
456 651
456 655
456 656
456 687
456 690
456 691
456 697
456 706
456 712
456 722
456 747
456 760
456 769
456 774
456 780
456 791
456 794
456 801
456 804
456 805
456 807
456 810
456 817
456 830
456 835
456 846
456 872
456 875
456 887
456 888
456 891
456 895
456 904
456 907
456 915
456 918
456 923
456 927
456 928
456 939
456 957
457 478
457 576
457 633
457 725
457 735
457 750
457 751
457 829
457 951
458 473
458 476
458 482
458 495
458 501
458 508
458 543
458 555
458 575
458 580
458 586
458 617
458 629
458 633
458 644
458 646
458 655
458 689
458 697
458 709
458 741
458 747
458 756
458 776
458 801
458 807
458 823
458 829
458 840
458 844
458 872
458 878
458 888
458 915
458 939
458 944
458 950
458 956
459 633
459 819
459 884
459 887
459 920
460 468
460 489
460 493
460 495
460 498
460 562
460 601
460 603
460 606
460 612
460 618
460 645
460 655
460 685
460 704
460 706
460 744
460 747
460 767
460 829
460 859
460 865
460 870
460 888
460 921
460 935
461 475
461 534
461 559
461 589
461 590
461 595
461 596
461 600
461 604
461 610
461 612
461 620
461 642
461 649
461 656
461 682
461 709
461 715
461 716
461 718
461 746
461 754
461 768
461 785
461 790
461 808
461 862
461 872
461 894
461 901
461 905
461 912
461 925
461 932
461 936
462 679
462 754
463 563
463 626
463 765
463 830
463 911
464 516
464 548
464 572
464 585
464 762
464 772
464 804
464 836
464 849
464 859
464 923
464 939
464 957
464 959
465 636
465 638
465 692
465 710
465 733
465 751
465 765
465 807
465 878
465 888
466 501
466 542
466 575
466 587
466 646
466 651
466 656
466 679
466 687
466 710
466 716
466 742
466 747
466 774
466 791
466 794
466 805
466 848
466 865
466 869
466 888
466 891
466 911
466 957
467 500
467 532
467 535
467 576
467 608
467 625
467 683
467 717
467 728
467 743
467 751
467 758
467 763
467 770
467 788
467 821
467 845
467 874
467 945
468 471
468 480
468 483
468 505
468 510
468 516
468 528
468 529
468 580
468 592
468 597
468 605
468 606
468 617
468 618
468 637
468 650
468 655
468 681
468 706
468 709
468 734
468 772
468 796
468 803
468 805
468 814
468 817
468 829
468 865
468 866
468 873
468 883
468 887
468 894
468 900
468 903
468 934
469 537
469 615
469 640
469 649
469 679
469 729
469 785
470 494
470 543
470 558
470 572
470 603
470 617
470 632
470 644
470 646
470 648
470 649
470 671
470 673
470 678
470 679
470 762
470 791
470 792
470 806
470 851
470 864
470 865
470 873
470 885
470 891
470 925
470 926
470 949
471 504
471 518
471 521
471 550
471 580
471 630
471 637
471 646
471 650
471 691
471 711
471 746
471 748
471 807
471 837
471 859
471 874
471 876
471 895
471 910
471 919
471 926
471 941
471 949
472 496
472 505
472 526
472 538
472 562
472 572
472 578
472 606
472 633
472 649
472 669
472 671
472 691
472 706
472 722
472 729
472 792
472 796
472 852
472 863
472 904
472 940
473 515
473 679
473 697
473 732
473 741
473 752
473 886
474 488
474 495
474 526
474 542
474 578
474 594
474 617
474 633
474 651
474 652
474 669
474 679
474 680
474 689
474 709
474 723
474 774
474 793
474 796
474 805
474 822
474 829
474 836
474 846
474 859
474 869
474 887
474 891
474 895
474 907
474 911
474 919
474 927
474 957
474 959
475 493
475 519
475 534
475 554
475 596
475 674
475 679
475 715
475 716
475 729
475 768
475 860
475 863
475 892
475 894
475 912
475 936
475 955
476 495
476 496
476 515
476 526
476 574
476 580
476 614
476 627
476 633
476 644
476 645
476 659
476 679
476 689
476 690
476 710
476 742
476 746
476 774
476 776
476 780
476 792
476 793
476 804
476 807
476 829
476 832
476 844
476 853
476 864
476 872
476 878
476 888
476 891
476 899
476 925
476 939
476 950
476 956
477 532
477 573
477 576
477 584
477 608
477 771
477 854
478 532
478 692
478 726
478 933
478 951
479 714
479 836
480 487
480 488
480 495
480 501
480 517
480 526
480 556
480 562
480 589
480 592
480 610
480 617
480 633
480 647
480 650
480 679
480 701
480 705
480 709
480 712
480 746
480 752
480 773
480 791
480 805
480 817
480 820
480 842
480 864
480 872
480 878
480 888
480 891
480 894
480 904
480 907
480 925
480 926
480 940
480 949
480 957
481 534
481 562
481 600
481 603
481 618
481 640
481 649
481 656
481 768
481 855
481 905
481 932
482 529
482 555
482 627
482 637
482 679
482 803
482 882
482 888
482 937
483 489
483 579
483 737
483 772
483 804
483 829
483 836
483 869
483 954
484 488
484 508
484 720
484 746
484 773
484 872
484 926
484 927
484 950
484 952
485 519
485 520
486 504
486 627
486 710
486 846
486 888
487 545
487 576
487 634
487 705
487 725
487 770
487 812
487 854
488 493
488 494
488 495
488 501
488 526
488 562
488 566
488 572
488 578
488 610
488 611
488 640
488 645
488 647
488 654
488 656
488 671
488 674
488 681
488 686
488 697
488 718
488 760
488 774
488 796
488 805
488 855
488 888
488 894
488 929
488 934
488 952
488 957
489 493
489 495
489 502
489 505
489 512
489 518
489 525
489 542
489 544
489 550
489 580
489 618
489 635
489 646
489 651
489 679
489 709
489 710
489 733
489 746
489 747
489 769
489 772
489 793
489 794
489 795
489 805
489 812
489 823
489 829
489 836
489 846
489 855
489 859
489 869
489 872
489 873
489 875
489 903
489 935
489 939
489 953
490 532
490 545
490 562
490 569
490 638
490 726
490 751
490 807
490 827
490 828
490 845
490 897
490 933
490 945
491 679
491 688
491 709
491 733
491 746
491 787
491 872
491 893
492 679
492 855
492 941
493 498
493 508
493 540
493 578
493 586
493 617
493 631
493 632
493 645
493 648
493 666
493 678
493 679
493 708
493 718
493 723
493 776
493 791
493 793
493 795
493 870
493 872
493 888
493 902
493 917
493 929
494 525
494 531
494 578
494 587
494 594
494 603
494 610
494 656
494 669
494 689
494 706
494 709
494 737
494 773
494 774
494 780
494 784
494 796
494 851
494 855
494 872
494 887
494 894
494 908
494 925
494 927
494 932
494 937
494 953
494 956
494 958
495 503
495 504
495 518
495 529
495 539
495 550
495 555
495 571
495 574
495 580
495 581
495 589
495 602
495 617
495 643
495 645
495 646
495 650
495 651
495 655
495 669
495 674
495 679
495 687
495 706
495 710
495 712
495 713
495 718
495 720
495 746
495 748
495 758
495 760
495 780
495 791
495 793
495 807
495 824
495 829
495 837
495 855
495 865
495 872
495 878
495 883
495 887
495 917
495 935
495 938
495 939
495 957
496 505
496 526
496 531
496 558
496 562
496 563
496 572
496 582
496 597
496 601
496 607
496 618
496 644
496 650
496 669
496 679
496 689
496 701
496 711
496 712
496 722
496 748
496 754
496 791
496 792
496 807
496 808
496 844
496 851
496 855
496 866
496 872
496 873
496 878
496 879
496 887
496 904
496 907
496 908
496 918
496 934
496 940
496 946
496 958
497 632
497 646
497 650
497 744
497 797
497 909
497 960
497 961
498 502
498 626
498 637
498 639
498 644
498 664
498 685
498 693
498 716
498 718
498 952
499 532
499 549
499 576
499 634
499 692
499 726
499 735
499 743
499 933
499 951
500 509
500 545
500 608
500 662
500 743
500 766
500 891
501 505
501 525
501 539
501 542
501 552
501 555
501 562
501 574
501 575
501 579
501 601
501 617
501 627
501 633
501 646
501 647
501 651
501 659
501 679
501 690
501 691
501 697
501 710
501 716
501 718
501 728
501 731
501 747
501 749
501 751
501 754
501 769
501 794
501 795
501 804
501 807
501 824
501 829
501 855
501 868
501 869
501 872
501 887
501 888
501 923
501 929
501 947
501 957
502 510
502 516
502 519
502 525
502 572
502 594
502 606
502 617
502 633
502 637
502 644
502 645
502 647
502 650
502 670
502 679
502 681
502 688
502 709
502 718
502 746
502 748
502 753
502 757
502 760
502 805
502 829
502 844
502 855
502 863
502 866
502 868
502 872
502 893
502 903
502 917
502 926
502 935
502 953
502 956
503 550
503 617
503 646
503 650
503 746
504 521
504 697
504 746
504 794
504 804
504 812
504 817
504 837
504 846
504 875
504 914
504 949
505 525
505 526
505 558
505 572
505 578
505 585
505 592
505 606
505 618
505 633
505 646
505 669
505 679
505 691
505 701
505 704
505 709
505 710
505 711
505 713
505 746
505 747
505 748
505 792
505 795
505 805
505 814
505 829
505 863
505 869
505 872
505 879
505 883
505 887
505 900
505 903
505 908
505 923
505 933
505 935
505 940
505 953
505 959
506 679
507 533
507 679
507 863
508 555
508 566
508 575
508 614
508 617
508 645
508 679
508 687
508 690
508 736
508 741
508 807
508 829
508 856
508 872
508 929
508 950
510 579
510 594
510 606
510 617
510 637
510 679
510 709
510 742
510 746
510 760
510 810
510 822
510 863
510 866
510 868
510 891
510 903
510 925
510 926
511 550
511 876
512 537
512 550
512 635
512 636
512 642
512 829
512 865
512 883
513 750
514 532
514 765
515 558
515 615
515 679
515 689
515 732
515 738
515 752
515 850
515 888
516 548
516 585
516 592
516 594
516 606
516 618
516 679
516 681
516 704
516 706
516 720
516 722
516 734
516 753
516 769
516 814
516 831
516 859
516 864
516 891
516 908
516 959
517 519
517 534
517 562
517 586
517 589
517 614
517 617
517 679
517 697
517 744
517 754
517 785
517 796
517 801
517 810
517 855
517 888
517 937
518 550
518 592
518 618
518 646
518 690
518 733
518 747
518 757
518 760
518 793
518 829
518 859
518 865
518 872
518 903
518 939
519 520
519 526
519 546
519 558
519 561
519 572
519 603
519 611
519 615
519 637
519 667
519 679
519 738
519 829
519 866
520 611
520 667
520 679
520 888
521 536
521 550
521 561
521 574
521 645
521 646
521 650
521 655
521 686
521 704
521 746
521 760
521 763
521 772
521 784
521 788
521 837
521 859
521 865
521 874
521 876
521 883
521 891
521 907
521 919
521 926
521 928
521 949
522 528
522 561
522 606
522 615
522 627
522 650
522 701
522 711
522 746
522 748
522 760
522 787
522 801
522 810
522 842
522 865
522 872
522 877
522 921
522 926
522 933
522 952
523 538
523 604
523 722
523 729
523 768
523 804
523 807
523 825
523 932
524 563
524 586
524 627
524 640
524 744
524 862
524 876
524 907
524 917
525 539
525 561
525 572
525 580
525 602
525 627
525 644
525 660
525 669
525 697
525 699
525 709
525 713
525 737
525 741
525 748
525 758
525 760
525 769
525 773
525 794
525 804
525 823
525 829
525 855
525 875
525 935
525 947
525 953
525 957
526 529
526 531
526 556
526 558
526 562
526 572
526 574
526 578
526 585
526 592
526 595
526 597
526 601
526 602
526 604
526 605
526 606
526 618
526 647
526 656
526 667
526 669
526 688
526 701
526 706
526 709
526 711
526 713
526 716
526 722
526 734
526 744
526 746
526 748
526 753
526 754
526 760
526 773
526 792
526 804
526 807
526 811
526 851
526 856
526 865
526 873
526 878
526 887
526 888
526 891
526 897
526 900
526 904
526 905
526 914
526 932
526 934
526 940
526 952
526 953
526 958
526 959
527 532
527 535
527 545
527 549
527 779
527 841
527 933
527 952
528 558
528 585
528 601
528 734
528 748
528 792
528 795
528 872
528 908
529 538
529 539
529 541
529 542
529 550
529 554
529 555
529 558
529 562
529 563
529 574
529 579
529 585
529 605
529 611
529 614
529 617
529 618
529 627
529 637
529 640
529 651
529 667
529 671
529 679
529 704
529 706
529 716
529 718
529 720
529 729
529 734
529 754
529 760
529 773
529 774
529 793
529 796
529 803
529 804
529 807
529 808
529 810
529 820
529 837
529 852
529 859
529 864
529 865
529 876
529 885
529 888
529 907
529 923
529 925
529 927
529 932
529 939
529 957
529 958
529 961
530 543
530 607
530 631
530 640
530 649
530 673
530 679
530 685
530 703
530 740
530 754
530 791
530 798
530 832
530 860
530 912
530 917
531 561
531 562
531 591
531 592
531 603
531 610
531 612
531 616
531 618
531 632
531 644
531 650
531 656
531 669
531 671
531 710
531 712
531 715
531 768
531 773
531 785
531 792
531 796
531 806
531 831
531 855
531 862
531 871
531 887
531 891
531 905
531 907
531 912
531 925
531 927
531 932
531 940
531 958
532 569
532 576
532 608
532 634
532 638
532 717
532 726
532 743
532 751
532 763
532 765
532 771
532 817
532 827
532 828
532 897
532 933
534 595
534 600
534 603
534 656
534 679
534 715
534 768
534 776
534 791
534 810
534 831
534 855
534 860
534 862
534 891
534 905
534 912
534 932
534 936
535 717
535 760
535 763
536 550
536 646
536 746
536 753
536 867
536 894
536 905
536 949
537 559
537 571
537 604
537 607
537 631
537 719
537 760
537 956
537 961
538 550
538 562
538 579
538 601
538 624
538 649
538 671
538 679
538 682
538 706
538 716
538 722
538 729
538 794
538 796
538 805
538 806
538 807
538 808
538 820
538 847
538 851
538 852
538 863
538 875
538 888
538 903
538 911
539 571
539 574
539 657
539 709
539 710
539 733
539 747
539 769
539 780
539 794
539 811
539 823
539 829
539 836
539 855
539 872
539 939
539 953
539 954
539 958
540 601
540 624
540 639
540 640
540 650
540 708
540 832
540 842
540 851
540 883
540 888
541 549
541 555
541 627
541 637
541 646
541 687
541 774
541 804
541 807
541 882
541 897
542 543
542 545
542 555
542 563
542 646
542 648
542 651
542 652
542 678
542 679
542 687
542 710
542 715
542 722
542 747
542 760
542 769
542 773
542 774
542 780
542 783
542 794
542 804
542 805
542 807
542 812
542 817
542 820
542 846
542 853
542 869
542 875
542 889
542 904
542 907
542 908
542 918
542 936
542 957
543 564
543 644
543 710
543 757
543 774
543 820
543 829
543 846
543 853
543 857
543 885
543 908
543 912
543 957
544 725
544 728
544 733
544 747
544 772
544 829
544 869
545 576
545 751
545 765
545 770
545 779
545 828
545 854
545 889
545 899
546 615
546 738
547 551
547 622
547 679
547 726
547 843
549 683
549 692
549 933
549 951
550 574
550 575
550 579
550 599
550 602
550 617
550 646
550 650
550 651
550 687
550 691
550 709
550 711
550 733
550 746
550 748
550 758
550 792
550 793
550 794
550 804
550 829
550 837
550 846
550 859
550 865
550 874
550 875
550 876
550 914
550 919
550 926
550 939
550 949
550 952
552 580
552 599
552 610
552 627
552 656
552 709
552 710
552 712
552 721
552 742
552 747
552 757
552 792
552 793
552 824
552 829
552 836
552 865
552 887
552 894
553 728
553 751
553 755
553 916
554 627
554 633
554 671
554 714
554 774
554 804
554 807
554 808
554 842
554 847
554 939
554 943
554 949
554 950
554 957
555 558
555 562
555 574
555 575
555 579
555 582
555 627
555 633
555 646
555 652
555 667
555 669
555 679
555 689
555 691
555 697
555 701
555 710
555 712
555 742
555 747
555 748
555 757
555 793
555 794
555 795
555 803
555 804
555 805
555 807
555 815
555 836
555 848
555 855
555 856
555 859
555 869
555 872
555 879
555 882
555 884
555 887
555 888
555 897
555 914
555 923
555 943
555 948
556 616
556 664
556 671
556 675
556 685
556 709
556 713
556 720
556 723
556 842
556 864
556 865
556 872
556 883
556 912
556 921
556 934
556 958
557 581
557 586
557 592
557 604
557 605
557 674
557 679
557 686
557 721
557 729
557 774
557 787
557 804
557 894
557 902
558 561
558 562
558 572
558 578
558 579
558 589
558 597
558 601
558 604
558 606
558 611
558 617
558 618
558 624
558 637
558 640
558 645
558 646
558 649
558 659
558 667
558 669
558 679
558 688
558 689
558 697
558 701
558 709
558 719
558 729
558 739
558 744
558 746
558 748
558 754
558 760
558 791
558 792
558 807
558 832
558 837
558 851
558 852
558 872
558 887
558 888
558 900
558 926
558 929
558 940
559 632
559 639
559 785
559 855
559 896
559 909
561 562
561 563
561 606
561 627
561 637
561 644
561 649
561 653
561 679
561 682
561 688
561 697
561 698
561 710
561 712
561 729
561 737
561 746
561 794
561 796
561 807
561 816
561 829
561 836
561 859
561 872
561 950
561 953
561 961
562 578
562 579
562 582
562 583
562 593
562 601
562 603
562 612
562 614
562 617
562 624
562 627
562 628
562 633
562 637
562 639
562 645
562 647
562 649
562 654
562 656
562 667
562 669
562 670
562 671
562 679
562 682
562 685
562 689
562 691
562 698
562 706
562 716
562 722
562 729
562 734
562 742
562 744
562 746
562 748
562 752
562 767
562 780
562 785
562 791
562 794
562 796
562 804
562 807
562 810
562 820
562 821
562 822
562 844
562 847
562 851
562 852
562 853
562 865
562 866
562 872
562 873
562 874
562 878
562 885
562 886
562 887
562 888
562 891
562 904
562 919
562 923
562 932
562 934
562 936
562 937
562 940
562 943
562 949
562 956
563 565
563 645
563 646
563 650
563 655
563 669
563 685
563 689
563 701
563 703
563 722
563 723
563 760
563 791
563 804
563 807
563 810
563 830
563 852
563 907
563 908
563 943
563 952
563 957
564 794
565 729
565 852
566 617
566 872
566 950
567 716
567 723
567 785
567 912
567 936
568 615
568 640
568 679
568 718
568 738
568 761
568 776
568 888
569 736
569 827
569 828
569 937
570 643
570 697
570 699
570 748
570 758
570 872
570 947
570 948
571 607
571 613
571 631
571 679
571 718
571 730
571 745
571 956
572 578
572 579
572 597
572 605
572 606
572 611
572 618
572 637
572 669
572 679
572 688
572 701
572 711
572 729
572 746
572 748
572 760
572 792
572 836
572 866
572 872
572 887
572 900
572 908
572 927
572 940
572 953
574 602
574 627
574 630
574 633
574 652
574 659
574 666
574 670
574 709
574 718
574 719
574 731
574 746
574 752
574 780
574 795
574 805
574 807
574 812
574 855
574 872
574 887
574 904
574 907
574 914
574 919
574 947
574 948
574 952
574 956
575 580
575 602
575 614
575 615
575 617
575 627
575 633
575 651
575 652
575 679
575 691
575 698
575 710
575 712
575 738
575 739
575 742
575 747
575 756
575 757
575 792
575 793
575 805
575 807
575 822
575 836
575 840
575 847
575 848
575 888
575 899
575 911
575 914
575 923
575 957
576 608
576 626
576 636
576 655
576 726
576 733
576 743
576 750
576 751
576 755
576 759
576 769
576 807
576 812
576 821
576 823
576 827
576 829
576 854
576 904
576 913
576 923
576 933
577 640
577 649
577 716
577 739
578 597
578 611
578 645
578 689
578 709
578 855
578 887
578 891
578 893
578 900
578 907
578 908
578 932
578 937
578 940
578 946
579 599
579 617
579 624
579 633
579 646
579 649
579 679
579 690
579 691
579 697
579 698
579 716
579 722
579 742
579 744
579 758
579 760
579 761
579 804
579 807
579 851
579 853
579 855
579 888
579 891
579 897
579 908
579 914
579 923
579 939
579 954
580 592
580 602
580 603
580 614
580 617
580 629
580 656
580 681
580 691
580 711
580 714
580 741
580 746
580 762
580 774
580 812
580 835
580 848
580 853
580 859
580 876
580 877
580 885
580 891
580 908
580 911
580 918
580 923
580 939
581 586
581 613
581 648
581 674
581 678
581 681
581 721
581 789
581 790
581 894
581 902
582 601
582 604
582 610
582 624
582 656
582 661
582 671
582 682
582 689
582 703
582 716
582 722
582 792
582 820
582 851
582 873
582 888
582 894
582 905
583 603
583 604
583 744
584 608
584 626
584 636
584 771
584 854
584 899
584 907
584 951
585 592
585 606
585 664
585 669
585 679
585 703
585 704
585 710
585 720
585 734
585 753
585 758
585 760
585 772
585 792
585 793
585 795
585 842
585 859
585 872
585 873
585 876
585 879
585 905
585 959
586 607
586 612
586 617
586 674
586 679
586 685
586 693
586 694
586 712
586 718
586 744
586 767
586 810
586 816
586 855
586 888
586 891
586 902
586 929
586 937
587 616
587 723
587 754
587 784
587 785
587 836
587 879
587 894
589 592
589 612
589 666
589 668
589 669
589 670
589 679
589 685
589 689
589 718
589 740
589 754
589 798
589 832
589 844
589 870
589 872
589 878
589 888
589 911
589 912
589 925
589 937
589 949
589 956
590 613
590 649
590 892
590 894
590 961
591 618
591 624
591 640
591 650
591 712
591 806
591 850
591 888
591 891
591 938
592 606
592 610
592 616
592 617
592 618
592 619
592 642
592 646
592 664
592 671
592 675
592 676
592 682
592 683
592 703
592 704
592 709
592 710
592 720
592 728
592 729
592 753
592 757
592 760
592 762
592 773
592 774
592 784
592 805
592 811
592 814
592 829
592 842
592 845
592 855
592 859
592 863
592 865
592 876
592 885
592 894
592 903
592 921
592 925
592 926
592 927
592 931
592 949
592 956
592 959
593 681
593 702
593 709
593 710
593 718
593 747
593 769
593 780
593 859
593 958
594 606
594 637
594 681
594 704
594 822
594 829
594 863
594 866
594 903
594 908
594 927
595 604
595 642
595 649
595 656
595 679
595 685
595 709
595 710
595 714
595 715
595 716
595 718
595 722
595 740
595 747
595 754
595 769
595 780
595 862
595 872
595 888
595 894
595 907
595 908
595 912
595 936
596 607
596 631
596 656
596 716
596 721
596 754
596 905
596 955
596 961
597 605
597 617
597 669
597 792
597 808
597 891
597 900
597 952
598 757
599 627
599 633
599 651
599 731
599 742
599 774
599 792
599 793
599 836
599 914
600 603
600 610
600 649
600 656
600 894
600 932
601 679
601 682
601 704
601 729
601 753
601 784
601 787
601 792
601 806
601 825
601 832
601 851
601 873
601 879
601 917
602 633
602 646
602 679
602 697
602 716
602 737
602 744
602 746
602 793
602 794
602 804
602 846
602 856
602 865
602 875
602 897
602 914
602 938
602 939
602 950
602 952
602 953
603 604
603 610
603 616
603 618
603 644
603 656
603 685
603 744
603 767
603 864
603 865
603 888
603 925
603 927
603 932
603 949
603 956
604 645
604 656
604 679
604 686
604 709
604 715
604 720
604 734
604 740
604 748
604 825
604 851
604 862
604 905
604 912
604 925
604 936
604 952
605 686
605 729
605 774
605 808
605 900
606 618
606 637
606 645
606 669
606 681
606 704
606 709
606 722
606 746
606 760
606 765
606 792
606 805
606 822
606 829
606 863
606 866
606 868
606 887
606 897
606 906
606 907
606 908
606 922
606 925
606 926
606 928
606 935
606 959
607 631
607 646
607 679
607 719
607 761
607 840
607 855
607 865
607 888
607 905
607 917
607 929
608 662
608 726
608 743
608 751
608 770
608 771
608 821
608 874
608 933
609 633
609 735
609 743
609 747
609 755
609 841
609 845
609 854
610 617
610 644
610 656
610 682
610 710
610 712
610 715
610 768
610 773
610 785
610 787
610 790
610 804
610 820
610 855
610 862
610 887
610 891
610 894
610 905
610 912
610 927
610 932
610 936
610 937
610 940
610 954
611 630
611 667
611 670
611 679
611 738
611 760
611 876
612 656
612 682
612 685
612 718
612 744
612 767
612 773
612 790
612 855
612 865
612 872
612 888
612 921
612 935
612 958
613 674
613 676
613 789
613 823
613 869
613 882
613 894
613 902
613 921
613 929
613 961
614 640
614 746
614 807
614 885
614 888
614 915
614 918
615 617
615 646
615 670
615 673
615 679
615 682
615 684
615 703
615 718
615 738
615 739
615 752
615 787
615 840
615 850
615 876
615 915
615 927
615 937
616 642
616 648
616 671
616 676
616 704
616 720
616 784
616 789
616 829
616 831
616 845
616 865
616 879
616 888
616 896
616 921
616 925
616 935
616 958
617 620
617 624
617 627
617 637
617 640
617 644
617 650
617 651
617 670
617 673
617 679
617 683
617 693
617 694
617 718
617 738
617 746
617 774
617 801
617 805
617 810
617 822
617 855
617 865
617 872
617 885
617 888
617 891
617 907
617 925
617 927
617 929
617 932
617 934
617 937
617 939
617 949
617 952
617 956
617 957
617 958
617 961
618 646
618 669
618 678
618 686
618 701
618 704
618 711
618 723
618 729
618 747
618 748
618 772
618 773
618 780
618 792
618 804
618 810
618 818
618 826
618 829
618 849
618 864
618 867
618 891
618 908
618 925
618 940
618 959
619 649
620 632
620 648
620 668
620 678
620 679
620 686
620 723
620 795
620 862
620 955
621 633
622 679
622 869
623 703
623 716
623 961
624 628
624 646
624 649
624 679
624 682
624 703
624 706
624 716
624 722
624 729
624 738
624 739
624 791
624 806
624 807
624 832
624 847
624 851
624 878
624 888
624 891
624 911
624 955
624 961
625 726
625 750
625 765
626 717
626 726
626 743
626 765
626 904
626 922
627 630
627 633
627 637
627 646
627 650
627 651
627 687
627 691
627 698
627 700
627 719
627 738
627 758
627 803
627 804
627 807
627 824
627 835
627 836
627 848
627 869
627 882
627 883
627 887
627 888
627 897
627 904
627 910
627 923
627 933
627 943
627 949
627 958
628 667
628 888
629 646
629 697
629 853
630 869
630 952
631 645
631 646
631 685
631 686
631 690
631 716
631 718
631 774
631 832
632 650
632 668
632 676
632 686
632 696
632 704
632 712
632 797
632 811
632 855
632 865
632 891
632 907
632 960
633 646
633 659
633 662
633 679
633 690
633 691
633 705
633 710
633 722
633 731
633 742
633 747
633 748
633 751
633 755
633 763
633 793
633 794
633 807
633 812
633 815
633 824
633 841
633 854
633 859
633 869
633 872
633 884
633 887
633 920
633 923
633 939
634 735
634 799
634 828
635 642
635 772
635 794
635 804
635 829
635 853
635 865
635 954
635 957
636 725
636 771
636 845
636 854
636 865
636 899
637 645
637 647
637 667
637 676
637 681
637 688
637 700
637 709
637 718
637 738
637 746
637 748
637 760
637 791
637 803
637 810
637 822
637 863
637 866
637 868
637 872
637 875
637 878
637 882
637 888
637 893
637 907
637 917
637 926
637 952
637 956
638 679
638 710
638 731
638 807
638 899
639 693
639 718
639 855
639 896
640 649
640 673
640 679
640 682
640 690
640 693
640 694
640 718
640 719
640 729
640 730
640 734
640 739
640 744
640 785
640 795
640 851
640 855
640 860
640 872
640 885
640 891
640 929
640 934
640 937
640 961
641 708
641 723
641 932
642 659
642 704
642 791
642 872
642 883
642 912
642 936
642 940
642 947
643 679
643 726
644 655
644 667
644 682
644 694
644 699
644 706
644 710
644 737
644 742
644 748
644 758
644 762
644 769
644 772
644 773
644 794
644 804
644 829
644 844
644 846
644 861
644 869
644 873
644 878
644 905
644 908
644 914
644 923
644 927
644 947
644 952
644 957
645 655
645 676
645 681
645 685
645 686
645 689
645 695
645 704
645 706
645 709
645 718
645 740
645 748
645 754
645 758
645 760
645 780
645 791
645 792
645 811
645 844
645 872
645 874
645 876
645 878
645 887
645 888
645 891
645 907
645 918
645 956
646 649
646 650
646 651
646 669
646 679
646 682
646 687
646 690
646 691
646 697
646 701
646 710
646 711
646 716
646 718
646 719
646 722
646 725
646 733
646 738
646 739
646 742
646 744
646 746
646 747
646 748
646 760
646 769
646 773
646 779
646 791
646 794
646 795
646 800
646 804
646 805
646 807
646 812
646 817
646 824
646 829
646 832
646 837
646 846
646 847
646 863
646 865
646 872
646 875
646 883
646 891
646 897
646 908
646 912
646 917
646 919
646 923
646 926
646 932
646 934
646 936
646 937
646 939
646 943
646 949
646 952
646 957
647 654
647 671
647 688
647 709
647 712
647 746
647 855
647 872
647 912
647 926
647 936
647 937
647 957
648 656
648 678
648 687
648 721
648 748
648 790
648 867
648 894
648 925
649 656
649 670
649 673
649 679
649 682
649 690
649 716
649 718
649 719
649 729
649 739
649 744
649 752
649 761
649 768
649 769
649 791
649 825
649 851
649 870
649 872
649 873
649 878
649 888
649 892
649 911
649 912
649 917
649 921
649 932
649 958
650 659
650 664
650 669
650 696
650 701
650 709
650 711
650 712
650 740
650 744
650 746
650 747
650 748
650 760
650 785
650 807
650 842
650 855
650 860
650 865
650 866
650 871
650 874
650 885
650 887
650 891
650 903
650 907
650 910
650 914
650 919
650 926
650 940
650 949
650 958
650 960
651 656
651 679
651 687
651 710
651 742
651 747
651 774
651 791
651 794
651 805
651 817
651 846
651 848
651 869
651 872
651 875
651 888
651 891
651 895
651 908
651 911
651 927
651 957
652 679
652 691
652 731
652 878
652 952
653 697
654 671
654 872
654 934
654 937
655 759
655 769
655 803
655 807
655 814
655 855
655 869
655 872
655 876
655 882
655 935
655 939
656 669
656 678
656 679
656 704
656 709
656 710
656 715
656 729
656 740
656 744
656 768
656 774
656 787
656 790
656 796
656 804
656 811
656 818
656 853
656 855
656 860
656 862
656 867
656 870
656 887
656 888
656 894
656 905
656 907
656 912
656 918
656 925
656 927
656 932
656 936
656 937
656 954
656 955
656 956
657 679
657 746
657 748
658 717
658 772
659 671
659 679
659 691
659 700
659 747
659 769
659 807
659 810
659 859
659 885
659 888
659 939
659 950
660 737
660 758
660 773
660 829
660 865
660 947
660 953
662 770
662 804
662 845
663 758
663 940
663 946
664 675
664 687
664 723
664 787
664 842
664 909
664 917
664 935
666 718
666 805
667 669
667 670
667 679
667 689
667 734
667 737
667 748
667 754
667 791
667 807
667 844
667 859
667 872
667 878
667 888
667 937
667 940
667 956
668 671
668 686
668 703
668 744
668 754
668 791
668 829
668 961
669 679
669 689
669 701
669 704
669 706
669 709
669 710
669 711
669 712
669 720
669 722
669 746
669 747
669 748
669 754
669 760
669 792
669 796
669 798
669 807
669 836
669 855
669 859
669 865
669 869
669 872
669 873
669 879
669 885
669 887
669 904
669 907
669 908
669 926
669 927
669 934
669 935
669 940
669 953
669 958
669 959
670 689
670 697
670 718
670 738
670 748
670 754
670 850
670 872
670 878
670 888
670 937
670 956
671 685
671 686
671 704
671 706
671 709
671 722
671 729
671 746
671 769
671 773
671 785
671 788
671 796
671 832
671 865
671 866
671 867
671 872
671 873
671 888
671 891
671 893
671 904
671 919
671 925
671 926
671 934
671 939
671 949
671 950
671 956
671 958
672 841
672 920
672 951
673 679
673 719
673 738
673 776
673 840
674 679
674 716
674 721
674 902
674 958
675 708
675 842
676 704
676 720
676 723
676 760
676 795
676 837
676 872
676 925
676 929
676 961
678 697
678 748
678 790
678 894
678 925
679 681
679 688
679 690
679 691
679 696
679 697
679 703
679 706
679 708
679 710
679 712
679 715
679 716
679 719
679 722
679 729
679 731
679 739
679 740
679 741
679 742
679 744
679 747
679 748
679 752
679 754
679 762
679 768
679 773
679 777
679 778
679 779
679 780
679 782
679 792
679 795
679 796
679 798
679 805
679 807
679 810
679 832
679 835
679 836
679 838
679 840
679 841
679 842
679 848
679 850
679 851
679 852
679 855
679 857
679 860
679 863
679 864
679 866
679 867
679 869
679 873
679 876
679 877
679 881
679 885
679 886
679 888
679 891
679 892
679 894
679 902
679 907
679 910
679 912
679 917
679 925
679 927
679 929
679 932
679 935
679 936
679 937
679 941
679 942
679 943
679 944
679 952
679 954
679 955
679 957
679 959
680 709
680 733
680 769
680 823
681 688
681 702
681 709
681 710
681 718
681 734
681 746
681 747
681 748
681 758
681 760
681 780
681 791
681 792
681 807
681 829
681 836
681 859
681 863
681 868
681 872
681 887
681 894
681 907
681 956
682 685
682 703
682 712
682 713
682 716
682 722
682 791
682 793
682 820
682 847
682 851
682 852
682 860
682 873
682 894
682 912
682 952
682 961
683 821
683 841
683 874
683 885
683 925
685 688
685 690
685 694
685 708
685 709
685 710
685 712
685 723
685 733
685 744
685 747
685 758
685 760
685 769
685 791
685 794
685 811
685 823
685 825
685 831
685 865
685 868
685 870
685 872
685 888
685 956
685 958
686 704
686 721
686 723
686 791
686 837
686 874
686 876
686 891
686 926
687 718
687 774
687 805
687 817
687 829
687 846
687 869
687 894
687 934
687 949
687 957
688 709
688 710
688 718
688 723
688 733
688 740
688 746
688 747
688 748
688 769
688 780
688 794
688 811
688 823
688 863
688 865
688 866
688 868
688 872
688 893
688 926
688 935
688 936
688 959
689 746
689 754
689 791
689 792
689 844
689 866
689 870
689 872
689 878
689 888
689 927
689 937
689 939
689 956
690 706
690 714
690 731
690 733
690 742
690 769
690 794
690 804
690 807
690 832
690 835
690 869
690 872
690 878
690 888
690 914
690 915
690 917
690 928
690 939
691 697
691 698
691 722
691 731
691 742
691 760
691 804
691 807
691 824
691 836
691 851
691 859
691 887
691 888
691 895
691 911
691 923
692 725
692 765
692 895
692 899
692 951
692 957
693 694
693 718
693 855
693 891
693 929
693 937
694 855
694 918
694 927
694 929
696 797
697 699
697 718
697 732
697 737
697 741
697 748
697 752
697 758
697 769
697 804
697 891
697 929
697 937
697 947
697 948
697 953
698 722
698 760
698 761
698 804
698 851
698 891
698 911
698 923
698 954
699 746
699 747
699 748
699 758
699 795
699 804
699 807
699 918
699 947
699 948
700 856
700 859
700 897
700 956
701 710
701 711
701 718
701 733
701 734
701 747
701 748
701 760
701 787
701 792
701 810
701 869
701 872
701 879
701 908
701 934
701 940
701 952
701 958
702 718
702 780
702 859
703 716
703 722
703 738
703 739
703 798
703 862
703 888
703 894
703 905
703 932
703 937
703 961
704 709
704 723
704 734
704 748
704 768
704 772
704 784
704 791
704 795
704 811
704 863
704 865
704 872
704 874
704 883
704 885
704 921
704 925
704 935
704 949
705 755
705 833
705 841
705 858
706 722
706 729
706 744
706 796
706 807
706 808
706 847
706 851
706 852
706 888
706 891
706 904
706 927
706 940
706 959
708 723
708 791
708 829
708 870
708 947
709 710
709 714
709 720
709 733
709 740
709 746
709 747
709 748
709 753
709 754
709 757
709 760
709 769
709 780
709 794
709 805
709 811
709 812
709 823
709 829
709 836
709 859
709 863
709 865
709 866
709 868
709 872
709 878
709 883
709 888
709 893
709 903
709 907
709 912
709 926
709 936
709 939
709 940
709 949
709 952
709 956
709 959
710 712
710 725
710 733
710 742
710 747
710 748
710 754
710 757
710 758
710 769
710 774
710 792
710 794
710 795
710 801
710 807
710 811
710 812
710 823
710 829
710 836
710 846
710 849
710 859
710 865
710 869
710 872
710 879
710 887
710 935
710 954
710 957
710 958
711 746
711 792
711 887
711 891
711 926
711 949
711 952
711 953
712 740
712 744
712 748
712 773
712 785
712 792
712 804
712 806
712 807
712 811
712 831
712 842
712 855
712 872
712 888
712 904
712 907
712 912
712 940
712 949
712 958
713 734
713 747
713 753
713 760
713 773
713 812
713 832
713 837
713 868
713 952
713 953
714 733
714 757
714 823
714 829
714 868
714 872
714 950
715 729
715 754
715 818
715 862
715 894
715 905
715 912
715 932
715 936
716 718
716 719
716 722
716 729
716 740
716 776
716 785
716 807
716 808
716 820
716 831
716 840
716 847
716 851
716 852
716 862
716 878
716 888
716 891
716 911
716 923
716 955
717 728
717 772
717 845
718 730
718 738
718 739
718 746
718 748
718 758
718 780
718 811
718 829
718 840
718 850
718 855
718 859
718 863
718 872
718 883
718 886
718 887
718 888
718 917
718 929
718 937
719 752
719 776
719 829
719 840
719 863
719 949
720 724
720 753
720 762
720 773
720 793
720 811
720 816
720 829
720 859
720 864
720 894
720 907
720 925
720 959
722 729
722 779
722 780
722 785
722 792
722 796
722 807
722 808
722 810
722 820
722 841
722 852
722 888
722 911
722 912
722 936
722 937
722 955
723 749
723 768
723 784
723 791
723 795
723 825
723 865
723 867
723 870
723 932
725 728
725 747
725 836
725 841
725 884
725 899
726 743
726 751
726 765
726 794
726 841
726 945
727 890
727 899
728 743
728 747
728 748
728 751
728 755
728 794
728 869
728 899
728 916
728 945
729 746
729 748
729 768
729 782
729 791
729 796
729 807
729 808
729 818
729 820
729 825
729 851
729 852
729 872
729 873
729 885
729 894
729 900
729 911
729 937
729 958
730 872
731 742
731 824
731 847
731 911
731 915
731 923
732 736
732 741
733 742
733 747
733 769
733 772
733 793
733 804
733 811
733 812
733 823
733 829
733 836
733 865
733 866
733 868
733 869
733 872
733 928
733 939
734 768
734 773
734 864
734 925
734 934
734 952
735 743
735 799
735 883
737 758
737 773
737 829
737 844
737 947
737 953
737 956
738 739
738 752
738 756
738 776
738 787
738 840
738 850
738 855
738 886
738 915
738 937
739 744
739 752
739 754
739 761
739 776
739 795
739 798
739 807
739 840
739 881
739 917
739 923
739 937
740 748
740 754
740 762
740 832
740 851
740 862
740 872
740 888
740 893
740 912
740 936
742 747
742 757
742 760
742 792
742 793
742 804
742 807
742 812
742 829
742 836
742 848
742 888
742 891
742 923
742 939
743 751
743 841
743 933
744 767
744 804
744 832
744 855
744 856
744 860
744 883
744 888
744 894
744 914
744 917
745 754
745 758
745 790
745 946
746 747
746 748
746 792
746 822
746 837
746 856
746 865
746 866
746 868
746 872
746 874
746 876
746 878
746 879
746 888
746 891
746 893
746 910
746 914
746 919
746 926
746 935
746 940
746 941
746 949
747 748
747 751
747 755
747 769
747 772
747 794
747 795
747 804
747 811
747 812
747 823
747 829
747 836
747 842
747 846
747 859
747 865
747 868
747 869
747 872
747 879
747 883
747 887
747 933
747 935
747 939
747 946
747 947
747 957
747 958
747 959
748 754
748 758
748 760
748 792
748 794
748 795
748 796
748 798
748 805
748 836
748 872
748 885
748 887
748 891
748 893
748 907
748 908
748 910
748 926
748 940
748 947
748 948
748 949
748 953
749 789
749 921
749 929
750 765
750 769
750 891
750 913
750 949
751 755
751 765
751 771
751 807
751 841
751 869
751 916
752 776
752 780
752 796
752 810
752 855
752 863
752 872
752 881
752 886
752 888
752 936
752 937
752 946
753 760
753 773
753 784
753 829
753 838
753 857
753 863
753 885
753 894
753 903
753 925
753 926
753 931
753 959
754 761
754 785
754 794
754 798
754 801
754 807
754 832
754 836
754 844
754 862
754 872
754 878
754 888
754 894
754 907
754 917
754 947
754 956
755 808
755 854
755 869
755 899
755 916
755 933
756 850
756 877
756 907
756 909
756 937
757 805
757 823
757 829
757 836
757 837
757 863
757 875
757 942
757 954
758 760
758 772
758 792
758 804
758 807
758 810
758 872
758 875
758 878
758 888
758 914
758 940
758 946
758 947
758 948
758 953
759 945
760 761
760 763
760 773
760 791
760 792
760 801
760 807
760 810
760 821
760 831
760 853
760 855
760 863
760 871
760 876
760 886
760 891
760 893
760 895
760 903
760 907
760 926
760 937
760 952
760 953
760 954
760 961
761 802
761 840
761 888
761 891
761 911
761 923
761 936
762 774
762 859
762 885
762 903
763 821
764 951
765 830
765 845
765 854
765 888
765 899
765 906
765 907
765 913
765 922
765 951
767 888
768 811
768 818
768 885
768 892
768 894
768 905
768 912
768 932
768 936
768 955
769 774
769 780
769 794
769 812
769 823
769 829
769 835
769 836
769 846
769 872
769 904
769 918
769 939
769 957
770 812
770 899
771 854
771 899
771 907
771 945
772 836
772 859
772 873
772 947
772 959
773 805
773 832
773 859
773 864
773 865
773 894
773 905
773 917
773 925
773 952
773 953
773 957
773 958
774 793
774 804
774 805
774 837
774 846
774 853
774 857
774 859
774 875
774 877
774 885
774 891
774 895
774 904
774 918
774 925
774 927
774 954
774 957
776 778
776 798
776 840
776 881
776 888
777 888
778 798
779 827
779 841
779 854
779 865
779 889
780 784
780 791
780 796
780 823
780 848
780 851
780 872
780 878
780 887
780 888
780 939
780 950
780 961
782 813
782 894
784 811
784 832
784 865
784 879
784 949
784 958
785 832
785 840
785 873
785 917
785 937
787 790
787 804
787 842
787 894
788 865
788 874
788 907
788 949
789 865
789 894
789 921
790 810
790 820
790 856
790 867
790 894
790 902
790 905
790 932
790 958
791 806
791 811
791 831
791 844
791 855
791 865
791 870
791 872
791 873
791 878
791 883
791 888
791 894
791 908
791 917
791 919
791 936
791 956
792 806
792 807
792 822
792 836
792 851
792 872
792 873
792 878
792 887
792 891
792 900
792 904
792 907
792 926
792 940
792 958
792 959
793 814
793 836
793 869
793 876
793 883
793 894
793 903
793 905
793 915
794 795
794 804
794 805
794 811
794 812
794 823
794 829
794 835
794 836
794 846
794 865
794 868
794 869
794 872
794 875
794 887
794 908
794 939
794 957
795 872
795 879
795 929
795 935
795 937
795 947
795 959
796 807
796 820
796 841
796 850
796 851
796 852
796 887
796 888
796 915
796 919
796 927
796 934
796 940
796 943
798 881
798 937
799 922
800 805
800 845
800 930
801 807
801 810
801 872
801 921
801 952
803 814
803 829
803 882
803 888
803 897
803 903
804 807
804 812
804 829
804 853
804 859
804 865
804 872
804 878
804 888
804 894
804 897
804 905
804 914
804 928
804 932
804 939
804 948
804 953
804 954
804 957
805 806
805 807
805 817
805 829
805 835
805 846
805 859
805 863
805 864
805 869
805 891
805 897
805 908
805 923
805 926
805 944
805 957
806 863
806 873
806 888
806 891
806 907
807 820
807 824
807 835
807 847
807 851
807 852
807 856
807 862
807 872
807 875
807 876
807 878
807 888
807 891
807 904
807 907
807 911
807 923
807 937
807 940
807 943
807 949
807 957
807 958
807 961
808 847
808 852
808 873
808 911
810 850
810 855
810 857
810 871
810 885
810 886
810 888
810 891
810 911
810 919
810 926
810 947
810 952
811 868
811 872
811 894
811 907
811 929
811 958
812 823
812 829
812 836
812 846
812 872
812 939
814 829
814 853
814 859
814 863
814 926
814 931
815 884
817 846
817 869
817 908
817 934
818 867
818 894
820 835
820 847
820 851
820 852
820 855
820 873
820 888
821 841
821 930
821 945
822 866
822 894
822 902
822 940
823 829
823 836
823 868
823 872
823 939
824 887
824 923
826 876
827 828
827 888
828 854
828 897
828 922
829 836
829 837
829 853
829 855
829 859
829 863
829 865
829 869
829 872
829 885
829 887
829 888
829 903
829 907
829 914
829 935
829 939
829 953
829 957
831 891
831 925
831 936
831 958
832 851
832 878
832 879
832 912
832 917
832 932
834 933
835 855
835 872
835 939
836 846
836 859
836 865
836 869
836 872
836 875
836 923
836 935
836 939
837 846
837 853
837 874
837 875
837 876
837 885
837 919
837 927
837 943
837 949
838 863
838 903
840 859
840 865
840 872
840 917
840 937
841 847
841 888
841 899
841 911
841 959
842 872
842 939
844 866
844 870
844 872
844 878
844 888
844 956
845 889
845 899
845 930
846 853
846 855
846 875
846 883
846 907
846 914
846 918
846 953
846 957
847 851
847 888
847 904
847 911
850 915
850 937
851 852
851 864
851 873
851 888
851 936
852 888
852 936
852 955
852 958
853 876
853 893
853 895
853 926
853 931
853 954
853 957
854 899
855 857
855 872
855 885
855 887
855 888
855 891
855 904
855 907
855 917
855 918
855 929
855 935
855 937
855 940
855 941
855 953
855 956
855 958
856 872
856 881
856 888
857 872
857 885
857 925
857 927
859 865
859 869
859 894
859 895
859 897
859 907
859 957
859 959
860 865
860 888
862 888
862 894
862 905
862 912
862 917
862 932
862 936
862 937
863 886
863 893
863 903
863 926
863 931
863 932
864 925
865 866
865 870
865 872
865 873
865 883
865 888
865 889
865 907
865 921
865 926
865 935
865 949
865 952
865 959
865 961
866 872
866 878
866 888
866 939
866 956
867 894
868 872
868 939
868 950
869 879
869 887
869 903
869 916
869 957
870 872
870 878
870 888
870 956
871 891
871 907
871 952
872 878
872 879
872 883
872 887
872 888
872 891
872 893
872 902
872 908
872 921
872 926
872 929
872 934
872 935
872 936
872 937
872 939
872 940
872 946
872 950
872 952
873 888
873 918
873 940
874 891
874 926
874 949
875 914
876 887
876 895
876 907
876 919
876 957
876 959
878 888
878 905
878 912
878 937
878 939
878 940
878 956
879 887
879 935
881 888
881 912
881 917
881 937
882 888
883 917
884 887
884 920
885 888
885 907
885 925
885 927
885 932
885 940
885 949
886 888
886 891
886 927
886 937
887 891
887 907
887 927
887 940
887 958
888 891
888 893
888 907
888 911
888 912
888 918
888 923
888 927
888 932
888 936
888 937
888 939
888 943
888 944
888 949
888 956
891 905
891 907
891 915
891 919
891 925
891 926
891 929
891 932
891 937
891 939
891 940
891 949
891 952
891 958
893 936
894 902
894 905
894 912
894 932
894 934
894 949
895 927
895 957
897 914
897 957
899 951
900 940
900 952
903 926
904 907
904 918
904 940
904 943
904 946
904 958
905 912
905 915
905 917
905 932
905 936
905 937
905 954
907 918
907 926
907 940
907 958
907 959
908 925
908 927
908 940
908 952
908 957
911 923
911 936
912 917
912 927
912 932
912 936
912 937
912 958
914 949
914 952
915 928
917 932
917 936
917 961
918 940
918 956
919 952
925 927
925 932
925 957
925 958
926 935
926 949
927 932
927 934
927 937
927 956
927 957
928 948
929 937
932 935
932 936
932 937
932 956
934 940
934 952
935 940
935 953
936 949
936 955
937 956
939 950
939 957
940 946
940 958
940 959
943 949
944 952
947 948
950 953
953 957
954 957
957 959
