%%MatrixMarket matrix coordinate pattern symmetric
3746 3746 81893
1 51
1 76
1 213
1 278
1 279
1 351
1 598
1 694
1 781
1 825
1 843
1 845
1 1002
1 1156
1 1221
1 1231
1 1331
1 1464
1 1651
1 1670
1 1674
1 1744
1 1947
1 2028
1 2046
1 2054
1 2186
1 2222
1 2399
1 2442
1 2463
1 2878
1 3112
1 3249
1 3453
1 3627
2 11
2 14
2 106
2 129
2 211
2 263
2 277
2 317
2 326
2 340
2 371
2 449
2 467
2 489
2 515
2 548
2 561
2 571
2 579
2 627
2 660
2 754
2 967
2 1002
2 1057
2 1087
2 1121
2 1141
2 1174
2 1321
2 1333
2 1360
2 1471
2 1510
2 1526
2 1557
2 1567
2 1622
2 1631
2 1667
2 1703
2 1723
2 1724
2 1848
2 1879
2 1959
2 1978
2 2040
2 2101
2 2186
2 2218
2 2219
2 2229
2 2235
2 2250
2 2321
2 2324
2 2352
2 2513
2 2555
2 2582
2 2615
2 2696
2 2726
2 2741
2 2745
2 2766
2 2793
2 3030
2 3033
2 3040
2 3068
2 3108
2 3184
2 3227
2 3323
2 3325
2 3337
2 3349
2 3410
2 3415
2 3444
2 3669
2 3675
2 3687
2 3689
3 913
3 3686
4 128
4 166
4 445
4 463
4 480
4 556
4 897
4 930
4 970
4 1007
4 1023
4 1037
4 1078
4 1149
4 1330
4 1708
4 1859
4 1998
4 2076
4 2114
4 2168
4 2510
4 2511
4 2617
4 2859
4 2973
4 2986
4 3021
4 3394
4 3469
4 3481
4 3624
4 3657
5 15
5 130
5 160
5 174
5 210
5 256
5 261
5 271
5 277
5 315
5 316
5 333
5 336
5 342
5 415
5 429
5 437
5 462
5 512
5 513
5 517
5 534
5 631
5 699
5 790
5 817
5 842
5 934
5 967
5 998
5 1020
5 1024
5 1030
5 1049
5 1102
5 1206
5 1235
5 1321
5 1333
5 1335
5 1346
5 1360
5 1365
5 1406
5 1411
5 1415
5 1507
5 1575
5 1613
5 1635
5 1645
5 1670
5 1681
5 1699
5 1758
5 1780
5 1799
5 1848
5 1861
5 1887
5 1894
5 1919
5 1931
5 1934
5 1996
5 2001
5 2060
5 2135
5 2141
5 2174
5 2205
5 2235
5 2299
5 2319
5 2401
5 2406
5 2438
5 2474
5 2547
5 2556
5 2568
5 2574
5 2575
5 2583
5 2638
5 2649
5 2662
5 2664
5 2666
5 2696
5 2772
5 2791
5 2827
5 2852
5 2882
5 2885
5 2925
5 2944
5 2951
5 2963
5 2999
5 3015
5 3037
5 3038
5 3040
5 3043
5 3068
5 3075
5 3096
5 3179
5 3181
5 3227
5 3231
5 3234
5 3334
5 3345
5 3349
5 3371
5 3382
5 3385
5 3386
5 3389
5 3396
5 3407
5 3408
5 3437
5 3442
5 3453
5 3497
5 3518
5 3536
5 3547
5 3575
5 3649
5 3659
6 1171
7 316
7 437
7 791
7 803
7 894
7 899
7 902
7 904
7 1020
7 1133
7 1355
7 1434
7 1543
7 1725
7 1799
7 2116
7 2141
7 2298
7 2447
7 2575
7 2612
7 2780
7 2792
7 2827
7 2919
7 2951
7 3010
7 3264
7 3466
7 3482
7 3578
7 3594
7 3649
7 3704
8 126
8 316
8 367
8 446
8 765
8 832
8 924
8 1101
8 1250
8 1650
8 1682
8 1985
8 2013
8 2031
8 2339
8 2766
8 2943
8 3013
8 3382
8 3462
9 279
9 418
9 957
9 1066
9 1071
9 1241
9 1635
9 2452
9 2534
9 2759
9 3104
9 3166
9 3287
9 3298
9 3554
10 174
10 263
10 285
10 547
10 558
10 620
10 839
10 968
10 1050
10 1164
10 1186
10 1195
10 1425
10 1564
10 1902
10 1972
10 2057
10 2210
10 2295
10 2745
10 2766
10 2804
10 2808
10 2962
10 3156
10 3518
10 3549
10 3575
10 3639
10 3675
10 3717
11 14
11 19
11 43
11 53
11 62
11 90
11 106
11 136
11 145
11 166
11 167
11 186
11 214
11 223
11 248
11 270
11 272
11 280
11 292
11 317
11 327
11 357
11 361
11 366
11 392
11 446
11 514
11 515
11 530
11 537
11 543
11 554
11 564
11 569
11 579
11 584
11 589
11 593
11 594
11 638
11 646
11 666
11 700
11 742
11 764
11 776
11 807
11 844
11 862
11 887
11 896
11 897
11 916
11 930
11 943
11 967
11 988
11 995
11 996
11 1022
11 1024
11 1028
11 1043
11 1049
11 1057
11 1072
11 1087
11 1089
11 1097
11 1151
11 1174
11 1204
11 1227
11 1275
11 1276
11 1278
11 1288
11 1299
11 1314
11 1337
11 1403
11 1419
11 1458
11 1475
11 1479
11 1489
11 1522
11 1526
11 1537
11 1543
11 1546
11 1565
11 1583
11 1597
11 1622
11 1631
11 1719
11 1724
11 1725
11 1756
11 1761
11 1788
11 1843
11 1848
11 1854
11 1859
11 1862
11 1864
11 1865
11 1879
11 1912
11 1967
11 1972
11 1974
11 1978
11 1996
11 2004
11 2012
11 2034
11 2040
11 2042
11 2052
11 2060
11 2064
11 2076
11 2081
11 2114
11 2144
11 2157
11 2160
11 2176
11 2182
11 2186
11 2191
11 2209
11 2210
11 2212
11 2229
11 2238
11 2250
11 2307
11 2321
11 2333
11 2341
11 2369
11 2372
11 2395
11 2396
11 2408
11 2416
11 2423
11 2432
11 2469
11 2474
11 2489
11 2513
11 2521
11 2544
11 2578
11 2582
11 2601
11 2605
11 2634
11 2636
11 2707
11 2710
11 2741
11 2751
11 2755
11 2808
11 2821
11 2832
11 2834
11 2836
11 2845
11 2848
11 2859
11 2875
11 2888
11 2889
11 2895
11 2940
11 2956
11 2973
11 2975
11 2986
11 2998
11 3016
11 3021
11 3030
11 3051
11 3071
11 3086
11 3093
11 3121
11 3129
11 3137
11 3138
11 3139
11 3178
11 3182
11 3207
11 3209
11 3219
11 3248
11 3258
11 3274
11 3296
11 3316
11 3323
11 3337
11 3370
11 3405
11 3413
11 3430
11 3444
11 3450
11 3465
11 3476
11 3482
11 3484
11 3511
11 3534
11 3571
11 3597
11 3603
11 3688
11 3714
11 3736
11 3745
12 376
12 540
12 609
12 630
12 678
12 988
12 1227
12 1356
12 1457
12 1587
12 2147
12 2166
12 2276
12 2360
12 2555
12 2657
12 2767
12 2788
12 2809
12 2912
12 3012
12 3102
12 3378
12 3569
12 3620
12 3720
13 90
13 186
13 231
13 232
13 279
13 380
13 476
13 479
13 497
13 563
13 626
13 633
13 638
13 669
13 712
13 882
13 944
13 1200
13 1285
13 1365
13 1469
13 1641
13 1692
13 1748
13 1939
13 1952
13 1973
13 1986
13 2148
13 2174
13 2201
13 2287
13 2352
13 2390
13 2447
13 2460
13 2476
13 2517
13 2540
13 2559
13 2648
13 2749
13 2802
13 2877
13 3004
13 3091
13 3127
13 3265
13 3396
13 3404
13 3435
13 3654
13 3718
14 30
14 36
14 38
14 42
14 43
14 72
14 76
14 106
14 111
14 152
14 174
14 189
14 277
14 317
14 328
14 366
14 416
14 437
14 478
14 506
14 515
14 553
14 561
14 579
14 626
14 628
14 631
14 718
14 752
14 781
14 784
14 807
14 856
14 859
14 880
14 891
14 892
14 897
14 1022
14 1057
14 1082
14 1087
14 1101
14 1174
14 1178
14 1185
14 1228
14 1263
14 1288
14 1350
14 1368
14 1372
14 1427
14 1456
14 1485
14 1489
14 1491
14 1509
14 1518
14 1526
14 1565
14 1613
14 1622
14 1631
14 1681
14 1699
14 1703
14 1724
14 1725
14 1744
14 1745
14 1757
14 1761
14 1824
14 1825
14 1845
14 1853
14 1863
14 1871
14 1879
14 1948
14 1962
14 1978
14 1979
14 1981
14 2009
14 2170
14 2186
14 2219
14 2229
14 2250
14 2271
14 2287
14 2319
14 2321
14 2357
14 2369
14 2400
14 2404
14 2463
14 2493
14 2582
14 2634
14 2703
14 2741
14 2751
14 2752
14 2781
14 2809
14 2827
14 2861
14 2877
14 2933
14 2994
14 3000
14 3009
14 3012
14 3029
14 3030
14 3059
14 3075
14 3098
14 3108
14 3110
14 3111
14 3115
14 3194
14 3212
14 3224
14 3297
14 3324
14 3325
14 3337
14 3343
14 3349
14 3359
14 3375
14 3377
14 3389
14 3412
14 3431
14 3482
14 3491
14 3510
14 3518
14 3534
14 3536
14 3562
14 3573
14 3575
14 3618
14 3621
14 3640
14 3674
14 3683
14 3687
14 3691
14 3695
14 3696
14 3704
14 3746
15 55
15 72
15 166
15 206
15 232
15 234
15 277
15 326
15 415
15 429
15 437
15 440
15 512
15 534
15 553
15 561
15 567
15 598
15 621
15 626
15 633
15 635
15 636
15 641
15 666
15 693
15 695
15 699
15 746
15 752
15 764
15 779
15 784
15 785
15 802
15 813
15 832
15 892
15 902
15 906
15 933
15 965
15 983
15 994
15 1041
15 1049
15 1053
15 1062
15 1131
15 1181
15 1214
15 1228
15 1235
15 1244
15 1299
15 1312
15 1323
15 1363
15 1385
15 1408
15 1455
15 1567
15 1575
15 1580
15 1593
15 1681
15 1699
15 1701
15 1719
15 1725
15 1732
15 1780
15 1807
15 1832
15 1849
15 1908
15 1915
15 1932
15 1974
15 2004
15 2009
15 2040
15 2121
15 2174
15 2201
15 2219
15 2238
15 2250
15 2251
15 2284
15 2316
15 2387
15 2406
15 2408
15 2438
15 2480
15 2503
15 2515
15 2516
15 2520
15 2543
15 2544
15 2556
15 2589
15 2617
15 2667
15 2771
15 2777
15 2791
15 2809
15 2815
15 2818
15 2885
15 2897
15 2899
15 2944
15 2973
15 3022
15 3037
15 3075
15 3080
15 3087
15 3098
15 3110
15 3111
15 3166
15 3181
15 3234
15 3252
15 3295
15 3300
15 3306
15 3316
15 3345
15 3346
15 3349
15 3382
15 3479
15 3498
15 3514
15 3529
15 3530
15 3536
15 3571
15 3578
15 3629
15 3684
15 3687
15 3725
16 43
16 105
16 209
16 217
16 284
16 336
16 469
16 492
16 529
16 542
16 578
16 598
16 669
16 806
16 1054
16 1099
16 1177
16 1225
16 1236
16 1256
16 1263
16 1350
16 1439
16 1445
16 1509
16 1544
16 1565
16 1613
16 1648
16 1653
16 1702
16 1747
16 1996
16 2108
16 2122
16 2191
16 2294
16 2418
16 2548
16 2611
16 2683
16 2752
16 2764
16 2801
16 2877
16 2994
16 3057
16 3083
16 3241
16 3249
16 3275
16 3384
16 3487
16 3554
16 3569
17 122
17 292
17 360
17 459
17 473
17 506
17 938
17 1030
17 1169
17 1353
17 1455
17 1816
17 1893
17 1996
17 2035
17 2589
17 2612
17 3095
17 3186
17 3445
17 3686
18 176
18 346
18 736
18 1627
18 2731
18 3591
18 3667
19 174
19 256
19 280
19 306
19 510
19 546
19 554
19 564
19 602
19 646
19 1057
19 1087
19 1089
19 1148
19 1450
19 1624
19 1814
19 2012
19 2046
19 2229
19 2429
19 2474
19 2569
19 2578
19 2956
19 3190
19 3257
19 3297
19 3309
19 3473
19 3501
19 3511
19 3575
19 3675
20 72
20 1083
20 1201
20 2013
20 3407
20 3580
21 1099
21 1889
21 2300
21 2562
21 2649
21 2669
21 2903
21 3182
21 3279
22 213
22 281
22 342
22 358
22 482
22 623
22 838
22 897
22 1109
22 1296
22 1369
22 1446
22 2209
22 2288
22 2654
22 2719
22 2760
22 2836
22 2901
22 3008
22 3021
22 3031
22 3093
22 3375
22 3418
22 3431
22 3466
22 3561
22 3597
22 3739
23 37
23 144
23 181
23 255
23 321
23 376
23 441
23 535
23 594
23 622
23 892
23 1197
23 1243
23 1444
23 1593
23 1698
23 1751
23 1805
23 1817
23 1836
23 1996
23 2123
23 2137
23 2165
23 2356
23 2706
23 2723
23 2737
23 2771
23 2772
23 2883
23 2884
23 2917
23 2967
23 3061
23 3084
23 3360
23 3586
23 3668
23 3687
24 3398
24 3500
25 631
25 1002
25 1870
25 2960
25 3059
25 3101
26 170
26 326
26 406
26 578
26 663
26 689
26 791
26 1056
26 1095
26 1219
26 2096
26 2508
26 2827
26 2839
26 2927
26 2948
26 3626
27 90
27 150
27 170
27 226
27 305
27 337
27 463
27 482
27 506
27 575
27 615
27 652
27 772
27 973
27 1223
27 1225
27 1256
27 1439
27 1504
27 1565
27 1648
27 1708
27 1752
27 1815
27 1851
27 2174
27 2226
27 2287
27 2415
27 2439
27 2581
27 2719
27 2907
27 2975
27 3021
27 3311
27 3394
27 3500
27 3660
28 71
28 703
28 936
28 1347
28 1375
28 1985
28 1997
28 2071
28 2405
28 2474
28 2752
29 224
29 282
29 601
29 819
29 1406
29 1508
29 1510
29 2036
29 2047
29 2189
29 2213
29 2429
29 2639
29 3145
29 3603
29 3682
29 3726
30 46
30 76
30 172
30 174
30 193
30 291
30 352
30 381
30 464
30 493
30 549
30 579
30 594
30 604
30 638
30 697
30 730
30 740
30 752
30 781
30 891
30 916
30 1122
30 1366
30 1452
30 1485
30 1513
30 1518
30 1613
30 1646
30 1653
30 1681
30 1705
30 1845
30 1922
30 1964
30 1987
30 2033
30 2035
30 2170
30 2265
30 2295
30 2384
30 2408
30 2546
30 2559
30 2733
30 2906
30 2944
30 2984
30 3009
30 3079
30 3124
30 3145
30 3146
30 3194
30 3243
30 3293
30 3437
30 3547
30 3689
30 3704
31 51
31 67
31 96
31 277
31 284
31 320
31 326
31 348
31 600
31 732
31 965
31 1050
31 1134
31 1141
31 1317
31 1389
31 1516
31 1519
31 1870
31 1882
31 1913
31 1943
31 2006
31 2190
31 2204
31 2320
31 2406
31 2485
31 2640
31 2648
31 2689
31 2877
31 2881
31 2960
31 3006
31 3098
31 3117
31 3204
31 3440
31 3661
31 3669
31 3692
31 3695
31 3715
31 3716
31 3725
32 897
32 965
32 1267
32 1519
32 1785
32 2159
32 2179
32 2676
32 2693
32 3166
32 3516
32 3668
32 3686
33 42
33 51
33 144
33 145
33 227
33 472
33 488
33 512
33 513
33 550
33 594
33 752
33 767
33 782
33 898
33 988
33 1022
33 1189
33 1225
33 1278
33 1286
33 1372
33 1456
33 1521
33 1606
33 1624
33 1635
33 1725
33 1812
33 1858
33 1894
33 2000
33 2025
33 2183
33 2201
33 2219
33 2262
33 2276
33 2319
33 2337
33 2408
33 2430
33 2481
33 2575
33 2721
33 2732
33 2912
33 2941
33 2990
33 3077
33 3101
33 3257
33 3270
33 3343
33 3347
33 3504
33 3562
33 3681
33 3685
33 3713
34 51
34 104
34 143
34 245
34 248
34 270
34 277
34 281
34 319
34 342
34 347
34 349
34 480
34 503
34 511
34 658
34 678
34 685
34 732
34 821
34 954
34 967
34 1012
34 1030
34 1116
34 1141
34 1193
34 1210
34 1218
34 1288
34 1310
34 1321
34 1334
34 1336
34 1369
34 1440
34 1470
34 1497
34 1507
34 1526
34 1550
34 1728
34 1754
34 1772
34 1785
34 1788
34 1825
34 1849
34 1870
34 1941
34 1960
34 1961
34 2158
34 2209
34 2299
34 2308
34 2368
34 2478
34 2492
34 2507
34 2555
34 2582
34 2595
34 2615
34 2730
34 2767
34 2774
34 2791
34 2811
34 2871
34 2911
34 3015
34 3070
34 3096
34 3098
34 3106
34 3171
34 3183
34 3349
34 3370
34 3405
34 3440
34 3458
34 3466
34 3534
34 3540
34 3661
34 3688
34 3689
34 3692
34 3695
34 3731
35 50
35 51
35 62
35 133
35 186
35 256
35 258
35 277
35 340
35 342
35 378
35 428
35 514
35 685
35 718
35 725
35 757
35 899
35 916
35 1020
35 1024
35 1030
35 1133
35 1234
35 1272
35 1427
35 1501
35 1514
35 1533
35 1571
35 1597
35 1644
35 1724
35 1759
35 1768
35 1799
35 1979
35 1981
35 2057
35 2059
35 2060
35 2115
35 2119
35 2125
35 2138
35 2213
35 2234
35 2291
35 2401
35 2438
35 2469
35 2492
35 2508
35 2564
35 2787
35 2808
35 2811
35 2827
35 2960
35 3010
35 3015
35 3021
35 3075
35 3117
35 3149
35 3158
35 3184
35 3226
35 3284
35 3337
35 3466
35 3640
35 3642
35 3661
35 3695
35 3718
35 3726
35 3743
36 46
36 72
36 111
36 189
36 279
36 328
36 419
36 563
36 587
36 598
36 697
36 720
36 732
36 752
36 784
36 821
36 836
36 907
36 1000
36 1021
36 1028
36 1049
36 1082
36 1101
36 1282
36 1368
36 1410
36 1427
36 1440
36 1737
36 1757
36 1764
36 1816
36 1825
36 1841
36 1962
36 2092
36 2170
36 2356
36 2656
36 2706
36 2771
36 2773
36 2781
36 2822
36 2823
36 2827
36 2888
36 2890
36 2956
36 2979
36 3012
36 3148
36 3150
36 3194
36 3278
36 3297
36 3359
36 3377
36 3413
36 3422
36 3456
36 3548
36 3563
36 3575
36 3616
36 3618
36 3686
37 110
37 177
37 255
37 294
37 519
37 892
37 1135
37 1444
37 2137
37 2253
37 2279
37 2356
37 2706
37 2772
37 2917
37 3324
38 67
38 93
38 145
38 174
38 211
38 234
38 270
38 272
38 314
38 322
38 341
38 342
38 361
38 490
38 535
38 569
38 594
38 620
38 676
38 699
38 732
38 764
38 813
38 819
38 824
38 833
38 848
38 849
38 916
38 1018
38 1022
38 1023
38 1034
38 1037
38 1085
38 1096
38 1151
38 1186
38 1228
38 1337
38 1397
38 1427
38 1458
38 1475
38 1537
38 1597
38 1599
38 1644
38 1680
38 1687
38 1705
38 1805
38 1825
38 1882
38 1912
38 1962
38 2001
38 2034
38 2044
38 2059
38 2080
38 2161
38 2170
38 2232
38 2250
38 2251
38 2270
38 2337
38 2344
38 2390
38 2471
38 2515
38 2521
38 2623
38 2660
38 2690
38 2723
38 2755
38 2763
38 2771
38 2793
38 2821
38 2851
38 2896
38 2908
38 2963
38 2971
38 3000
38 3012
38 3021
38 3138
38 3147
38 3183
38 3194
38 3274
38 3296
38 3359
38 3382
38 3386
38 3426
38 3430
38 3455
38 3575
38 3586
38 3603
38 3618
38 3640
38 3655
38 3664
38 3695
38 3696
38 3714
39 126
39 367
39 640
39 924
39 956
39 1133
39 1295
39 1306
39 1577
39 1682
39 1939
39 2015
39 2071
39 2201
39 2790
39 2812
39 3265
40 131
40 239
40 1296
40 1688
40 1791
40 1816
40 2357
40 2565
40 2648
40 3004
40 3235
41 95
41 557
41 916
41 1121
41 2068
41 2105
41 2469
41 2601
41 2659
41 2703
41 2710
41 2755
41 2804
41 2842
41 3103
41 3138
41 3557
42 72
42 96
42 124
42 174
42 306
42 326
42 347
42 467
42 508
42 540
42 579
42 599
42 740
42 814
42 856
42 909
42 1132
42 1186
42 1227
42 1322
42 1374
42 1376
42 1460
42 1487
42 1489
42 1592
42 1630
42 1646
42 1652
42 1664
42 1725
42 1768
42 1787
42 1799
42 1848
42 1887
42 2014
42 2049
42 2071
42 2102
42 2133
42 2170
42 2201
42 2219
42 2229
42 2235
42 2250
42 2270
42 2276
42 2319
42 2337
42 2368
42 2412
42 2436
42 2462
42 2485
42 2555
42 2578
42 2615
42 2625
42 2655
42 2703
42 2741
42 2763
42 2808
42 2813
42 2865
42 2871
42 2891
42 2899
42 3007
42 3059
42 3071
42 3075
42 3102
42 3179
42 3264
42 3359
42 3396
42 3426
42 3575
42 3706
42 3721
43 151
43 209
43 226
43 236
43 249
43 272
43 299
43 338
43 529
43 537
43 575
43 615
43 912
43 1130
43 1177
43 1403
43 1439
43 1469
43 1544
43 1591
43 1705
43 1806
43 1890
43 1925
43 2015
43 2334
43 2568
43 2570
43 2656
43 2693
43 2749
43 2752
43 2817
43 3035
43 3296
43 3382
43 3384
43 3448
43 3456
43 3511
43 3534
43 3660
44 72
44 96
44 160
44 289
44 327
44 343
44 429
44 472
44 503
44 561
44 636
44 696
44 725
44 754
44 762
44 768
44 784
44 892
44 917
44 934
44 965
44 1065
44 1094
44 1142
44 1228
44 1284
44 1298
44 1325
44 1368
44 1375
44 1459
44 1497
44 1573
44 1588
44 1593
44 1641
44 1644
44 1780
44 1790
44 1870
44 1872
44 1913
44 1941
44 1986
44 2115
44 2313
44 2381
44 2400
44 2421
44 2493
44 2520
44 2567
44 2781
44 2791
44 2818
44 3022
44 3087
44 3111
44 3128
44 3148
44 3171
44 3260
44 3312
44 3329
44 3334
44 3408
44 3504
44 3514
44 3518
44 3573
44 3720
45 73
45 299
45 718
45 767
45 1290
45 1299
45 1613
45 1758
45 1908
45 2033
45 2102
45 2134
45 2264
45 2295
45 2372
45 2408
45 2438
45 2442
45 2733
45 2869
45 2906
45 2908
45 2988
45 3170
45 3310
45 3496
45 3547
45 3551
45 3666
46 172
46 174
46 277
46 305
46 322
46 329
46 366
46 381
46 412
46 464
46 549
46 561
46 595
46 604
46 620
46 638
46 697
46 718
46 1049
46 1050
46 1186
46 1195
46 1366
46 1410
46 1534
46 1601
46 1613
46 1646
46 1705
46 1814
46 1859
46 1911
46 1962
46 1981
46 2059
46 2136
46 2170
46 2206
46 2219
46 2249
46 2257
46 2265
46 2333
46 2337
46 2397
46 2445
46 2559
46 2563
46 2564
46 2578
46 2664
46 2703
46 2705
46 2733
46 2751
46 2906
46 2907
46 2908
46 2915
46 2944
46 2989
46 3004
46 3012
46 3021
46 3054
46 3075
46 3101
46 3124
46 3145
46 3155
46 3194
46 3243
46 3337
46 3359
46 3426
46 3562
46 3575
46 3618
46 3639
46 3656
46 3714
46 3721
46 3745
47 65
47 258
47 314
47 332
47 358
47 389
47 512
47 605
47 613
47 698
47 815
47 1016
47 1109
47 1155
47 1349
47 1464
47 1630
47 1761
47 1770
47 1837
47 1994
47 2015
47 2092
47 2136
47 2219
47 2223
47 2236
47 2282
47 2291
47 2316
47 2413
47 2430
47 2544
47 2565
47 2596
47 2604
47 2620
47 2631
47 2668
47 2805
47 2837
47 2849
47 2856
47 2901
47 2956
47 2973
47 3093
47 3137
47 3169
47 3186
47 3235
47 3242
47 3253
47 3466
47 3476
47 3548
47 3553
47 3617
47 3687
48 50
48 594
48 716
48 767
48 803
48 816
48 899
48 916
48 935
48 1022
48 1043
48 1153
48 1245
48 1340
48 1419
48 1501
48 1543
48 1548
48 1710
48 1714
48 1733
48 1777
48 1827
48 1908
48 1971
48 2042
48 2091
48 2357
48 2388
48 2416
48 2424
48 2469
48 2479
48 2507
48 2517
48 2528
48 2590
48 2594
48 2665
48 2699
48 2770
48 2792
48 2888
48 2940
48 2956
48 3094
48 3124
48 3184
48 3213
48 3264
48 3284
48 3322
48 3339
48 3356
48 3435
48 3482
48 3484
48 3517
48 3572
48 3578
48 3642
48 3650
49 508
49 1162
49 1175
49 1704
49 2032
49 2540
49 2689
49 2780
49 3067
49 3659
50 76
50 136
50 157
50 186
50 256
50 270
50 276
50 316
50 361
50 501
50 513
50 543
50 557
50 569
50 603
50 614
50 620
50 631
50 633
50 638
50 669
50 752
50 764
50 824
50 844
50 856
50 960
50 1001
50 1030
50 1071
50 1075
50 1096
50 1119
50 1129
50 1206
50 1234
50 1268
50 1304
50 1337
50 1360
50 1365
50 1372
50 1414
50 1518
50 1522
50 1531
50 1543
50 1549
50 1599
50 1681
50 1705
50 1725
50 1731
50 1773
50 1801
50 1814
50 1863
50 1976
50 1987
50 2014
50 2046
50 2060
50 2064
50 2075
50 2113
50 2129
50 2131
50 2158
50 2283
50 2289
50 2329
50 2369
50 2390
50 2416
50 2474
50 2522
50 2534
50 2578
50 2607
50 2690
50 2727
50 2751
50 2770
50 2821
50 2838
50 2846
50 2856
50 2994
50 2999
50 3021
50 3105
50 3138
50 3149
50 3153
50 3183
50 3193
50 3212
50 3224
50 3238
50 3257
50 3260
50 3304
50 3311
50 3315
50 3332
50 3426
50 3430
50 3461
50 3575
50 3608
50 3681
50 3718
51 67
51 106
51 144
51 243
51 277
51 347
51 348
51 454
51 472
51 512
51 513
51 594
51 600
51 642
51 664
51 732
51 767
51 776
51 782
51 808
51 821
51 845
51 912
51 944
51 988
51 1014
51 1050
51 1085
51 1133
51 1134
51 1141
51 1218
51 1273
51 1285
51 1321
51 1369
51 1402
51 1472
51 1487
51 1495
51 1501
51 1521
51 1664
51 1670
51 1723
51 1725
51 1744
51 1777
51 1822
51 1870
51 1885
51 1941
51 2024
51 2025
51 2129
51 2170
51 2222
51 2226
51 2276
51 2320
51 2337
51 2378
51 2391
51 2424
51 2455
51 2460
51 2463
51 2478
51 2485
51 2497
51 2512
51 2547
51 2557
51 2575
51 2680
51 2703
51 2721
51 2734
51 2808
51 2944
51 2960
51 2974
51 2980
51 3009
51 3021
51 3025
51 3098
51 3101
51 3106
51 3196
51 3249
51 3343
51 3359
51 3440
51 3504
51 3510
51 3624
51 3661
51 3669
51 3680
51 3685
51 3695
51 3724
52 77
52 421
52 467
52 650
52 879
52 978
52 1268
52 1360
52 1528
52 1585
52 1599
52 1814
52 1863
52 2050
52 2128
52 2235
52 2325
52 2330
52 2359
52 2557
52 2617
52 2708
52 2858
52 2964
52 3115
52 3193
52 3297
52 3449
52 3473
52 3585
53 174
53 208
53 259
53 466
53 614
53 630
53 638
53 646
53 732
53 739
53 790
53 809
53 856
53 903
53 1327
53 1479
53 1493
53 1651
53 1773
53 1797
53 1862
53 2166
53 2504
53 2681
53 2720
53 2743
53 2808
53 2896
53 2946
53 2977
53 3132
53 3303
53 3528
53 3703
54 1269
54 1591
54 1796
54 2516
54 3500
54 3704
55 100
55 135
55 206
55 212
55 331
55 415
55 466
55 534
55 676
55 695
55 764
55 833
55 925
55 1041
55 1053
55 1151
55 1171
55 1223
55 1235
55 1244
55 1312
55 1323
55 1455
55 1580
55 1640
55 1642
55 1687
55 1706
55 1732
55 1734
55 1832
55 1845
55 1874
55 1992
55 2121
55 2126
55 2161
55 2364
55 2504
55 2516
55 2544
55 2556
55 2807
55 2815
55 3022
55 3037
55 3237
55 3252
55 3306
55 3346
55 3382
55 3456
55 3512
55 3575
55 3587
55 3628
55 3664
55 3711
56 3552
57 2083
57 2992
57 3176
57 3481
58 123
58 165
58 262
58 269
58 291
58 350
58 494
58 570
58 641
58 657
58 681
58 842
58 1021
58 1048
58 1183
58 1207
58 1266
58 1292
58 1389
58 1454
58 1686
58 1837
58 1853
58 1882
58 1941
58 1986
58 2015
58 2116
58 2219
58 2236
58 2503
58 2627
58 2679
58 2763
58 2919
58 2973
58 2978
58 3107
58 3115
58 3117
58 3234
58 3390
58 3516
58 3704
59 193
59 218
59 520
59 542
59 622
59 740
59 766
59 800
59 857
59 897
59 915
59 1103
59 1151
59 1295
59 1492
59 1494
59 1594
59 1706
59 2122
59 2223
59 2531
59 2687
59 2810
59 2964
59 3027
59 3302
59 3372
59 3474
60 790
60 867
60 1273
60 1574
60 1600
60 1718
60 2150
60 2391
60 2392
60 2514
60 2681
60 3144
60 3335
61 166
61 316
61 570
61 580
61 631
61 781
61 808
61 876
61 1140
61 1596
61 1695
61 1780
61 2647
61 2802
61 2832
61 2923
61 3010
61 3404
61 3426
61 3456
61 3601
61 3649
61 3677
61 3686
61 3692
62 136
62 186
62 270
62 319
62 392
62 533
62 589
62 593
62 594
62 656
62 675
62 844
62 916
62 988
62 1072
62 1097
62 1198
62 1306
62 1458
62 1475
62 1490
62 1497
62 1597
62 1688
62 1697
62 1843
62 1912
62 1956
62 2042
62 2060
62 2094
62 2176
62 2309
62 2369
62 2390
62 2423
62 2469
62 2556
62 2601
62 2636
62 2808
62 2895
62 2986
62 3010
62 3021
62 3129
62 3152
62 3199
62 3230
62 3274
62 3450
62 3465
62 3638
62 3640
62 3744
63 105
63 236
63 250
63 311
63 393
63 413
63 465
63 564
63 565
63 662
63 736
63 928
63 947
63 950
63 952
63 1077
63 1079
63 1227
63 1236
63 1252
63 1294
63 1398
63 1413
63 1820
63 2081
63 2114
63 2135
63 2341
63 2431
63 2440
63 2452
63 2634
63 2685
63 2687
63 2724
63 2825
63 2834
63 2841
63 2853
63 3008
63 3021
63 3031
63 3081
63 3135
63 3174
63 3222
63 3271
63 3421
63 3464
63 3495
64 162
64 251
64 332
64 413
64 492
64 942
64 950
64 1160
64 1236
64 1302
64 1443
64 1504
64 1609
64 1865
64 2024
64 2078
64 2236
64 2430
64 2436
64 2452
64 2453
64 2786
64 3234
64 3283
64 3374
64 3516
64 3567
65 132
65 214
65 278
65 396
65 422
65 469
65 495
65 510
65 512
65 556
65 698
65 749
65 753
65 781
65 815
65 825
65 839
65 1004
65 1016
65 1024
65 1053
65 1130
65 1156
65 1166
65 1241
65 1286
65 1296
65 1345
65 1364
65 1469
65 1522
65 1613
65 1618
65 1734
65 1761
65 1837
65 1845
65 1994
65 1996
65 2048
65 2095
65 2120
65 2133
65 2299
65 2307
65 2418
65 2419
65 2430
65 2578
65 2596
65 2604
65 2668
65 2687
65 2700
65 2709
65 2792
65 2805
65 2857
65 2878
65 2907
65 2973
65 3000
65 3028
65 3044
65 3186
65 3224
65 3242
65 3365
65 3428
65 3437
65 3466
65 3488
65 3496
65 3536
65 3558
65 3575
65 3598
65 3652
65 3664
65 3687
65 3736
66 2704
66 2978
66 3107
67 166
67 206
67 239
67 243
67 258
67 277
67 348
67 350
67 370
67 446
67 490
67 501
67 527
67 561
67 600
67 664
67 678
67 709
67 721
67 732
67 784
67 802
67 837
67 896
67 912
67 922
67 958
67 965
67 1001
67 1009
67 1125
67 1134
67 1141
67 1179
67 1191
67 1218
67 1225
67 1270
67 1273
67 1335
67 1347
67 1389
67 1408
67 1477
67 1494
67 1501
67 1519
67 1593
67 1664
67 1870
67 1901
67 1908
67 1972
67 1994
67 2024
67 2104
67 2129
67 2146
67 2147
67 2150
67 2179
67 2250
67 2251
67 2319
67 2320
67 2378
67 2480
67 2485
67 2515
67 2565
67 2569
67 2571
67 2613
67 2675
67 2680
67 2682
67 2695
67 2703
67 2734
67 2741
67 2767
67 2845
67 2899
67 2908
67 2951
67 2960
67 3030
67 3066
67 3093
67 3098
67 3119
67 3167
67 3212
67 3225
67 3316
67 3359
67 3388
67 3408
67 3440
67 3497
67 3510
67 3562
67 3573
67 3661
67 3664
67 3668
67 3669
67 3695
67 3726
68 358
68 367
68 510
68 651
68 809
68 996
68 1295
68 1581
68 1859
68 1865
68 1875
68 1895
68 1968
68 2015
68 2136
68 2151
68 2201
68 2244
68 2281
68 2282
68 2346
68 2529
68 2596
68 2642
68 2653
68 2654
68 2700
68 3016
68 3288
68 3317
68 3691
68 3739
69 955
69 2633
70 702
70 1130
71 327
71 433
71 489
71 703
71 840
71 1180
71 1198
71 1206
71 1298
71 1355
71 1417
71 1863
71 2055
71 2147
71 2343
71 2545
71 2648
71 2708
71 2794
71 2959
71 3143
71 3301
71 3396
71 3433
71 3585
71 3594
71 3666
71 3713
71 3714
72 151
72 174
72 189
72 205
72 224
72 226
72 241
72 312
72 328
72 370
72 383
72 437
72 440
72 443
72 465
72 525
72 567
72 598
72 635
72 636
72 666
72 684
72 709
72 729
72 746
72 779
72 784
72 834
72 874
72 892
72 906
72 933
72 934
72 940
72 942
72 1025
72 1053
72 1061
72 1082
72 1101
72 1134
72 1185
72 1203
72 1228
72 1236
72 1289
72 1325
72 1329
72 1343
72 1368
72 1373
72 1410
72 1427
72 1459
72 1469
72 1524
72 1593
72 1681
72 1683
72 1699
72 1701
72 1737
72 1748
72 1757
72 1764
72 1773
72 1780
72 1825
72 1828
72 1881
72 1908
72 1948
72 1962
72 2009
72 2013
72 2036
72 2045
72 2069
72 2170
72 2174
72 2177
72 2195
72 2219
72 2250
72 2256
72 2293
72 2310
72 2337
72 2354
72 2371
72 2381
72 2382
72 2387
72 2408
72 2516
72 2520
72 2522
72 2543
72 2567
72 2581
72 2613
72 2634
72 2640
72 2658
72 2684
72 2693
72 2706
72 2771
72 2781
72 2809
72 2818
72 2822
72 2827
72 2850
72 2980
72 3010
72 3012
72 3037
72 3050
72 3059
72 3060
72 3087
72 3088
72 3110
72 3111
72 3112
72 3130
72 3141
72 3146
72 3147
72 3166
72 3181
72 3194
72 3234
72 3247
72 3265
72 3297
72 3305
72 3317
72 3345
72 3358
72 3359
72 3376
72 3377
72 3382
72 3391
72 3407
72 3409
72 3479
72 3514
72 3528
72 3536
72 3565
72 3573
72 3641
72 3662
72 3670
72 3713
72 3746
73 96
73 174
73 193
73 270
73 295
73 480
73 489
73 513
73 600
73 604
73 631
73 704
73 718
73 727
73 814
73 838
73 939
73 967
73 1023
73 1037
73 1075
73 1141
73 1149
73 1174
73 1290
73 1365
73 1366
73 1465
73 1597
73 1613
73 1667
73 1673
73 1729
73 1758
73 1809
73 1848
73 1864
73 1902
73 1918
73 1959
73 2001
73 2033
73 2102
73 2134
73 2138
73 2168
73 2188
73 2240
73 2264
73 2265
73 2287
73 2291
73 2295
73 2412
73 2438
73 2455
73 2510
73 2512
73 2515
73 2528
73 2617
73 2620
73 2649
73 2721
73 2733
73 2791
73 2871
73 2882
73 2906
73 2908
73 2973
73 2988
73 3021
73 3097
73 3153
73 3220
73 3245
73 3301
73 3312
73 3522
73 3547
73 3599
73 3624
73 3666
73 3689
74 157
74 175
74 504
74 517
74 676
74 723
74 767
74 850
74 1017
74 1206
74 1240
74 1281
74 1356
74 1381
74 1405
74 1444
74 1674
74 1929
74 2138
74 2308
74 2372
74 2716
74 2967
74 3230
75 157
75 174
75 501
75 546
75 579
75 636
75 650
75 968
75 1020
75 1027
75 1096
75 1164
75 1250
75 1489
75 1501
75 1521
75 1624
75 1652
75 1668
75 1814
75 1863
75 1867
75 1876
75 1927
75 2004
75 2012
75 2016
75 2229
75 2254
75 2299
75 2330
75 2395
75 2483
75 2564
75 2578
75 2588
75 2705
75 2751
75 2766
75 2848
75 2997
75 3071
75 3075
75 3098
75 3181
75 3288
75 3297
75 3304
75 3466
75 3511
75 3544
75 3575
75 3674
76 111
76 126
76 172
76 182
76 189
76 279
76 316
76 333
76 357
76 369
76 419
76 451
76 506
76 563
76 598
76 639
76 697
76 732
76 751
76 752
76 781
76 821
76 836
76 892
76 907
76 931
76 935
76 1021
76 1028
76 1053
76 1082
76 1182
76 1282
76 1290
76 1294
76 1304
76 1357
76 1361
76 1440
76 1485
76 1492
76 1547
76 1593
76 1613
76 1681
76 1696
76 1744
76 1782
76 1816
76 1841
76 1845
76 2002
76 2009
76 2065
76 2067
76 2077
76 2092
76 2110
76 2169
76 2242
76 2282
76 2288
76 2338
76 2399
76 2400
76 2408
76 2455
76 2536
76 2580
76 2591
76 2658
76 2661
76 2752
76 2771
76 2781
76 2809
76 2822
76 2823
76 2834
76 2885
76 2888
76 2890
76 2954
76 2956
76 2979
76 3012
76 3110
76 3112
76 3150
76 3234
76 3278
76 3295
76 3376
76 3456
76 3548
76 3575
76 3739
76 3746
77 161
77 301
77 324
77 326
77 503
77 628
77 749
77 759
77 888
77 939
77 987
77 1091
77 1107
77 1156
77 1178
77 1267
77 1306
77 1381
77 1724
77 1748
77 1903
77 2557
77 2665
77 2681
77 2831
77 2878
77 3059
77 3404
77 3489
77 3585
77 3598
77 3681
78 112
78 128
78 158
78 203
78 226
78 374
78 702
78 733
78 753
78 862
78 916
78 930
78 943
78 970
78 1054
78 1078
78 1104
78 1204
78 1247
78 1330
78 1597
78 1688
78 1708
78 1951
78 1956
78 1969
78 1998
78 2114
78 2154
78 2440
78 2489
78 2511
78 2660
78 2731
78 2756
78 2859
78 2986
78 3021
78 3081
78 3248
78 3561
78 3571
78 3597
78 3640
79 625
79 627
79 1195
79 1720
79 1944
79 1950
79 2264
79 3477
79 3648
80 3019
81 155
81 456
81 663
81 895
81 1057
81 1095
81 1220
81 1660
81 1673
81 1772
81 1856
81 1928
81 1969
81 2049
81 2386
81 2688
81 2732
81 2827
81 2838
81 2972
81 3007
81 3098
81 3176
81 3231
81 3626
81 3692
82 162
82 213
82 239
82 294
82 692
82 715
82 766
82 837
82 1024
82 1345
82 1464
82 1505
82 1626
82 2048
82 2120
82 2151
82 2205
82 2253
82 2307
82 2604
82 2668
82 2700
82 2829
82 3016
82 3428
82 3507
82 3652
83 541
83 689
83 791
83 1095
83 1401
83 1716
83 2420
83 2445
83 2770
83 2960
83 3059
83 3191
83 3594
84 384
84 662
84 1628
85 173
85 266
85 276
85 371
85 379
85 403
85 422
85 602
85 629
85 908
85 1164
85 1198
85 1459
85 1520
85 1564
85 1695
85 1912
85 1946
85 2020
85 2469
85 2475
85 2608
85 2751
85 2891
85 2903
85 2935
85 2959
85 2970
85 3020
85 3219
85 3330
86 103
86 389
86 500
86 1020
86 1029
86 1316
86 1761
86 1920
86 1944
86 2023
86 2059
86 2098
86 2119
86 2131
86 2132
86 2177
86 2881
86 2948
86 2999
86 3698
87 203
87 252
87 370
87 440
87 489
87 535
87 567
87 568
87 636
87 784
87 1298
87 1343
87 1431
87 1578
87 1664
87 1800
87 1908
87 1923
87 2009
87 2013
87 2188
87 2407
87 2520
87 2522
87 2684
87 2956
87 3050
87 3083
87 3111
87 3130
87 3141
87 3345
87 3368
87 3453
87 3514
87 3586
88 115
88 357
88 413
88 465
88 950
88 1063
88 1203
88 1236
88 1361
88 1441
88 1683
88 1873
88 1919
88 2065
88 2212
88 2411
88 2735
88 2825
89 106
89 123
89 133
89 171
89 189
89 198
89 235
89 238
89 253
89 286
89 303
89 304
89 319
89 324
89 342
89 371
89 382
89 386
89 420
89 423
89 514
89 517
89 531
89 561
89 572
89 586
89 638
89 649
89 660
89 670
89 704
89 748
89 774
89 788
89 838
89 849
89 903
89 917
89 922
89 929
89 934
89 944
89 967
89 968
89 1030
89 1050
89 1052
89 1073
89 1119
89 1158
89 1164
89 1174
89 1186
89 1195
89 1197
89 1228
89 1250
89 1288
89 1303
89 1325
89 1326
89 1334
89 1337
89 1338
89 1360
89 1366
89 1371
89 1391
89 1400
89 1416
89 1427
89 1459
89 1487
89 1489
89 1501
89 1507
89 1510
89 1521
89 1522
89 1552
89 1573
89 1578
89 1583
89 1618
89 1625
89 1656
89 1668
89 1721
89 1728
89 1734
89 1756
89 1780
89 1844
89 1848
89 1854
89 1863
89 1867
89 1876
89 1901
89 1921
89 1959
89 1972
89 1978
89 2001
89 2003
89 2004
89 2012
89 2014
89 2016
89 2024
89 2125
89 2144
89 2177
89 2219
89 2222
89 2240
89 2254
89 2265
89 2292
89 2323
89 2337
89 2401
89 2445
89 2456
89 2508
89 2512
89 2513
89 2559
89 2564
89 2578
89 2588
89 2593
89 2602
89 2629
89 2645
89 2648
89 2703
89 2705
89 2721
89 2728
89 2751
89 2766
89 2791
89 2843
89 2848
89 2850
89 2877
89 2889
89 2933
89 2944
89 2967
89 3047
89 3071
89 3086
89 3087
89 3101
89 3110
89 3111
89 3124
89 3125
89 3145
89 3185
89 3194
89 3220
89 3243
89 3259
89 3292
89 3301
89 3309
89 3312
89 3339
89 3395
89 3410
89 3426
89 3433
89 3444
89 3514
89 3521
89 3534
89 3544
89 3573
89 3585
89 3618
89 3619
89 3634
89 3653
89 3674
89 3675
89 3676
89 3682
89 3689
89 3690
89 3695
89 3721
90 132
90 174
90 191
90 216
90 225
90 280
90 284
90 292
90 497
90 598
90 601
90 638
90 839
90 944
90 1010
90 1031
90 1043
90 1137
90 1151
90 1169
90 1403
90 1436
90 1543
90 1632
90 1648
90 1692
90 1808
90 1952
90 2174
90 2201
90 2210
90 2214
90 2287
90 2364
90 2447
90 2461
90 2474
90 2482
90 2544
90 2568
90 2573
90 2648
90 2683
90 2722
90 2956
90 2975
90 3091
90 3137
90 3151
90 3265
90 3273
90 3379
90 3404
90 3435
90 3461
90 3569
90 3575
90 3603
90 3628
90 3664
90 3702
90 3718
91 3039
91 3560
92 291
92 337
92 380
92 439
92 470
92 493
92 762
92 901
92 924
92 936
92 1114
92 1220
92 1274
92 1823
92 2474
92 2498
92 2622
92 2948
92 3514
92 3522
92 3705
92 3736
93 385
93 437
93 700
93 784
93 960
93 987
93 1409
93 1470
93 1593
93 1680
93 1777
93 1897
93 1948
93 1957
93 2034
93 2045
93 2187
93 2567
93 2613
93 2678
93 2988
93 3111
93 3514
93 3573
93 3605
93 3641
93 3722
94 380
94 470
94 610
94 762
94 1208
94 1697
94 2389
94 2609
94 2710
94 2752
94 3108
94 3184
94 3514
94 3524
94 3613
95 199
95 361
95 1043
95 1531
95 2001
95 2064
95 2079
95 2659
95 2710
95 2842
95 3138
95 3161
95 3557
96 133
96 271
96 285
96 342
96 478
96 489
96 503
96 545
96 546
96 561
96 627
96 685
96 691
96 704
96 725
96 727
96 761
96 838
96 861
96 864
96 876
96 899
96 917
96 1002
96 1050
96 1121
96 1122
96 1130
96 1158
96 1228
96 1239
96 1360
96 1465
96 1530
96 1533
96 1588
96 1589
96 1720
96 1821
96 1822
96 1959
96 1971
96 2008
96 2102
96 2125
96 2134
96 2219
96 2235
96 2295
96 2321
96 2406
96 2438
96 2492
96 2497
96 2586
96 2638
96 2640
96 2664
96 2787
96 2791
96 2856
96 2879
96 2906
96 2947
96 3021
96 3029
96 3040
96 3047
96 3070
96 3075
96 3092
96 3097
96 3116
96 3139
96 3147
96 3164
96 3180
96 3184
96 3227
96 3245
96 3272
96 3366
96 3386
96 3466
96 3477
96 3534
96 3547
96 3635
96 3666
96 3689
96 3716
96 3717
97 447
97 3239
97 3341
97 3546
98 101
98 411
98 611
98 858
98 1386
98 1554
98 1617
98 1699
98 1756
98 1780
98 2075
98 2448
98 2506
98 2880
98 3288
98 3436
99 1578
99 2410
99 3503
100 3711
101 512
101 611
101 858
101 1386
101 1402
101 1554
101 1699
101 1756
101 1775
101 1806
101 1908
101 2075
101 2504
101 2596
101 2655
101 2880
101 3110
101 3288
102 1621
103 438
103 791
103 901
103 1020
103 1029
103 1316
103 1761
103 1920
103 2119
103 2131
103 2948
103 2999
104 433
104 533
104 589
104 879
104 967
104 1010
104 1094
104 1198
104 1377
104 1490
104 1497
104 1725
104 1954
104 2053
104 2094
104 2308
104 2336
104 2455
104 2962
104 3143
104 3230
104 3486
104 3629
104 3630
104 3716
105 162
105 332
105 413
105 492
105 542
105 662
105 705
105 710
105 756
105 947
105 950
105 952
105 993
105 1000
105 1077
105 1291
105 1297
105 1319
105 1608
105 1638
105 2042
105 2076
105 2078
105 2081
105 2114
105 2122
105 2135
105 2191
105 2434
105 2437
105 2440
105 2529
105 2789
105 2825
105 3081
105 3088
105 3271
105 3280
105 3374
105 3487
105 3554
105 3697
106 150
106 189
106 248
106 249
106 277
106 303
106 317
106 371
106 420
106 423
106 449
106 454
106 489
106 515
106 517
106 546
106 561
106 579
106 594
106 627
106 633
106 658
106 718
106 765
106 798
106 891
106 892
106 921
106 967
106 968
106 1025
106 1057
106 1081
106 1087
106 1119
106 1164
106 1174
106 1194
106 1207
106 1225
106 1250
106 1275
106 1288
106 1321
106 1430
106 1471
106 1487
106 1489
106 1501
106 1510
106 1522
106 1526
106 1558
106 1593
106 1613
106 1622
106 1624
106 1631
106 1682
106 1724
106 1731
106 1770
106 1773
106 1777
106 1789
106 1848
106 1854
106 1863
106 1876
106 1879
106 1972
106 1978
106 2012
106 2040
106 2158
106 2186
106 2219
106 2229
106 2240
106 2250
106 2320
106 2321
106 2323
106 2337
106 2350
106 2359
106 2404
106 2408
106 2430
106 2445
106 2501
106 2513
106 2564
106 2578
106 2582
106 2588
106 2703
106 2705
106 2721
106 2741
106 2751
106 2766
106 2808
106 2838
106 2848
106 2877
106 2944
106 2957
106 2960
106 3018
106 3021
106 3030
106 3059
106 3071
106 3075
106 3098
106 3108
106 3115
106 3119
106 3148
106 3184
106 3234
106 3240
106 3257
106 3265
106 3316
106 3320
106 3323
106 3325
106 3337
106 3349
106 3359
106 3405
106 3410
106 3412
106 3440
106 3513
106 3521
106 3544
106 3562
106 3623
106 3674
106 3675
106 3683
106 3687
106 3689
106 3704
106 3714
106 3718
106 3721
107 175
107 179
107 284
107 842
107 997
107 1207
107 1322
107 1391
107 1559
107 1617
107 1725
107 2015
107 2031
107 2264
107 2298
107 2322
107 2421
107 2503
107 2648
107 2689
107 2713
107 2740
107 2763
107 2838
107 2882
107 2919
107 2973
107 3123
107 3343
107 3603
107 3647
107 3668
107 3680
107 3714
107 3735
108 122
108 351
108 528
108 1222
108 1263
108 1439
108 1947
108 2221
108 2322
108 2622
108 2918
108 2997
108 3123
108 3705
109 166
109 421
109 503
109 679
109 859
109 942
109 945
109 965
109 1033
109 1121
109 1198
109 1323
109 1346
109 1360
109 1588
109 1629
109 1640
109 1725
109 1771
109 2053
109 2074
109 2151
109 2314
109 2319
109 2321
109 2374
109 2790
109 3119
109 3133
109 3193
109 3696
110 159
110 279
110 457
110 506
110 749
110 842
110 901
110 946
110 1014
110 1111
110 1651
110 2174
110 2197
110 2570
110 3228
110 3324
110 3507
110 3645
110 3654
111 189
111 351
111 609
111 836
111 931
111 981
111 1049
111 1101
111 1102
111 1238
111 1368
111 1400
111 1410
111 1526
111 1568
111 1577
111 1646
111 1757
111 1764
111 1825
111 1830
111 1962
111 2032
111 2115
111 2126
111 2170
111 2237
111 2527
111 2613
111 2706
111 2781
111 2822
111 3006
111 3012
111 3148
111 3194
111 3246
111 3359
111 3461
111 3662
111 3696
111 3718
112 174
112 422
112 753
112 943
112 1078
112 1310
112 1539
112 1708
112 1999
112 2154
112 2219
112 2463
112 2474
112 2752
112 2920
113 133
113 263
113 342
113 685
113 704
113 725
113 838
113 1121
113 1239
113 1254
113 1475
113 1673
113 1687
113 1720
113 2218
113 2262
113 2698
113 2793
113 3045
113 3245
113 3247
113 3366
113 3386
113 3466
114 2243
114 3051
114 3642
115 983
115 1519
115 1635
115 1890
115 2247
115 3300
115 3684
116 231
116 337
116 441
116 506
116 553
116 902
116 981
116 1253
116 1485
116 1648
116 1795
116 2591
116 2815
116 2877
116 2916
116 3044
116 3306
116 3396
116 3429
117 324
117 504
117 526
117 892
117 1125
117 1268
117 1307
117 1489
117 2146
117 2241
117 2256
117 2343
117 2348
117 2667
117 3156
117 3503
117 3524
118 218
118 278
118 360
118 485
118 825
118 859
118 1156
118 1221
118 1897
118 2000
118 2907
118 2989
118 2991
118 3358
118 3496
118 3573
118 3598
119 138
119 621
119 742
119 803
119 1045
119 1104
119 1179
119 1194
119 1329
119 1460
119 1655
119 1736
119 1761
119 2108
119 2115
119 2219
119 2355
119 2602
119 2713
119 2792
119 2948
119 3039
119 3128
119 3348
119 3539
119 3680
120 695
120 1247
120 2167
120 3268
120 3427
121 1003
121 1638
121 3287
121 3566
121 3697
122 145
122 223
122 240
122 277
122 280
122 314
122 351
122 358
122 546
122 605
122 646
122 695
122 700
122 720
122 752
122 819
122 841
122 842
122 857
122 915
122 935
122 955
122 967
122 983
122 1004
122 1030
122 1089
122 1216
122 1283
122 1304
122 1332
122 1333
122 1364
122 1403
122 1479
122 1493
122 1522
122 1554
122 1688
122 1777
122 1797
122 1801
122 1808
122 1825
122 1845
122 1854
122 1859
122 1879
122 1947
122 1960
122 1970
122 1992
122 1994
122 2003
122 2034
122 2160
122 2166
122 2223
122 2274
122 2300
122 2317
122 2322
122 2364
122 2419
122 2474
122 2555
122 2568
122 2604
122 2622
122 2668
122 2741
122 2770
122 2773
122 2805
122 2845
122 2869
122 2889
122 2907
122 2918
122 2924
122 2956
122 2963
122 2997
122 3016
122 3078
122 3105
122 3123
122 3129
122 3137
122 3209
122 3224
122 3266
122 3285
122 3345
122 3364
122 3437
122 3638
122 3682
122 3683
122 3746
123 150
123 231
123 386
123 482
123 514
123 553
123 570
123 788
123 878
123 1030
123 1119
123 1158
123 1206
123 1272
123 1485
123 1507
123 1516
123 1517
123 1644
123 1748
123 1867
123 2115
123 2116
123 2190
123 2299
123 2319
123 2337
123 2384
123 2401
123 2498
123 2503
123 2679
123 2689
123 2877
123 2948
123 3107
123 3126
123 3240
123 3364
123 3518
123 3619
123 3704
123 3715
124 132
124 148
124 306
124 534
124 638
124 1085
124 1374
124 1489
124 1730
124 1814
124 1825
124 2012
124 2016
124 2229
124 2319
124 2412
124 2705
124 2753
124 2797
124 2808
124 2960
124 3009
124 3021
124 3349
124 3521
125 596
125 1126
125 2161
125 2217
125 2810
125 3658
125 3667
126 132
126 157
126 189
126 231
126 342
126 367
126 429
126 562
126 563
126 609
126 620
126 638
126 640
126 712
126 726
126 752
126 764
126 832
126 839
126 892
126 924
126 956
126 1091
126 1222
126 1295
126 1337
126 1494
126 1577
126 1613
126 1682
126 1750
126 1939
126 1949
126 1952
126 2015
126 2039
126 2046
126 2071
126 2084
126 2109
126 2113
126 2136
126 2152
126 2159
126 2179
126 2201
126 2237
126 2280
126 2282
126 2392
126 2408
126 2547
126 2575
126 2581
126 2632
126 2657
126 2690
126 2723
126 2790
126 2808
126 2809
126 2812
126 2943
126 2954
126 2972
126 3012
126 3042
126 3149
126 3211
126 3265
126 3376
126 3388
126 3426
126 3478
126 3562
126 3575
126 3718
127 1166
127 1589
127 1809
128 136
128 158
128 167
128 186
128 362
128 374
128 407
128 422
128 463
128 530
128 554
128 557
128 564
128 566
128 584
128 594
128 675
128 753
128 807
128 844
128 862
128 887
128 916
128 930
128 943
128 970
128 977
128 1051
128 1078
128 1087
128 1330
128 1468
128 1546
128 1597
128 1688
128 1708
128 1800
128 1956
128 1969
128 1998
128 2076
128 2114
128 2341
128 2433
128 2601
128 2660
128 2731
128 2755
128 2859
128 2862
128 2875
128 2986
128 3007
128 3021
128 3086
128 3224
128 3248
128 3387
128 3399
128 3450
128 3465
128 3469
128 3470
128 3571
129 174
129 206
129 249
129 263
129 417
129 449
129 550
129 561
129 631
129 647
129 685
129 696
129 725
129 754
129 761
129 818
129 838
129 858
129 883
129 967
129 1002
129 1050
129 1065
129 1073
129 1121
129 1141
129 1167
129 1186
129 1239
129 1292
129 1333
129 1377
129 1416
129 1465
129 1480
129 1487
129 1510
129 1616
129 1667
129 1725
129 1898
129 2016
129 2020
129 2105
129 2125
129 2218
129 2229
129 2306
129 2358
129 2378
129 2404
129 2441
129 2512
129 2677
129 2696
129 2766
129 2783
129 2791
129 2804
129 2818
129 3029
129 3055
129 3070
129 3108
129 3116
129 3131
129 3171
129 3227
129 3306
129 3312
129 3386
129 3406
129 3410
129 3466
129 3562
129 3575
129 3596
129 3675
129 3689
129 3737
130 210
130 363
130 396
130 494
130 613
130 891
130 902
130 1247
130 1518
130 1522
130 1575
130 1610
130 1642
130 1681
130 1803
130 1931
130 2060
130 2169
130 2282
130 2323
130 2346
130 2417
130 2439
130 2526
130 2552
130 2585
130 2638
130 2654
130 2817
130 2912
130 2925
130 2935
130 2963
130 3038
130 3257
130 3364
130 3371
130 3372
130 3429
130 3437
130 3691
131 147
131 164
131 239
131 437
131 837
131 844
131 1323
131 1444
131 1552
131 1795
131 1816
131 1837
131 2015
131 2054
131 2093
131 2357
131 2379
131 2484
131 2495
131 2549
131 2878
131 2973
131 3215
131 3225
131 3235
131 3302
131 3652
131 3719
132 145
132 148
132 151
132 174
132 223
132 225
132 280
132 317
132 332
132 351
132 444
132 494
132 497
132 605
132 638
132 646
132 664
132 666
132 752
132 767
132 839
132 896
132 967
132 968
132 981
132 1022
132 1031
132 1089
132 1137
132 1151
132 1159
132 1169
132 1186
132 1224
132 1225
132 1280
132 1299
132 1323
132 1403
132 1419
132 1491
132 1565
132 1570
132 1613
132 1618
132 1635
132 1667
132 1739
132 1908
132 1992
132 1996
132 2015
132 2095
132 2191
132 2201
132 2205
132 2210
132 2219
132 2300
132 2323
132 2347
132 2369
132 2372
132 2408
132 2461
132 2474
132 2568
132 2640
132 2687
132 2705
132 2734
132 2744
132 2751
132 2753
132 2797
132 2808
132 2817
132 2845
132 2848
132 2888
132 2956
132 2989
132 3078
132 3137
132 3223
132 3234
132 3310
132 3317
132 3324
132 3407
132 3461
132 3476
132 3510
132 3535
132 3546
132 3575
132 3628
132 3639
132 3664
132 3682
132 3702
133 136
133 193
133 199
133 238
133 270
133 271
133 277
133 298
133 319
133 340
133 342
133 407
133 423
133 489
133 514
133 546
133 561
133 594
133 638
133 646
133 664
133 685
133 704
133 718
133 722
133 725
133 761
133 814
133 838
133 916
133 996
133 1024
133 1072
133 1085
133 1121
133 1130
133 1239
133 1321
133 1416
133 1471
133 1475
133 1501
133 1537
133 1571
133 1589
133 1597
133 1729
133 1754
133 1761
133 1762
133 1788
133 1825
133 1829
133 1833
133 1848
133 1901
133 1912
133 1972
133 2125
133 2134
133 2138
133 2218
133 2219
133 2225
133 2291
133 2374
133 2412
133 2438
133 2492
133 2588
133 2601
133 2640
133 2664
133 2751
133 2755
133 2791
133 2836
133 2856
133 2879
133 2895
133 2944
133 3015
133 3021
133 3029
133 3047
133 3068
133 3070
133 3075
133 3086
133 3116
133 3139
133 3147
133 3183
133 3245
133 3272
133 3274
133 3277
133 3301
133 3339
133 3349
133 3364
133 3366
133 3370
133 3386
133 3415
133 3430
133 3433
133 3466
133 3510
133 3534
133 3585
133 3599
133 3629
133 3689
133 3695
134 196
134 225
134 614
134 709
134 728
134 839
134 1031
134 1130
134 1335
134 1415
134 1495
134 1645
134 1996
134 2017
134 2392
134 2461
134 2515
134 2581
134 2675
134 2695
134 2791
134 2882
134 2893
134 3358
134 3408
134 3535
135 732
135 833
135 1425
135 1464
135 1536
135 1642
135 1685
135 1778
135 2015
135 2161
135 2232
135 2238
135 2282
135 2364
135 2471
135 2680
135 2819
135 2956
135 3120
135 3172
135 3364
135 3564
135 3587
135 3603
135 3628
135 3664
135 3711
136 167
136 179
136 186
136 270
136 298
136 306
136 319
136 340
136 392
136 407
136 430
136 445
136 455
136 489
136 514
136 515
136 530
136 541
136 555
136 557
136 569
136 584
136 589
136 593
136 594
136 638
136 642
136 656
136 665
136 675
136 708
136 725
136 814
136 824
136 844
136 877
136 887
136 988
136 1022
136 1023
136 1037
136 1043
136 1051
136 1072
136 1087
136 1097
136 1104
136 1123
136 1149
136 1150
136 1227
136 1337
136 1458
136 1475
136 1503
136 1531
136 1537
136 1543
136 1546
136 1568
136 1597
136 1599
136 1660
136 1685
136 1768
136 1791
136 1814
136 1825
136 1843
136 1848
136 1879
136 1902
136 1912
136 1956
136 1967
136 1971
136 2001
136 2034
136 2042
136 2064
136 2068
136 2104
136 2112
136 2138
136 2168
136 2176
136 2225
136 2329
136 2345
136 2363
136 2369
136 2390
136 2412
136 2460
136 2469
136 2474
136 2510
136 2521
136 2528
136 2554
136 2601
136 2636
136 2677
136 2707
136 2710
136 2755
136 2770
136 2804
136 2808
136 2838
136 2842
136 2867
136 2871
136 2895
136 2942
136 3000
136 3007
136 3021
136 3086
136 3118
136 3129
136 3138
136 3149
136 3152
136 3161
136 3178
136 3183
136 3193
136 3207
136 3224
136 3234
136 3274
136 3316
136 3332
136 3339
136 3386
136 3399
136 3430
136 3450
136 3465
136 3510
136 3557
136 3624
136 3630
136 3638
136 3640
136 3681
136 3683
136 3718
136 3744
137 172
137 935
137 1003
137 2250
137 2295
137 3644
138 342
138 1179
138 1329
138 1736
138 2355
138 2602
138 3206
138 3680
139 276
139 808
139 999
139 1467
139 1477
139 1490
139 1520
139 1695
139 1790
139 2020
139 2895
139 2923
139 3048
139 3426
140 150
140 174
140 215
140 303
140 306
140 341
140 420
140 425
140 497
140 513
140 562
140 601
140 620
140 640
140 767
140 939
140 988
140 1091
140 1264
140 1318
140 1404
140 1532
140 1687
140 1692
140 1789
140 1797
140 1921
140 1935
140 1937
140 2066
140 2071
140 2084
140 2156
140 2174
140 2205
140 2226
140 2237
140 2262
140 2276
140 2287
140 2309
140 2337
140 2467
140 2540
140 2571
140 2575
140 2625
140 2648
140 2655
140 2703
140 2721
140 2808
140 2865
140 2877
140 3045
140 3059
140 3091
140 3125
140 3199
140 3265
140 3273
140 3396
140 3404
140 3426
140 3435
140 3504
140 3520
140 3521
140 3562
140 3575
140 3639
141 189
141 251
141 413
141 492
141 710
141 950
141 1082
141 1235
141 1236
141 1313
141 1413
141 1820
141 2834
141 2957
141 3062
141 3570
142 169
142 901
142 946
142 1484
142 2108
142 2203
142 2409
143 248
143 281
143 319
143 449
143 522
143 658
143 659
143 678
143 705
143 939
143 954
143 1012
143 1116
143 1210
143 1310
143 1336
143 1440
143 1470
143 1550
143 1728
143 1754
143 1785
143 1788
143 1825
143 1848
143 1849
143 1961
143 2158
143 2209
143 2218
143 2595
143 2615
143 2672
143 2730
143 2767
143 2774
143 2830
143 2911
143 3096
143 3106
143 3183
143 3370
143 3458
143 3540
143 3688
143 3689
143 3706
143 3731
144 145
144 255
144 269
144 272
144 321
144 330
144 338
144 375
144 376
144 440
144 441
144 465
144 472
144 513
144 519
144 593
144 594
144 605
144 622
144 666
144 755
144 767
144 782
144 804
144 891
144 988
144 1017
144 1197
144 1289
144 1444
144 1469
144 1479
144 1485
144 1486
144 1544
144 1568
144 1593
144 1610
144 1698
144 1705
144 1751
144 1805
144 1817
144 1890
144 1925
144 2009
144 2014
144 2015
144 2025
144 2062
144 2112
144 2160
144 2165
144 2221
144 2226
144 2251
144 2276
144 2282
144 2311
144 2337
144 2374
144 2408
144 2424
144 2507
144 2575
144 2635
144 2675
144 2723
144 2771
144 2821
144 2883
144 2884
144 2922
144 2925
144 2941
144 2963
144 2967
144 3009
144 3016
144 3038
144 3077
144 3098
144 3129
144 3183
144 3234
144 3296
144 3371
144 3418
144 3429
144 3437
144 3504
144 3578
144 3638
144 3685
144 3691
145 166
145 213
145 214
145 272
145 279
145 280
145 281
145 306
145 319
145 340
145 358
145 420
145 423
145 464
145 489
145 513
145 546
145 559
145 593
145 594
145 605
145 638
145 646
145 650
145 700
145 721
145 837
145 896
145 897
145 901
145 968
145 1022
145 1024
145 1071
145 1073
145 1164
145 1178
145 1199
145 1204
145 1250
145 1275
145 1299
145 1321
145 1364
145 1400
145 1416
145 1440
145 1464
145 1487
145 1489
145 1510
145 1521
145 1522
145 1526
145 1543
145 1557
145 1642
145 1667
145 1668
145 1725
145 1734
145 1756
145 1762
145 1825
145 1841
145 1844
145 1848
145 1854
145 1859
145 1863
145 1925
145 1929
145 1996
145 2012
145 2052
145 2055
145 2087
145 2147
145 2158
145 2209
145 2282
145 2324
145 2413
145 2416
145 2430
145 2445
145 2474
145 2544
145 2559
145 2564
145 2565
145 2578
145 2588
145 2604
145 2620
145 2668
145 2687
145 2703
145 2705
145 2707
145 2745
145 2751
145 2797
145 2808
145 2836
145 2845
145 2848
145 2889
145 2907
145 2946
145 2956
145 3021
145 3054
145 3068
145 3070
145 3071
145 3075
145 3093
145 3101
145 3137
145 3145
145 3190
145 3209
145 3242
145 3253
145 3259
145 3426
145 3428
145 3476
145 3514
145 3521
145 3575
145 3603
145 3656
145 3675
145 3676
145 3682
145 3691
145 3706
145 3713
145 3714
145 3721
145 3737
146 508
146 977
146 1064
146 1730
146 2174
146 2476
146 2540
146 2961
146 3134
146 3435
146 3531
146 3659
147 159
147 164
147 279
147 310
147 457
147 518
147 598
147 651
147 697
147 751
147 769
147 842
147 901
147 931
147 951
147 965
147 1014
147 1380
147 1519
147 1619
147 1648
147 1712
147 1742
147 1939
147 1996
147 2067
147 2242
147 2484
147 2544
147 2738
147 2963
147 2973
147 3112
147 3166
147 3215
147 3235
147 3302
147 3446
147 3637
147 3645
147 3684
147 3686
147 3687
147 3726
148 306
148 403
148 442
148 450
148 487
148 638
148 665
148 757
148 783
148 791
148 1045
148 1070
148 1087
148 1095
148 1104
148 1489
148 1687
148 1768
148 1814
148 1924
148 1971
148 2016
148 2025
148 2299
148 2459
148 2474
148 2554
148 2677
148 2705
148 2737
148 2753
148 2797
148 2808
148 2960
148 3007
148 3234
148 3332
149 611
149 1554
149 1664
149 1699
149 1806
149 2880
150 213
150 217
150 222
150 274
150 279
150 310
150 382
150 454
150 460
150 470
150 482
150 484
150 496
150 498
150 513
150 517
150 519
150 563
150 579
150 598
150 610
150 614
150 626
150 628
150 669
150 677
150 712
150 719
150 726
150 730
150 765
150 767
150 805
150 855
150 956
150 988
150 1177
150 1208
150 1263
150 1350
150 1439
150 1469
150 1487
150 1565
150 1598
150 1639
150 1644
150 1653
150 1655
150 1697
150 1745
150 1789
150 1872
150 1913
150 1952
150 1997
150 2109
150 2149
150 2171
150 2276
150 2337
150 2359
150 2389
150 2408
150 2455
150 2498
150 2503
150 2581
150 2609
150 2710
150 2752
150 2775
150 2858
150 2870
150 2877
150 2971
150 2994
150 3057
150 3066
150 3108
150 3128
150 3153
150 3240
150 3249
150 3278
150 3324
150 3376
150 3431
150 3493
150 3501
150 3632
150 3702
150 3704
150 3715
151 162
151 174
151 209
151 210
151 258
151 261
151 271
151 317
151 342
151 347
151 416
151 506
151 513
151 570
151 579
151 628
151 666
151 699
151 752
151 912
151 1024
151 1121
151 1171
151 1178
151 1204
151 1256
151 1403
151 1464
151 1469
151 1497
151 1509
151 1513
151 1565
151 1613
151 1681
151 1748
151 1772
151 1778
151 1806
151 1853
151 1871
151 1897
151 2121
151 2219
151 2323
151 2406
151 2408
151 2424
151 2438
151 2474
151 2536
151 2568
151 2628
151 2634
151 2687
151 2703
151 2751
151 2852
151 2877
151 2912
151 3102
151 3108
151 3226
151 3234
151 3236
151 3317
151 3320
151 3343
151 3349
151 3384
151 3389
151 3397
151 3449
151 3656
151 3704
151 3721
151 3741
151 3746
152 770
152 826
152 893
152 1145
152 1325
152 1410
152 1863
152 1979
152 2044
152 2183
152 2311
152 2811
152 3377
152 3412
153 971
153 1341
153 1375
153 2942
153 3437
154 418
154 518
154 905
154 1083
154 1255
154 1613
154 1683
154 1722
154 2217
154 2440
154 2914
154 3580
155 391
155 442
155 526
155 541
155 578
155 663
155 689
155 694
155 738
155 821
155 858
155 1002
155 1056
155 1095
155 1163
155 1275
155 1349
155 1401
155 1459
155 1522
155 1660
155 1667
155 1687
155 1750
155 1814
155 1856
155 1862
155 1888
155 1969
155 2014
155 2186
155 2217
155 2282
155 2387
155 2420
155 2445
155 2464
155 2474
155 2549
155 2570
155 2899
155 2973
155 3000
155 3018
155 3048
155 3055
155 3096
155 3191
155 3224
155 3225
155 3306
155 3416
155 3536
155 3667
155 3719
156 213
156 240
156 533
156 931
156 1094
156 1310
156 1565
156 1613
156 1805
156 1893
156 1996
156 2110
156 2154
156 2238
156 2406
156 2543
156 2795
156 2857
156 2869
156 3230
156 3285
156 3413
156 3486
156 3506
156 3620
157 262
157 501
157 579
157 650
157 684
157 709
157 723
157 1206
157 1268
157 1360
157 1400
157 1405
157 1414
157 1526
157 1797
157 1801
157 1814
157 1863
157 2046
157 2059
157 2113
157 2158
157 2246
157 2316
157 2330
157 2387
157 2547
157 2682
157 2932
157 3169
157 3249
157 3258
157 3286
157 3297
157 3304
158 422
158 596
158 844
158 862
158 930
158 943
158 1055
158 1330
158 1394
158 1969
158 2114
158 2986
158 3021
158 3459
158 3469
158 3597
159 275
159 279
159 316
159 362
159 439
159 493
159 630
159 669
159 711
159 751
159 759
159 806
159 825
159 901
159 946
159 951
159 1004
159 1014
159 1045
159 1062
159 1118
159 1156
159 1329
159 1367
159 1469
159 1493
159 1500
159 1508
159 1576
159 1619
159 1630
159 1645
159 1648
159 1651
159 1736
159 1797
159 1996
159 2011
159 2035
159 2067
159 2090
159 2135
159 2197
159 2205
159 2242
159 2323
159 2687
159 2713
159 2738
159 2749
159 2808
159 2825
159 2845
159 2878
159 2899
159 2946
159 2952
159 2988
159 3112
159 3119
159 3153
159 3160
159 3167
159 3190
159 3282
159 3307
159 3507
159 3588
159 3598
159 3637
159 3645
159 3680
159 3718
159 3736
160 333
160 359
160 366
160 437
160 446
160 461
160 462
160 527
160 543
160 570
160 590
160 801
160 803
160 894
160 899
160 906
160 925
160 988
160 997
160 1022
160 1322
160 1340
160 1383
160 1472
160 1543
160 1548
160 1710
160 1714
160 1733
160 1777
160 1827
160 1880
160 1908
160 2035
160 2052
160 2150
160 2211
160 2222
160 2298
160 2319
160 2381
160 2388
160 2401
160 2416
160 2424
160 2460
160 2493
160 2517
160 2528
160 2626
160 2699
160 2792
160 2845
160 2888
160 2946
160 2956
160 2974
160 2977
160 2988
160 3094
160 3264
160 3284
160 3329
160 3334
160 3339
160 3356
160 3482
160 3504
160 3513
160 3517
160 3518
160 3572
160 3578
160 3642
160 3650
160 3722
161 577
161 731
161 765
161 1107
161 1229
161 1267
161 1756
161 2144
161 2384
161 2944
161 3065
162 249
162 250
162 279
162 280
162 316
162 342
162 353
162 413
162 449
162 465
162 492
162 551
162 563
162 567
162 582
162 598
162 626
162 699
162 713
162 734
162 752
162 838
162 854
162 898
162 935
162 947
162 949
162 950
162 952
162 1013
162 1041
162 1054
162 1058
162 1063
162 1083
162 1236
162 1240
162 1292
162 1295
162 1297
162 1302
162 1312
162 1356
162 1413
162 1418
162 1432
162 1578
162 1602
162 1619
162 1642
162 1644
162 1656
162 1666
162 1700
162 1820
162 1905
162 1949
162 1960
162 2019
162 2093
162 2121
162 2174
162 2191
162 2201
162 2212
162 2219
162 2220
162 2263
162 2334
162 2338
162 2355
162 2424
162 2437
162 2474
162 2481
162 2484
162 2634
162 2687
162 2709
162 2725
162 2785
162 2805
162 2815
162 2825
162 2834
162 2841
162 2849
162 2884
162 2965
162 3042
162 3163
162 3176
162 3184
162 3250
162 3327
162 3374
162 3421
162 3447
162 3449
162 3464
162 3477
162 3496
162 3500
162 3546
162 3554
162 3558
162 3592
162 3645
162 3668
162 3697
162 3705
163 316
163 382
163 423
163 513
163 561
163 579
163 631
163 699
163 864
163 921
163 1050
163 1058
163 1129
163 1285
163 1365
163 1465
163 1517
163 1518
163 1549
163 1681
163 1838
163 1959
163 1987
163 2152
163 2287
163 2295
163 2455
163 2475
163 2498
163 2605
163 2607
163 2620
163 2649
163 2944
163 2999
163 3121
163 3153
163 3191
163 3240
163 3336
163 3395
163 3519
163 3547
164 239
164 2093
164 2357
164 2484
164 2565
164 2973
164 3215
164 3235
164 3302
165 187
165 262
165 269
165 494
165 570
165 578
165 640
165 681
165 906
165 1048
165 1178
165 1266
165 1292
165 1438
165 1459
165 1573
165 1756
165 2116
165 2394
165 2503
165 2605
165 2627
165 2648
165 2951
165 2978
165 3107
165 3117
165 3187
165 3263
165 3514
165 3523
165 3586
166 203
166 233
166 258
166 271
166 272
166 313
166 321
166 326
166 370
166 438
166 440
166 445
166 463
166 492
166 605
166 679
166 709
166 721
166 753
166 785
166 802
166 836
166 859
166 876
166 942
166 945
166 965
166 983
166 1037
166 1041
166 1053
166 1054
166 1104
166 1130
166 1170
166 1244
166 1247
166 1323
166 1339
166 1347
166 1407
166 1408
166 1452
166 1482
166 1522
166 1629
166 1630
166 1640
166 1659
166 1678
166 1732
166 1771
166 1837
166 1845
166 1859
166 1864
166 1948
166 2005
166 2034
166 2053
166 2126
166 2151
166 2152
166 2168
166 2177
166 2229
166 2250
166 2284
166 2314
166 2364
166 2427
166 2464
166 2474
166 2509
166 2513
166 2515
166 2520
166 2544
166 2556
166 2583
166 2589
166 2617
166 2677
166 2713
166 2741
166 2760
166 2777
166 2790
166 2840
166 2909
166 2920
166 2973
166 3000
166 3007
166 3010
166 3015
166 3030
166 3080
166 3087
166 3112
166 3119
166 3133
166 3148
166 3169
166 3224
166 3234
166 3252
166 3296
166 3300
166 3316
166 3318
166 3382
166 3424
166 3457
166 3466
166 3469
166 3513
166 3521
166 3561
166 3565
166 3601
166 3624
166 3630
166 3639
166 3649
166 3684
166 3695
166 3696
166 3714
166 3729
167 186
167 188
167 270
167 298
167 392
167 407
167 492
167 530
167 543
167 593
167 594
167 638
167 656
167 812
167 844
167 887
167 899
167 916
167 930
167 943
167 988
167 1022
167 1024
167 1037
167 1072
167 1087
167 1104
167 1150
167 1341
167 1392
167 1416
167 1446
167 1475
167 1548
167 1597
167 1688
167 1714
167 1733
167 1843
167 1864
167 1912
167 1956
167 2034
167 2042
167 2064
167 2104
167 2112
167 2114
167 2160
167 2289
167 2323
167 2329
167 2390
167 2469
167 2474
167 2517
167 2521
167 2528
167 2552
167 2601
167 2636
167 2664
167 2699
167 2710
167 2755
167 2792
167 2836
167 2845
167 2859
167 2875
167 2920
167 2942
167 2956
167 3000
167 3009
167 3016
167 3021
167 3086
167 3094
167 3129
167 3138
167 3183
167 3207
167 3224
167 3248
167 3258
167 3274
167 3316
167 3399
167 3430
167 3450
167 3465
167 3482
167 3510
167 3513
167 3561
167 3575
167 3638
167 3640
167 3683
167 3736
168 227
168 316
168 631
168 738
168 909
168 1026
168 1064
168 1118
168 1894
168 2243
168 2804
168 3176
169 2409
170 291
170 326
170 337
170 482
170 493
170 553
170 570
170 791
170 836
170 855
170 1220
170 1223
170 1543
170 1586
170 1613
170 1901
170 1985
170 2035
170 2370
170 2498
170 2719
170 2877
170 2948
170 3087
170 3176
170 3186
170 3311
170 3704
171 303
171 420
171 434
171 448
171 489
171 548
171 572
171 903
171 968
171 1026
171 1073
171 1100
171 1195
171 1334
171 1416
171 1487
171 1583
171 1620
171 1667
171 1734
171 1844
171 1854
171 1918
171 1921
171 1972
171 2185
171 2337
171 2445
171 2507
171 2602
171 2721
171 2766
171 2791
171 2848
171 3101
171 3125
171 3243
171 3521
171 3544
171 3603
171 3676
171 3682
171 3721
172 174
172 214
172 279
172 292
172 295
172 305
172 316
172 322
172 342
172 381
172 388
172 419
172 450
172 464
172 473
172 513
172 549
172 561
172 595
172 598
172 604
172 638
172 649
172 658
172 678
172 697
172 736
172 752
172 755
172 821
172 850
172 913
172 1000
172 1002
172 1003
172 1010
172 1028
172 1050
172 1060
172 1156
172 1186
172 1319
172 1321
172 1366
172 1399
172 1411
172 1440
172 1501
172 1505
172 1534
172 1613
172 1618
172 1646
172 1667
172 1705
172 1737
172 1816
172 1845
172 1859
172 1959
172 1964
172 1988
172 2002
172 2170
172 2174
172 2217
172 2219
172 2265
172 2356
172 2371
172 2406
172 2438
172 2474
172 2553
172 2559
172 2620
172 2703
172 2733
172 2749
172 2906
172 2910
172 2911
172 2944
172 2956
172 2979
172 3004
172 3046
172 3054
172 3068
172 3075
172 3124
172 3145
172 3146
172 3194
172 3234
172 3243
172 3278
172 3300
172 3306
172 3349
172 3359
172 3389
172 3547
172 3575
172 3592
172 3603
172 3639
172 3656
172 3669
172 3675
172 3689
172 3714
172 3746
173 266
173 276
173 324
173 379
173 878
173 908
173 1198
173 2466
173 2751
173 2935
173 2970
173 3219
173 3310
173 3330
173 3376
174 188
174 189
174 208
174 210
174 211
174 214
174 223
174 242
174 248
174 253
174 258
174 263
174 277
174 279
174 280
174 285
174 292
174 295
174 306
174 316
174 319
174 322
174 323
174 340
174 342
174 347
174 348
174 412
174 423
174 426
174 443
174 473
174 476
174 513
174 517
174 562
174 594
174 595
174 599
174 603
174 620
174 625
174 630
174 631
174 638
174 646
174 658
174 664
174 678
174 679
174 699
174 704
174 718
174 739
174 740
174 752
174 754
174 784
174 790
174 839
174 848
174 856
174 859
174 883
174 896
174 903
174 916
174 939
174 967
174 968
174 984
174 1020
174 1024
174 1041
174 1049
174 1050
174 1065
174 1091
174 1094
174 1111
174 1116
174 1134
174 1151
174 1155
174 1164
174 1167
174 1168
174 1169
174 1183
174 1186
174 1195
174 1204
174 1218
174 1234
174 1250
174 1272
174 1273
174 1286
174 1288
174 1290
174 1299
174 1301
174 1314
174 1318
174 1321
174 1333
174 1337
174 1339
174 1359
174 1365
174 1366
174 1377
174 1391
174 1395
174 1400
174 1402
174 1403
174 1430
174 1471
174 1480
174 1489
174 1492
174 1493
174 1501
174 1505
174 1510
174 1530
174 1532
174 1534
174 1543
174 1554
174 1557
174 1565
174 1567
174 1578
174 1601
174 1613
174 1618
174 1630
174 1632
174 1651
174 1656
174 1667
174 1668
174 1680
174 1681
174 1703
174 1719
174 1754
174 1757
174 1758
174 1761
174 1770
174 1773
174 1785
174 1797
174 1809
174 1814
174 1818
174 1848
174 1863
174 1898
174 1902
174 1911
174 1916
174 1918
174 1959
174 1964
174 1972
174 1993
174 2004
174 2012
174 2014
174 2024
174 2033
174 2046
174 2052
174 2059
174 2066
174 2071
174 2098
174 2116
174 2129
174 2134
174 2135
174 2141
174 2146
174 2154
174 2166
174 2170
174 2201
174 2206
174 2210
174 2219
174 2221
174 2229
174 2234
174 2246
174 2249
174 2254
174 2257
174 2265
174 2287
174 2289
174 2295
174 2299
174 2314
174 2324
174 2326
174 2330
174 2333
174 2337
174 2374
174 2384
174 2392
174 2404
174 2406
174 2418
174 2430
174 2438
174 2441
174 2454
174 2455
174 2461
174 2462
174 2463
174 2473
174 2474
174 2478
174 2485
174 2508
174 2533
174 2543
174 2544
174 2551
174 2553
174 2559
174 2563
174 2568
174 2571
174 2578
174 2583
174 2588
174 2595
174 2620
174 2622
174 2625
174 2640
174 2649
174 2655
174 2658
174 2665
174 2678
174 2683
174 2690
174 2696
174 2703
174 2705
174 2710
174 2720
174 2727
174 2741
174 2743
174 2745
174 2751
174 2766
174 2767
174 2781
174 2787
174 2792
174 2797
174 2804
174 2808
174 2819
174 2848
174 2849
174 2850
174 2865
174 2877
174 2879
174 2901
174 2912
174 2944
174 2946
174 2951
174 2960
174 2977
174 2989
174 3009
174 3012
174 3026
174 3046
174 3054
174 3059
174 3068
174 3070
174 3071
174 3075
174 3096
174 3097
174 3102
174 3106
174 3107
174 3108
174 3109
174 3121
174 3132
174 3136
174 3139
174 3143
174 3145
174 3193
174 3194
174 3212
174 3223
174 3226
174 3234
174 3243
174 3259
174 3292
174 3297
174 3303
174 3324
174 3337
174 3349
174 3359
174 3373
174 3385
174 3389
174 3395
174 3396
174 3408
174 3410
174 3426
174 3435
174 3466
174 3476
174 3477
174 3497
174 3520
174 3521
174 3523
174 3528
174 3544
174 3547
174 3549
174 3562
174 3575
174 3578
174 3584
174 3592
174 3600
174 3603
174 3611
174 3621
174 3628
174 3630
174 3639
174 3649
174 3666
174 3675
174 3689
174 3696
174 3698
174 3702
174 3703
174 3714
174 3717
174 3718
174 3721
174 3734
174 3737
175 227
175 326
175 626
175 670
175 1046
175 1056
175 1069
175 1197
175 1487
175 1522
175 1687
175 1799
175 2008
175 2174
175 2524
175 2645
175 2740
175 2832
175 2967
175 2985
175 3332
175 3578
175 3680
176 346
176 446
176 784
176 923
176 1372
176 1489
176 1627
176 1872
176 2427
176 2457
176 2909
176 3131
177 255
177 294
177 519
177 769
177 892
177 1135
177 1444
177 2009
177 2137
177 2238
177 2253
177 2282
177 2356
177 2706
177 2723
177 2772
177 2917
177 3012
177 3324
177 3360
177 3413
178 662
178 1086
178 1983
178 3394
178 3746
179 527
179 557
179 1191
179 1258
179 1391
179 1559
179 1597
179 1791
179 1885
179 1926
179 2035
179 2095
179 2230
179 2369
179 2547
179 2648
179 2702
179 2740
179 2943
179 3043
179 3354
179 3488
179 3598
179 3647
180 351
180 1222
180 3382
181 321
181 376
181 1444
181 1698
181 1751
181 1817
181 2221
181 2723
181 2771
181 2883
181 2884
181 3675
182 208
182 373
182 752
182 790
182 804
182 1274
182 1477
182 1632
182 1797
182 1917
182 2139
182 2146
182 2152
182 2282
182 2333
182 2462
182 2485
182 2543
182 2667
182 2713
182 2809
182 2905
182 3012
182 3110
182 3528
182 3585
182 3600
182 3714
183 384
183 446
183 574
183 582
183 615
183 1156
183 1204
183 1294
183 1319
183 1545
183 1807
183 2114
183 2167
183 2685
183 2878
183 2975
183 3021
183 3031
183 3431
183 3546
183 3562
183 3591
183 3598
184 479
184 489
184 642
184 659
184 705
184 1002
184 1121
184 1321
184 1371
184 1471
184 1583
184 1749
184 1813
184 1848
184 2040
184 2087
184 2229
184 2507
184 2564
184 2745
184 2804
184 2933
184 2975
184 3015
184 3415
184 3466
185 326
185 3684
186 199
186 258
186 270
186 298
186 351
186 366
186 374
186 392
186 407
186 430
186 445
186 455
186 530
186 557
186 584
186 589
186 593
186 594
186 606
186 638
186 656
186 675
186 814
186 844
186 862
186 877
186 887
186 916
186 930
186 943
186 960
186 970
186 988
186 1022
186 1037
186 1051
186 1057
186 1071
186 1072
186 1085
186 1087
186 1097
186 1149
186 1161
186 1200
186 1227
186 1258
186 1321
186 1337
186 1458
186 1475
186 1503
186 1522
186 1537
186 1546
186 1597
186 1688
186 1729
186 1768
186 1825
186 1843
186 1846
186 1863
186 1879
186 1912
186 1956
186 1967
186 1969
186 2034
186 2042
186 2064
186 2068
186 2079
186 2091
186 2094
186 2104
186 2112
186 2114
186 2160
186 2168
186 2176
186 2217
186 2225
186 2283
186 2290
186 2329
186 2344
186 2369
186 2390
186 2395
186 2412
186 2423
186 2469
186 2521
186 2554
186 2601
186 2617
186 2636
186 2710
186 2727
186 2746
186 2753
186 2755
186 2797
186 2821
186 2842
186 2859
186 2895
186 2941
186 3000
186 3007
186 3021
186 3086
186 3094
186 3105
186 3129
186 3138
186 3145
186 3152
186 3178
186 3183
186 3193
186 3224
186 3248
186 3258
186 3274
186 3316
186 3339
186 3342
186 3370
186 3399
186 3426
186 3430
186 3450
186 3465
186 3466
186 3510
186 3597
186 3608
186 3638
186 3640
187 370
187 535
187 570
187 594
187 710
187 836
187 913
187 987
187 1001
187 1374
187 1470
187 1545
187 1772
187 1897
187 2035
187 2082
187 2109
187 2137
187 2187
187 2356
187 2809
187 2819
187 2912
187 2951
187 2988
187 3027
187 3449
187 3586
187 3686
188 421
188 445
188 495
188 543
188 557
188 606
188 638
188 665
188 844
188 916
188 960
188 967
188 988
188 1022
188 1023
188 1037
188 1149
188 1272
188 1314
188 1531
188 1568
188 1597
188 1613
188 1755
188 1899
188 1967
188 2001
188 2064
188 2076
188 2289
188 2312
188 2469
188 2474
188 2521
188 2535
188 2601
188 2710
188 2808
188 2842
188 2845
188 2861
188 2920
188 2973
188 3000
188 3021
188 3103
188 3138
188 3183
188 3193
188 3207
188 3212
188 3224
188 3450
188 3465
188 3599
188 3624
188 3638
188 3672
189 219
189 277
189 316
189 328
189 333
189 419
189 451
189 492
189 563
189 598
189 619
189 633
189 661
189 697
189 710
189 718
189 732
189 752
189 757
189 765
189 767
189 781
189 821
189 892
189 907
189 948
189 988
189 1005
189 1020
189 1021
189 1049
189 1082
189 1103
189 1133
189 1228
189 1313
189 1356
189 1357
189 1358
189 1361
189 1368
189 1410
189 1427
189 1593
189 1670
189 1681
189 1737
189 1750
189 1814
189 1816
189 1825
189 1841
189 1962
189 1981
189 2002
189 2059
189 2077
189 2092
189 2098
189 2146
189 2170
189 2333
189 2356
189 2371
189 2399
189 2400
189 2406
189 2438
189 2456
189 2513
189 2567
189 2580
189 2591
189 2628
189 2661
189 2771
189 2773
189 2781
189 2809
189 2822
189 2823
189 2827
189 2877
189 2888
189 2890
189 2914
189 2933
189 2954
189 2956
189 2957
189 2979
189 2998
189 3010
189 3012
189 3015
189 3042
189 3062
189 3075
189 3087
189 3093
189 3110
189 3128
189 3150
189 3153
189 3194
189 3202
189 3241
189 3278
189 3297
189 3325
189 3337
189 3359
189 3377
189 3456
189 3466
189 3491
189 3516
189 3548
189 3563
189 3575
189 3618
189 3695
189 3696
189 3710
189 3746
190 256
190 428
190 472
190 1124
190 1198
190 1267
190 1450
190 1731
190 2060
190 2526
190 2569
190 3257
190 3260
191 355
191 363
191 598
191 752
191 772
191 1137
191 1509
191 1767
191 2046
191 2271
191 2294
191 2467
191 2548
191 2549
191 2683
191 2722
191 3241
191 3371
191 3419
191 3437
191 3461
191 3546
192 1525
192 2754
192 2810
192 3275
192 3707
192 3711
193 197
193 305
193 321
193 331
193 342
193 345
193 441
193 444
193 520
193 622
193 740
193 766
193 800
193 801
193 849
193 858
193 1137
193 1141
193 1278
193 1339
193 1425
193 1452
193 1492
193 1557
193 1646
193 1655
193 1700
193 1706
193 1743
193 1748
193 1783
193 1870
193 1941
193 2033
193 2057
193 2122
193 2142
193 2165
193 2177
193 2202
193 2223
193 2232
193 2295
193 2319
193 2373
193 2418
193 2438
193 2514
193 2515
193 2531
193 2583
193 2597
193 2652
193 2733
193 2778
193 2807
193 2810
193 2828
193 2865
193 2906
193 2908
193 2948
193 2964
193 3027
193 3061
193 3160
193 3189
193 3205
193 3376
193 3385
193 3526
193 3547
193 3559
193 3606
193 3666
193 3695
193 3702
193 3718
193 3729
194 323
194 758
194 978
194 1926
194 2326
194 2428
194 2551
194 2566
194 2665
194 3167
194 3308
194 3490
194 3610
195 479
195 497
195 1232
195 1457
195 1646
195 2008
195 2435
195 2537
195 2749
195 2877
195 3059
195 3069
195 3122
195 3494
195 3659
196 225
196 1031
196 2017
196 2461
196 2893
196 3358
196 3535
196 3627
197 345
197 511
197 771
197 1111
197 1322
197 2057
197 2384
197 2530
197 3211
198 232
198 342
198 436
198 685
198 902
198 1822
198 2648
198 2721
198 3530
199 270
199 298
199 407
199 629
199 665
199 675
199 722
199 761
199 844
199 877
199 980
199 1022
199 1072
199 1075
199 1097
199 1121
199 1475
199 1537
199 1549
199 1589
199 1597
199 1956
199 2068
199 2079
199 2125
199 2218
199 2225
199 2321
199 2390
199 2554
199 2601
199 2686
199 2710
199 2755
199 2842
199 2895
199 3007
199 3021
199 3118
199 3332
199 3386
199 3399
199 3430
199 3450
200 439
200 762
200 1208
200 1353
200 3514
201 891
201 1611
201 2760
201 3413
201 3691
202 2137
203 211
203 233
203 252
203 332
203 357
203 413
203 465
203 535
203 568
203 646
203 733
203 738
203 753
203 912
203 916
203 930
203 952
203 1055
203 1079
203 1297
203 1431
203 1596
203 1630
203 1820
203 1865
203 2015
203 2076
203 2078
203 2114
203 2191
203 2212
203 2224
203 2334
203 2431
203 2436
203 2440
203 2489
203 2677
203 2680
203 2709
203 2789
203 2825
203 2826
203 2975
203 2986
203 3021
203 3041
203 3081
203 3093
203 3135
203 3137
203 3312
203 3421
203 3472
203 3546
203 3586
203 3597
203 3629
203 3663
203 3723
204 320
204 1235
204 1586
204 2251
204 2468
205 736
205 1737
205 2354
205 3060
205 3359
205 3546
206 249
206 338
206 342
206 415
206 449
206 466
206 512
206 534
206 546
206 623
206 638
206 647
206 695
206 754
206 764
206 818
206 858
206 1002
206 1050
206 1053
206 1065
206 1120
206 1167
206 1235
206 1244
206 1296
206 1312
206 1377
206 1465
206 1480
206 1510
206 1580
206 1640
206 1642
206 1667
206 1734
206 1832
206 1837
206 1898
206 1925
206 2121
206 2229
206 2441
206 2504
206 2516
206 2520
206 2544
206 2556
206 2696
206 2741
206 2815
206 2973
206 3037
206 3055
206 3070
206 3093
206 3108
206 3131
206 3227
206 3306
206 3346
206 3382
206 3466
206 3562
206 3596
206 3687
206 3688
206 3719
206 3737
207 279
207 309
207 418
207 1765
207 1979
208 211
208 630
208 732
208 739
208 790
208 856
208 1120
208 1296
208 1327
208 1412
208 1493
208 1651
208 1773
208 1797
208 1875
208 2166
208 2246
208 2333
208 2544
208 2556
208 2720
208 2989
208 3132
208 3303
208 3358
208 3538
208 3608
208 3703
209 299
209 337
209 338
209 416
209 432
209 469
209 506
209 529
209 578
209 1137
209 1350
209 1363
209 1439
209 1509
209 1565
209 1747
209 1853
209 2183
209 2271
209 2323
209 2801
209 2877
209 2938
209 2967
209 3035
209 3083
209 3384
209 3628
209 3710
210 240
210 277
210 284
210 416
210 517
210 637
210 706
210 730
210 891
210 912
210 1025
210 1036
210 1049
210 1222
210 1225
210 1339
210 1543
210 1575
210 1607
210 1659
210 1681
210 1775
210 1853
210 1880
210 1931
210 2034
210 2141
210 2288
210 2493
210 2575
210 2605
210 2624
210 2680
210 2852
210 2869
210 2881
210 2905
210 2946
210 2998
210 3109
210 3234
210 3389
210 3424
210 3513
210 3659
210 3704
210 3729
211 307
211 471
211 495
211 526
211 561
211 567
211 586
211 620
211 638
211 802
211 897
211 1034
211 1053
211 1098
211 1120
211 1144
211 1174
211 1186
211 1288
211 1369
211 1444
211 1477
211 1483
211 1487
211 1494
211 1526
211 1622
211 1631
211 1719
211 1734
211 1784
211 1870
211 1902
211 1916
211 1943
211 2004
211 2007
211 2040
211 2163
211 2205
211 2206
211 2210
211 2229
211 2236
211 2246
211 2249
211 2250
211 2251
211 2337
211 2353
211 2474
211 2480
211 2513
211 2515
211 2544
211 2548
211 2604
211 2703
211 2741
211 2808
211 2866
211 2897
211 2899
211 2908
211 2944
211 3030
211 3046
211 3081
211 3101
211 3121
211 3145
211 3173
211 3203
211 3325
211 3382
211 3388
211 3410
211 3449
211 3466
211 3498
211 3512
211 3521
211 3575
211 3584
211 3639
211 3687
211 3721
211 3726
211 3745
212 695
212 931
212 1323
212 1455
212 1874
212 1992
212 2516
212 2807
212 2930
212 3382
212 3628
212 3711
213 278
213 310
213 352
213 715
213 779
213 781
213 821
213 825
213 843
213 845
213 846
213 903
213 986
213 1081
213 1109
213 1156
213 1221
213 1222
213 1228
213 1231
213 1256
213 1331
213 1363
213 1370
213 1464
213 1469
213 1670
213 1674
213 1689
213 1739
213 1744
213 1748
213 1773
213 1816
213 1913
213 2028
213 2046
213 2054
213 2109
213 2110
213 2151
213 2174
213 2211
213 2222
213 2256
213 2288
213 2323
213 2399
213 2463
213 2493
213 2528
213 2542
213 2581
213 2626
213 2699
213 2771
213 2819
213 2878
213 2909
213 2982
213 2985
213 2988
213 3112
213 3120
213 3137
213 3195
213 3249
213 3418
213 3431
213 3453
213 3479
213 3528
213 3573
213 3598
213 3641
213 3662
213 3685
214 258
214 271
214 316
214 342
214 358
214 389
214 425
214 426
214 512
214 513
214 546
214 605
214 631
214 638
214 698
214 700
214 722
214 752
214 838
214 953
214 967
214 1062
214 1129
214 1130
214 1155
214 1195
214 1286
214 1321
214 1365
214 1416
214 1465
214 1479
214 1605
214 1630
214 1681
214 1734
214 1747
214 1761
214 1770
214 1822
214 1899
214 1902
214 1960
214 1970
214 1987
214 1994
214 2015
214 2056
214 2219
214 2236
214 2291
214 2316
214 2414
214 2430
214 2492
214 2544
214 2596
214 2620
214 2664
214 2668
214 2683
214 2724
214 2745
214 2783
214 2791
214 2801
214 2805
214 2849
214 2857
214 2878
214 2879
214 2907
214 2956
214 2973
214 3137
214 3153
214 3169
214 3235
214 3242
214 3253
214 3259
214 3272
214 3366
214 3466
214 3553
214 3558
214 3575
214 3601
214 3611
214 3617
214 3629
214 3639
214 3682
214 3683
214 3687
214 3717
214 3736
215 341
215 425
215 440
215 473
215 496
215 813
215 815
215 987
215 1156
215 1181
215 1244
215 1318
215 1360
215 1383
215 1421
215 1522
215 1566
215 1588
215 1661
215 1687
215 1846
215 1875
215 1897
215 1996
215 2056
215 2187
215 2237
215 2442
215 2467
215 2520
215 2596
215 2667
215 2757
215 2806
215 2844
215 3095
215 3110
215 3120
215 3224
215 3342
215 3428
216 291
216 484
216 1137
216 1341
216 1632
216 1916
216 1953
216 2139
216 2319
216 2374
216 2522
216 2559
216 2579
216 3167
216 3422
216 3704
217 528
217 529
217 579
217 610
217 614
217 669
217 677
217 866
217 1263
217 1350
217 1439
217 1518
217 1544
217 1565
217 1738
217 1789
217 1853
217 1997
217 2149
217 2171
217 2284
217 2337
217 2532
217 2609
217 2743
217 2752
217 2994
217 3057
217 3249
217 3500
217 3501
217 3513
217 3704
218 269
218 278
218 412
218 489
218 625
218 751
218 825
218 859
218 1115
218 1156
218 1221
218 1394
218 1421
218 1554
218 1795
218 1866
218 1900
218 2146
218 2452
218 2542
218 2622
218 2627
218 2780
218 2826
218 2878
218 2919
218 3057
218 3167
218 3424
218 3507
218 3528
218 3598
219 445
219 474
219 515
219 656
219 757
219 765
219 896
219 1205
219 1288
219 1341
219 1427
219 1622
219 1631
219 1652
219 1655
219 1857
219 1990
219 2001
219 2072
219 2183
219 2299
219 2359
219 2710
219 2811
219 3059
219 3204
219 3349
219 3455
219 3563
219 3618
219 3695
219 3726
219 3734
220 1226
221 411
221 1054
221 1236
221 1469
221 1881
221 2611
222 454
222 460
222 519
222 875
222 914
222 941
222 1178
222 1375
222 1384
222 1598
222 1617
222 1746
222 1884
222 2315
222 2337
222 2389
222 2775
222 2870
222 2971
222 3121
222 3196
222 3360
222 3442
222 3493
222 3543
222 3679
223 314
223 546
223 559
223 620
223 646
223 700
223 722
223 732
223 740
223 821
223 857
223 915
223 979
223 1210
223 1296
223 1452
223 1522
223 1557
223 1876
223 1961
223 1992
223 2003
223 2158
223 2209
223 2300
223 2324
223 2504
223 2533
223 2553
223 2571
223 2626
223 2774
223 2884
223 2889
223 2908
223 3016
223 3093
223 3259
223 3349
223 3426
223 3688
223 3731
223 3734
224 253
224 282
224 296
224 304
224 305
224 594
224 638
224 679
224 819
224 1008
224 1101
224 1196
224 1254
224 1265
224 1301
224 1362
224 1364
224 1391
224 1508
224 1510
224 1725
224 1825
224 1869
224 1905
224 1946
224 1957
224 2036
224 2129
224 2170
224 2177
224 2189
224 2210
224 2297
224 2316
224 2429
224 2639
224 2706
224 2941
224 3059
224 3145
224 3359
224 3544
224 3603
224 3639
224 3682
225 351
225 535
225 562
225 746
225 834
225 839
225 939
225 1031
225 1061
225 1091
225 1343
225 1532
225 1652
225 1862
225 1908
225 2017
225 2071
225 2164
225 2186
225 2310
225 2461
225 2763
225 2807
225 3345
225 3379
225 3407
225 3535
225 3627
225 3628
226 361
226 446
226 463
226 530
226 646
226 807
226 897
226 930
226 995
226 1007
226 1015
226 1204
226 1319
226 1531
226 1635
226 1658
226 1667
226 1708
226 1756
226 1775
226 2009
226 2042
226 2076
226 2081
226 2114
226 2124
226 2154
226 2289
226 2312
226 2341
226 2396
226 2452
226 2677
226 2687
226 2710
226 2789
226 2825
226 2842
226 2920
226 2975
226 3000
226 3008
226 3021
226 3081
226 3088
226 3135
226 3224
226 3255
226 3317
226 3375
226 3394
226 3469
226 3500
226 3546
226 3597
227 326
227 621
227 640
227 762
227 814
227 909
227 1064
227 1085
227 1114
227 1118
227 1197
227 1322
227 1334
227 1379
227 1456
227 1596
227 1646
227 1787
227 1799
227 1902
227 1981
227 2041
227 2111
227 2174
227 2235
227 2262
227 2319
227 2327
227 2507
227 2688
227 2782
227 2820
227 2966
227 3021
227 3039
227 3066
227 3128
227 3231
227 3243
227 3599
227 3659
227 3713
228 322
228 407
228 479
228 630
228 681
228 780
228 1002
228 1112
228 1178
228 1376
228 1612
228 1652
228 1848
228 1887
228 1963
228 2049
228 2515
228 2763
228 2813
228 2838
228 2871
228 2899
228 2908
228 3179
228 3274
228 3376
228 3394
228 3538
229 973
229 1783
229 2122
229 2183
229 3026
229 3376
229 3516
230 425
230 510
230 698
230 1038
230 1156
230 1590
230 1952
230 2056
230 2442
230 2757
230 2878
230 3082
230 3247
230 3456
230 3598
231 232
231 274
231 279
231 288
231 310
231 323
231 429
231 441
231 476
231 482
231 496
231 497
231 498
231 508
231 598
231 669
231 712
231 726
231 801
231 858
231 944
231 981
231 988
231 1199
231 1253
231 1256
231 1372
231 1400
231 1417
231 1469
231 1485
231 1516
231 1641
231 1664
231 1692
231 1748
231 1775
231 1872
231 1939
231 1952
231 1973
231 1986
231 2032
231 2115
231 2148
231 2171
231 2174
231 2190
231 2201
231 2230
231 2271
231 2292
231 2367
231 2370
231 2408
231 2447
231 2503
231 2514
231 2648
231 2679
231 2689
231 2699
231 2802
231 2887
231 2916
231 3004
231 3091
231 3127
231 3128
231 3151
231 3392
231 3404
231 3424
231 3490
231 3514
231 3632
231 3654
231 3659
231 3704
231 3714
231 3718
232 669
232 762
232 902
232 965
232 1114
232 1389
232 1519
232 1742
232 1799
232 1952
232 2122
232 2201
232 2262
232 2319
232 2406
232 2549
232 2648
232 2877
232 3066
232 3091
232 3396
232 3404
232 3514
232 3718
233 413
233 462
233 465
233 596
233 662
233 738
233 950
233 952
233 1236
233 1396
233 1708
233 1820
233 2081
233 2124
233 2167
233 2452
233 2634
233 2789
233 2825
233 3081
233 3088
233 3135
233 3251
233 3472
233 3663
234 301
234 476
234 534
234 1053
234 1090
234 1181
234 1244
234 1323
234 1530
234 1575
234 1681
234 1875
234 1975
234 2121
234 2236
234 2251
234 2516
234 2544
234 2556
234 2815
234 2921
234 2944
234 3022
234 3382
234 3727
235 422
235 486
235 614
235 753
235 809
235 835
235 998
235 1270
235 1345
235 1464
235 1552
235 1778
235 2075
235 2403
235 2629
235 2814
235 3034
235 3110
235 3167
235 3428
235 3536
235 3564
236 250
236 492
236 517
236 575
236 615
236 697
236 797
236 831
236 952
236 1217
236 1269
236 1297
236 1815
236 1949
236 2106
236 3255
236 3391
236 3500
236 3598
236 3660
237 242
237 305
237 323
237 326
237 414
237 619
237 655
237 718
237 762
237 817
237 878
237 1020
237 1183
237 1198
237 1306
237 1317
237 1496
237 1595
237 1725
237 1741
237 1792
237 1931
237 1977
237 2059
237 2098
237 2140
237 2152
237 2333
237 2392
237 2438
237 2534
237 2882
237 2906
237 3075
237 3140
237 3330
237 3478
237 3490
237 3563
237 3692
237 3714
238 286
238 340
238 343
238 361
238 423
238 487
238 489
238 568
238 571
238 579
238 608
238 646
238 649
238 696
238 881
238 890
238 953
238 967
238 1057
238 1087
238 1174
238 1237
238 1298
238 1337
238 1391
238 1457
238 1465
238 1578
238 1583
238 1664
238 1833
238 1918
238 2034
238 2057
238 2138
238 2147
238 2188
238 2404
238 2410
238 2454
238 2545
238 2608
238 2625
238 2710
238 2794
238 2808
238 3000
238 3153
238 3224
238 3247
238 3277
238 3301
238 3312
238 3415
238 3417
238 3426
238 3433
238 3466
238 3510
238 3526
238 3534
238 3600
238 3635
238 3745
239 517
239 543
239 638
239 802
239 837
239 968
239 1024
239 1164
239 1250
239 1270
239 1288
239 1323
239 1400
239 1489
239 1501
239 1552
239 1618
239 1630
239 1747
239 1837
239 1863
239 1876
239 1972
239 2003
239 2012
239 2093
239 2229
239 2254
239 2357
239 2379
239 2418
239 2484
239 2564
239 2565
239 2668
239 2705
239 2751
239 2889
239 2973
239 3071
239 3209
239 3225
239 3235
239 3302
239 3428
239 3544
239 3582
239 3675
239 3719
240 258
240 279
240 284
240 299
240 305
240 375
240 431
240 598
240 611
240 614
240 640
240 692
240 714
240 751
240 755
240 772
240 815
240 850
240 865
240 903
240 907
240 981
240 983
240 1021
240 1028
240 1049
240 1108
240 1127
240 1207
240 1222
240 1225
240 1339
240 1400
240 1543
240 1545
240 1570
240 1607
240 1659
240 1681
240 1692
240 1743
240 1775
240 1893
240 1908
240 1925
240 2034
240 2066
240 2133
240 2141
240 2152
240 2281
240 2282
240 2394
240 2531
240 2544
240 2574
240 2575
240 2605
240 2622
240 2687
240 2723
240 2743
240 2763
240 2790
240 2809
240 2817
240 2858
240 2869
240 2890
240 2907
240 2956
240 2979
240 2998
240 3066
240 3109
240 3120
240 3187
240 3209
240 3376
240 3424
240 3442
240 3536
240 3546
240 3715
240 3729
241 314
241 850
241 860
241 906
241 1108
241 1156
241 1737
241 1873
241 1908
241 1970
241 2187
241 2372
241 2924
241 3059
241 3060
241 3081
241 3359
241 3509
242 323
242 324
242 326
242 412
242 414
242 499
242 762
242 802
242 849
242 1020
242 1047
242 1427
242 1578
242 1977
242 2116
242 2147
242 2333
242 2361
242 2392
242 2489
242 2508
242 2906
242 2963
242 3478
242 3575
242 3618
242 3692
243 270
243 277
243 298
243 340
243 348
243 514
243 548
243 600
243 642
243 691
243 725
243 732
243 776
243 814
243 821
243 912
243 1009
243 1026
243 1057
243 1072
243 1121
243 1141
243 1218
243 1254
243 1265
243 1321
243 1333
243 1377
243 1402
243 1458
243 1471
243 1475
243 1537
243 1592
243 1870
243 1924
243 1972
243 2024
243 2046
243 2087
243 2129
243 2290
243 2320
243 2378
243 2478
243 2507
243 2508
243 2680
243 2745
243 2755
243 2804
243 2859
243 2960
243 2980
243 3029
243 3098
243 3116
243 3118
243 3180
243 3259
243 3386
243 3395
243 3415
243 3440
243 3648
243 3661
243 3669
243 3695
244 728
244 894
244 937
244 1336
244 1649
244 1652
244 1786
244 1887
244 2855
244 2871
244 2874
244 2899
244 2958
244 3017
245 467
245 484
245 540
245 562
245 678
245 859
245 940
245 1168
245 1307
245 1356
245 1587
245 1606
245 1632
245 1731
245 1886
245 1914
245 2099
245 2166
245 2234
245 2245
245 2360
245 2555
245 2615
245 2630
245 2655
245 2808
245 2809
245 2912
245 3102
245 3147
245 3226
245 3388
245 3412
245 3449
245 3499
245 3594
245 3620
245 3706
245 3720
245 3721
246 503
246 561
246 633
246 660
246 889
246 1180
246 1575
246 1725
246 2020
246 2638
246 2791
246 2944
246 2971
246 3171
246 3404
246 3690
247 581
247 1120
247 2398
247 3457
248 281
248 288
248 319
248 464
248 522
248 594
248 620
248 631
248 638
248 658
248 678
248 709
248 877
248 954
248 1012
248 1050
248 1116
248 1174
248 1186
248 1195
248 1210
248 1275
248 1321
248 1336
248 1416
248 1470
248 1471
248 1489
248 1550
248 1568
248 1589
248 1728
248 1754
248 1785
248 1788
248 1824
248 1825
248 1848
248 1849
248 1961
248 1978
248 2046
248 2158
248 2209
248 2229
248 2250
248 2378
248 2412
248 2445
248 2507
248 2595
248 2615
248 2648
248 2682
248 2703
248 2705
248 2730
248 2741
248 2751
248 2767
248 2774
248 2791
248 2804
248 2808
248 2850
248 2866
248 2911
248 2956
248 2961
248 3021
248 3030
248 3096
248 3153
248 3194
248 3203
248 3349
248 3359
248 3370
248 3458
248 3466
248 3520
248 3521
248 3540
248 3575
248 3599
248 3687
248 3688
248 3689
248 3721
248 3731
249 275
249 279
249 338
249 342
249 449
249 481
249 550
249 598
249 647
249 685
249 754
249 818
249 858
249 883
249 1002
249 1050
249 1065
249 1120
249 1167
249 1235
249 1357
249 1377
249 1480
249 1613
249 1616
249 1667
249 1725
249 1773
249 1898
249 1925
249 2135
249 2229
249 2378
249 2441
249 2696
249 2744
249 2791
249 2881
249 3029
249 3055
249 3070
249 3108
249 3131
249 3227
249 3306
249 3438
249 3562
249 3687
249 3719
249 3737
250 829
250 928
250 1004
250 1054
250 1398
250 1525
250 1642
250 1740
250 2124
250 2217
250 2440
250 2685
250 2724
250 2841
250 3008
250 3031
250 3032
250 3197
250 3222
250 3268
250 3271
250 3278
250 3365
250 3420
250 3487
250 3496
250 3667
250 3697
251 332
251 353
251 395
251 492
251 1160
251 1247
251 1302
251 1413
251 1431
251 1443
251 1538
251 1865
251 2145
251 2453
251 2610
251 2759
251 3234
251 3283
251 3326
251 3567
252 343
252 419
252 489
252 535
252 568
252 696
252 1107
252 1298
252 1357
252 1359
252 1457
252 1578
252 1596
252 1635
252 1664
252 1893
252 1918
252 2188
252 2224
252 2255
252 2271
252 2400
252 2608
252 2826
252 2975
252 3041
252 3301
252 3312
252 3503
252 3551
252 3586
253 282
253 305
253 342
253 586
253 638
253 838
253 967
253 1008
253 1254
253 1265
253 1391
253 1510
253 1825
253 1854
253 1959
253 2036
253 2429
253 2559
253 2639
253 2734
253 2980
253 3015
253 3101
253 3145
253 3243
253 3426
253 3466
253 3521
253 3682
253 3687
254 329
254 342
254 388
254 423
254 559
254 959
254 1075
254 1109
254 1372
254 1491
254 1505
254 1522
254 1528
254 2029
254 2473
254 2840
254 2915
254 2928
254 3000
254 3193
254 3199
254 3212
254 3218
254 3224
254 3242
254 3656
254 3661
255 294
255 321
255 441
255 519
255 594
255 892
255 1016
255 1071
255 1082
255 1144
255 1344
255 1444
255 1593
255 1698
255 1751
255 1817
255 1869
255 1925
255 2137
255 2210
255 2238
255 2253
255 2356
255 2544
255 2685
255 2706
255 2723
255 2771
255 2772
255 2829
255 2883
255 2917
255 2966
255 3016
255 3360
255 3380
256 277
256 428
256 503
256 1001
256 1020
256 1124
256 1194
256 1268
256 1372
256 1434
256 1450
256 1631
256 1644
256 1731
256 1799
256 1931
256 1986
256 2021
256 2060
256 2063
256 2115
256 2235
256 2526
256 2557
256 2569
256 2638
256 2701
256 2852
256 2940
256 3043
256 3168
256 3257
256 3260
256 3337
256 3466
256 3547
256 3575
257 732
257 752
257 767
257 821
257 959
257 1816
257 1951
257 2002
257 2584
257 2956
257 3093
258 306
258 316
258 326
258 340
258 358
258 389
258 426
258 461
258 512
258 513
258 540
258 631
258 633
258 668
258 709
258 721
258 802
258 899
258 916
258 983
258 1029
258 1134
258 1155
258 1168
258 1199
258 1272
258 1286
258 1290
258 1321
258 1347
258 1365
258 1383
258 1401
258 1408
258 1409
258 1415
258 1452
258 1465
258 1539
258 1567
258 1613
258 1630
258 1680
258 1761
258 1843
258 1925
258 1960
258 2049
258 2064
258 2104
258 2119
258 2154
258 2206
258 2219
258 2221
258 2236
258 2250
258 2291
258 2299
258 2311
258 2316
258 2368
258 2406
258 2414
258 2418
258 2430
258 2438
258 2474
258 2513
258 2515
258 2551
258 2555
258 2620
258 2696
258 2797
258 2813
258 2837
258 2849
258 2856
258 2869
258 2879
258 2956
258 2973
258 2988
258 2999
258 3009
258 3023
258 3030
258 3068
258 3075
258 3136
258 3139
258 3148
258 3158
258 3169
258 3191
258 3209
258 3234
258 3235
258 3253
258 3272
258 3349
258 3385
258 3408
258 3435
258 3442
258 3466
258 3477
258 3497
258 3510
258 3513
258 3543
258 3558
258 3562
258 3575
258 3592
258 3611
258 3617
258 3629
258 3641
258 3642
258 3649
258 3698
259 2392
260 446
260 841
260 1559
260 1727
260 1985
260 1996
260 2011
260 2147
260 2155
260 2238
260 2809
260 2964
260 3348
260 3625
261 291
261 333
261 337
261 553
261 570
261 578
261 628
261 636
261 940
261 1020
261 1030
261 1171
261 1220
261 1223
261 1259
261 1293
261 1507
261 1565
261 1592
261 1594
261 1748
261 1853
261 2035
261 2119
261 2299
261 2319
261 2401
261 2496
261 2498
261 2635
261 2688
261 2852
261 2856
261 2877
261 2948
261 3087
261 3311
261 3442
261 3543
261 3659
261 3694
261 3704
261 3718
261 3741
262 350
262 469
262 493
262 494
262 512
262 540
262 570
262 578
262 666
262 681
262 684
262 875
262 1004
262 1021
262 1030
262 1043
262 1107
262 1132
262 1183
262 1266
262 1292
262 1454
262 1477
262 1513
262 1594
262 1699
262 1747
262 1853
262 1931
262 2034
262 2035
262 2055
262 2090
262 2116
262 2575
262 2627
262 2665
262 2666
262 2682
262 2852
262 2877
262 2978
262 3061
262 3107
262 3117
262 3268
262 3390
262 3397
262 3449
262 3463
262 3588
262 3600
262 3686
262 3704
263 285
263 298
263 479
263 620
263 691
263 754
263 883
263 980
263 1050
263 1121
263 1141
263 1186
263 1195
263 1321
263 1333
263 1377
263 1458
263 1471
263 1475
263 1533
263 1567
263 1848
263 1902
263 1918
263 1929
263 1972
263 1993
263 2057
263 2087
263 2218
263 2236
263 2378
263 2517
263 2745
263 2804
263 2808
263 3010
263 3227
263 3373
263 3386
263 3549
263 3639
263 3717
264 732
264 839
264 930
264 1104
264 1364
264 2440
264 3275
264 3667
265 853
265 1611
265 1834
265 1837
265 1988
265 2015
265 2467
265 2973
266 276
266 288
266 326
266 379
266 422
266 531
266 908
266 1198
266 1450
266 1520
266 1687
266 1695
266 2804
266 2970
266 3194
266 3219
266 3310
266 3330
267 514
267 2388
267 2792
268 757
268 1239
268 1571
268 1944
268 1981
268 2132
268 2177
268 2201
268 2632
268 2641
268 3396
268 3514
269 291
269 376
269 412
269 479
269 489
269 570
269 1292
269 1444
269 1554
269 1893
269 2627
269 2723
269 2852
269 2877
269 3047
269 3117
269 3124
269 3187
269 3424
270 298
270 324
270 351
270 392
270 445
270 514
270 515
270 530
270 557
270 561
270 584
270 593
270 594
270 606
270 629
270 642
270 656
270 675
270 765
270 807
270 814
270 840
270 844
270 887
270 916
270 970
270 980
270 988
270 1002
270 1022
270 1023
270 1037
270 1057
270 1072
270 1075
270 1085
270 1087
270 1097
270 1149
270 1155
270 1211
270 1227
270 1334
270 1376
270 1417
270 1458
270 1465
270 1475
270 1537
270 1546
270 1564
270 1597
270 1598
270 1660
270 1688
270 1755
270 1864
270 1902
270 1912
270 1956
270 1969
270 2001
270 2034
270 2042
270 2064
270 2104
270 2112
270 2168
270 2176
270 2289
270 2290
270 2329
270 2369
270 2390
270 2412
270 2469
270 2478
270 2508
270 2510
270 2521
270 2555
270 2601
270 2636
270 2659
270 2710
270 2755
270 2770
270 2804
270 2842
270 2895
270 2942
270 2950
270 2973
270 3000
270 3007
270 3021
270 3070
270 3118
270 3138
270 3224
270 3227
270 3258
270 3274
270 3316
270 3332
270 3339
270 3386
270 3450
270 3465
270 3510
270 3534
270 3599
270 3624
270 3640
270 3689
270 3744
271 277
271 307
271 315
271 340
271 341
271 342
271 389
271 399
271 407
271 419
271 426
271 433
271 472
271 546
271 605
271 646
271 670
271 673
271 685
271 699
271 704
271 722
271 725
271 761
271 838
271 896
271 898
271 934
271 974
271 1002
271 1024
271 1030
271 1072
271 1121
271 1130
271 1155
271 1183
271 1198
271 1206
271 1239
271 1286
271 1298
271 1321
271 1377
271 1471
271 1497
271 1501
271 1530
271 1652
271 1788
271 1822
271 1833
271 1848
271 1894
271 1971
271 1972
271 1984
271 2001
271 2014
271 2042
271 2049
271 2057
271 2125
271 2134
271 2147
271 2219
271 2235
271 2236
271 2264
271 2291
271 2292
271 2308
271 2316
271 2430
271 2480
271 2492
271 2553
271 2557
271 2562
271 2564
271 2620
271 2640
271 2664
271 2666
271 2672
271 2687
271 2732
271 2745
271 2751
271 2763
271 2787
271 2791
271 2804
271 2836
271 2843
271 2856
271 2867
271 2882
271 2896
271 2899
271 3021
271 3029
271 3047
271 3068
271 3070
271 3075
271 3139
271 3147
271 3164
271 3245
271 3247
271 3253
271 3259
271 3260
271 3272
271 3334
271 3343
271 3349
271 3366
271 3370
271 3371
271 3386
271 3466
271 3476
271 3477
271 3510
271 3518
271 3530
271 3534
271 3540
271 3558
271 3585
271 3609
271 3615
271 3629
271 3655
271 3661
271 3689
271 3714
271 3718
272 279
272 319
272 338
272 342
272 394
272 415
272 437
272 440
272 537
272 546
272 593
272 594
272 623
272 646
272 714
272 759
272 804
272 838
272 896
272 897
272 927
272 964
272 968
272 1094
272 1130
272 1151
272 1156
272 1197
272 1200
272 1235
272 1280
272 1296
272 1323
272 1344
272 1358
272 1491
272 1501
272 1544
272 1674
272 1686
272 1705
272 1822
272 1841
272 1890
272 1916
272 1925
272 1992
272 1996
272 2120
272 2238
272 2251
272 2270
272 2311
272 2337
272 2374
272 2390
272 2430
272 2643
272 2749
272 2791
272 2856
272 2922
272 2985
272 3004
272 3093
272 3123
272 3139
272 3147
272 3234
272 3243
272 3296
272 3316
272 3371
272 3466
272 3534
272 3573
272 3585
272 3638
272 3684
272 3689
272 3714
273 556
273 1241
273 1247
273 1905
273 2083
273 2440
273 3031
273 3197
273 3223
273 3275
273 3561
274 476
274 508
274 719
274 1571
274 1639
274 1653
274 1830
274 2148
274 2174
274 3376
274 3659
274 3704
275 345
275 435
275 562
275 630
275 690
275 897
275 901
275 936
275 951
275 1014
275 1025
275 1120
275 1278
275 1493
275 1619
275 1630
275 1651
275 1700
275 1797
275 1940
275 2139
275 2152
275 2242
275 2246
275 2337
275 2625
275 2652
275 2703
275 2713
275 2738
275 2778
275 2808
275 2912
275 2946
275 3205
275 3265
275 3426
275 3538
275 3588
275 3656
275 3714
276 341
276 379
276 422
276 808
276 908
276 1198
276 1272
276 1318
276 1475
276 1520
276 1564
276 1566
276 1673
276 1687
276 1695
276 1831
276 1912
276 1937
276 2020
276 2079
276 2156
276 2237
276 2240
276 2262
276 2306
276 2410
276 2455
276 2554
276 2751
276 2769
276 2793
276 2848
276 2856
276 2935
276 2970
276 3045
276 3219
276 3247
276 3310
276 3330
276 3426
276 3677
277 306
277 307
277 310
277 316
277 317
277 326
277 333
277 340
277 342
277 347
277 348
277 399
277 437
277 449
277 489
277 512
277 513
277 515
277 531
277 561
277 594
277 600
277 619
277 631
277 633
277 642
277 658
277 685
277 699
277 718
277 732
277 752
277 754
277 764
277 821
277 841
277 849
277 854
277 892
277 896
277 912
277 967
277 1010
277 1020
277 1024
277 1050
277 1057
277 1082
277 1116
277 1133
277 1134
277 1141
277 1168
277 1218
277 1228
277 1236
277 1288
277 1290
277 1294
277 1299
277 1321
277 1358
277 1365
277 1372
277 1402
277 1427
277 1465
277 1469
277 1471
277 1495
277 1497
277 1501
277 1522
277 1526
277 1557
277 1567
277 1571
277 1578
277 1593
277 1613
277 1630
277 1645
277 1656
277 1679
277 1724
277 1725
277 1788
277 1799
277 1814
277 1825
277 1867
277 1870
277 1897
277 1916
277 1924
277 1941
277 1981
277 2024
277 2040
277 2059
277 2098
277 2129
277 2138
277 2158
277 2174
277 2206
277 2210
277 2219
277 2229
277 2254
277 2299
277 2320
277 2333
277 2337
277 2378
277 2406
277 2408
277 2438
277 2443
277 2452
277 2455
277 2474
277 2497
277 2507
277 2512
277 2513
277 2517
277 2559
277 2564
277 2578
277 2588
277 2597
277 2615
277 2617
277 2640
277 2649
277 2655
277 2664
277 2668
277 2682
277 2703
277 2717
277 2734
277 2741
277 2751
277 2769
277 2774
277 2791
277 2808
277 2827
277 2849
277 2933
277 2944
277 2960
277 2980
277 2999
277 3010
277 3012
277 3015
277 3047
277 3070
277 3071
277 3075
277 3098
277 3121
277 3128
277 3139
277 3153
277 3183
277 3194
277 3227
277 3234
277 3335
277 3337
277 3349
277 3359
277 3385
277 3386
277 3389
277 3405
277 3410
277 3440
277 3466
277 3478
277 3497
277 3520
277 3521
277 3534
277 3563
277 3575
277 3578
277 3584
277 3616
277 3618
277 3629
277 3649
277 3661
277 3662
277 3669
277 3689
277 3695
277 3721
277 3734
277 3746
278 607
278 698
278 759
278 825
278 1156
278 1221
278 1231
278 1744
278 1845
278 2054
278 2146
278 2175
278 2222
278 2452
278 2493
278 2542
278 2780
278 2826
278 2878
278 2982
278 3167
278 3249
278 3453
278 3507
278 3528
278 3546
278 3573
279 316
279 342
279 418
279 476
279 497
279 517
279 563
279 598
279 631
279 669
279 697
279 712
279 726
279 751
279 781
279 805
279 825
279 891
279 901
279 935
279 951
279 1000
279 1014
279 1036
279 1068
279 1156
279 1169
279 1220
279 1290
279 1357
279 1365
279 1469
279 1492
279 1613
279 1619
279 1692
279 1742
279 1744
279 1748
279 1758
279 1773
279 1908
279 1913
279 1939
279 1952
279 1996
279 2002
279 2014
279 2067
279 2135
279 2141
279 2159
279 2174
279 2197
279 2201
279 2229
279 2242
279 2323
279 2356
279 2399
279 2406
279 2438
279 2447
279 2520
279 2575
279 2581
279 2591
279 2628
279 2648
279 2687
279 2738
279 2749
279 2759
279 2802
279 2852
279 2877
279 2951
279 2963
279 3004
279 3037
279 3075
279 3091
279 3112
279 3128
279 3137
279 3150
279 3192
279 3234
279 3349
279 3376
279 3385
279 3389
279 3390
279 3396
279 3404
279 3413
279 3453
279 3547
279 3578
279 3598
279 3627
279 3637
279 3645
279 3649
279 3654
279 3686
279 3718
279 3739
280 306
280 497
280 554
280 586
280 599
280 602
280 638
280 837
280 935
280 1071
280 1087
280 1137
280 1174
280 1364
280 1403
280 1489
280 1501
280 1734
280 1854
280 2209
280 2683
280 2703
280 2789
280 2808
280 2819
280 3101
280 3137
280 3150
280 3209
280 3309
280 3456
280 3511
280 3568
280 3575
280 3603
280 3637
280 3656
280 3664
280 3682
280 3702
280 3721
281 303
281 306
281 319
281 349
281 467
281 522
281 586
281 638
281 658
281 678
281 751
281 935
281 954
281 1010
281 1012
281 1053
281 1060
281 1134
281 1193
281 1210
281 1218
281 1275
281 1310
281 1336
281 1369
281 1440
281 1470
281 1487
281 1495
281 1526
281 1550
281 1568
281 1622
281 1690
281 1728
281 1754
281 1785
281 1788
281 1825
281 1960
281 1961
281 2158
281 2209
281 2229
281 2337
281 2371
281 2445
281 2478
281 2507
281 2555
281 2595
281 2615
281 2617
281 2672
281 2703
281 2705
281 2730
281 2767
281 2774
281 2808
281 2830
281 2836
281 2911
281 3096
281 3106
281 3183
281 3253
281 3370
281 3540
281 3561
281 3575
281 3688
281 3689
281 3706
281 3721
281 3731
282 304
282 305
282 572
282 819
282 903
282 1008
282 1073
282 1196
282 1254
282 1265
282 1362
282 1364
282 1391
282 1508
282 1510
282 1848
282 1946
282 2036
282 2189
282 2429
282 2566
282 2639
282 2721
282 2850
282 3101
282 3125
282 3259
282 3603
283 814
283 901
283 1075
283 1114
283 1465
283 1516
283 2190
283 2430
283 2498
283 2559
283 2648
283 2688
283 3227
283 3531
283 3601
283 3717
284 292
284 381
284 498
284 500
284 598
284 706
284 730
284 769
284 965
284 981
284 1036
284 1049
284 1058
284 1084
284 1222
284 1225
284 1339
284 1389
284 1519
284 1543
284 1551
284 1571
284 1607
284 1651
284 1653
284 1659
284 1681
284 1699
284 1747
284 1775
284 1952
284 2034
284 2116
284 2141
284 2152
284 2191
284 2294
284 2549
284 2575
284 2605
284 2648
284 2683
284 2713
284 2743
284 2763
284 3123
284 3151
284 3209
284 3234
284 3377
284 3389
284 3424
284 3513
284 3548
284 3569
284 3686
284 3687
284 3714
284 3729
285 478
285 547
285 558
285 620
285 638
285 839
285 876
285 899
285 993
285 1050
285 1141
285 1158
285 1186
285 1195
285 1321
285 1425
285 1480
285 1510
285 1809
285 1821
285 1902
285 1972
285 2057
285 2210
285 2219
285 2295
285 2474
285 2640
285 2648
285 2665
285 2683
285 2745
285 2766
285 2804
285 2808
285 2944
285 2947
285 2959
285 3010
285 3092
285 3143
285 3518
285 3521
285 3549
285 3575
285 3639
285 3675
285 3689
285 3716
285 3717
286 326
286 469
286 643
286 673
286 684
286 989
286 1179
286 1747
286 1831
286 1997
286 2021
286 2563
286 3168
286 3281
287 472
287 1984
287 2313
287 3260
287 3334
287 3530
288 326
288 471
288 578
288 629
288 665
288 679
288 783
288 793
288 880
288 987
288 1053
288 1098
288 1202
288 1220
288 1661
288 1663
288 1678
288 1894
288 2092
288 2128
288 2148
288 2445
288 2475
288 2570
288 2625
288 2645
288 2779
288 2782
288 2804
288 2838
288 2866
288 2906
288 3003
288 3203
288 3219
288 3231
288 3270
288 3336
288 3393
288 3408
288 3491
288 3502
288 3519
288 3545
288 3692
288 3718
289 474
289 524
289 696
289 1034
289 1065
289 1166
289 1298
289 1427
289 1519
289 1790
289 1921
289 1962
289 1981
289 2313
289 2400
289 2903
289 2916
289 3045
289 3048
289 3194
289 3455
289 3491
289 3618
289 3619
289 3695
290 353
290 398
290 422
290 565
290 637
290 733
290 753
290 1188
290 1241
290 1413
290 1712
290 1735
290 1796
290 2341
290 2440
290 2464
290 2737
290 2809
290 2853
290 3031
290 3081
290 3421
290 3561
290 3570
290 3746
291 337
291 385
291 476
291 482
291 493
291 508
291 553
291 570
291 636
291 641
291 706
291 836
291 875
291 924
291 1050
291 1220
291 1223
291 1228
291 1274
291 1276
291 1316
291 1356
291 1442
291 1586
291 1632
291 1691
291 1847
291 1853
291 1948
291 1985
291 2035
291 2084
291 2141
291 2323
291 2370
291 2498
291 2503
291 2522
291 2627
291 2657
291 2809
291 2877
291 2948
291 3087
291 3111
291 3117
291 3311
291 3389
291 3659
291 3686
291 3704
292 340
292 342
292 378
292 425
292 473
292 548
292 559
292 598
292 620
292 666
292 700
292 815
292 857
292 896
292 967
292 983
292 987
292 1127
292 1168
292 1169
292 1173
292 1299
292 1321
292 1331
292 1333
292 1365
292 1383
292 1469
292 1471
292 1518
292 1557
292 1590
292 1613
292 1648
292 1653
292 1661
292 1674
292 1703
292 1734
292 1744
292 1754
292 1785
292 1875
292 1897
292 1929
292 1975
292 1996
292 2046
292 2087
292 2187
292 2216
292 2323
292 2324
292 2442
292 2533
292 2553
292 2571
292 2683
292 2745
292 2765
292 2771
292 2808
292 2907
292 2973
292 2988
292 2989
292 3021
292 3068
292 3095
292 3136
292 3196
292 3209
292 3242
292 3259
292 3349
292 3373
292 3383
292 3386
292 3445
292 3520
292 3569
292 3575
292 3591
292 3673
292 3682
292 3683
292 3684
292 3689
292 3712
292 3734
293 1664
294 445
294 519
294 666
294 892
294 1057
294 1135
294 1235
294 1444
294 1544
294 1845
294 1991
294 2022
294 2030
294 2137
294 2232
294 2238
294 2253
294 2356
294 2374
294 2544
294 2625
294 2706
294 2723
294 2829
294 2877
294 2884
294 2907
294 2917
294 2973
294 3044
294 3192
294 3324
294 3360
294 3413
294 3449
294 3523
294 3548
295 326
295 342
295 446
295 515
295 628
295 838
295 921
295 1002
295 1010
295 1121
295 1321
295 1366
295 1372
295 1377
295 1434
295 1465
295 1471
295 1472
295 1549
295 1758
295 1809
295 1838
295 1860
295 1959
295 1963
295 1978
295 2033
295 2125
295 2218
295 2287
295 2298
295 2299
295 2333
295 2438
295 2559
295 2664
295 2745
295 2791
295 2792
295 2832
295 2906
295 2983
295 3097
295 3179
295 3312
295 3325
295 3349
295 3383
295 3386
295 3400
295 3466
295 3547
295 3626
295 3648
295 3659
295 3666
295 3689
295 3692
295 3717
295 3746
296 305
296 679
296 749
296 867
296 1225
296 1301
296 1362
296 1381
296 1613
296 1869
296 1946
296 1955
296 1957
296 2036
296 2129
296 2297
296 2392
296 2681
296 3144
297 3323
298 361
298 381
298 392
298 455
298 524
298 589
298 593
298 594
298 606
298 642
298 656
298 665
298 675
298 685
298 704
298 832
298 877
298 887
298 916
298 980
298 1002
298 1022
298 1051
298 1072
298 1085
298 1087
298 1097
298 1178
298 1322
298 1337
298 1458
298 1475
298 1537
298 1546
298 1564
298 1597
298 1679
298 1688
298 1729
298 1833
298 1843
298 1848
298 1877
298 1912
298 1918
298 1967
298 2001
298 2042
298 2068
298 2112
298 2160
298 2176
298 2218
298 2257
298 2290
298 2306
298 2369
298 2412
298 2469
298 2478
298 2554
298 2601
298 2636
298 2659
298 2710
298 2728
298 2842
298 2850
298 2895
298 2941
298 3021
298 3086
298 3116
298 3129
298 3152
298 3161
298 3178
298 3274
298 3276
298 3386
298 3399
298 3433
298 3450
298 3510
298 3522
298 3638
298 3640
298 3717
299 506
299 796
299 1509
299 1565
299 1834
299 1852
299 1893
299 2471
299 2605
299 2858
299 3035
299 3066
299 3237
299 3448
299 3715
300 808
300 876
300 999
300 2190
301 380
301 420
301 439
301 445
301 454
301 503
301 545
301 762
301 974
301 1023
301 1559
301 1985
301 2190
301 2363
301 2426
301 2435
301 2559
301 2562
301 2766
301 2843
301 3171
301 3259
301 3479
301 3645
301 3669
302 361
302 414
302 512
302 526
302 610
302 1015
302 1020
302 1272
302 1350
302 1531
302 1565
302 1619
302 1630
302 1687
302 2025
302 2034
302 2059
302 2104
302 2149
302 2416
302 2452
302 2532
302 2659
302 2710
302 2752
302 2836
302 2994
302 3070
302 3193
302 3574
303 306
303 319
303 340
303 342
303 347
303 382
303 420
303 423
303 426
303 449
303 512
303 548
303 559
303 572
303 586
303 589
303 599
303 638
303 658
303 742
303 765
303 838
303 883
303 896
303 897
303 967
303 968
303 1024
303 1050
303 1065
303 1073
303 1164
303 1168
303 1174
303 1195
303 1288
303 1321
303 1333
303 1334
303 1366
303 1377
303 1400
303 1416
303 1471
303 1480
303 1487
303 1489
303 1501
303 1567
303 1630
303 1668
303 1734
303 1754
303 1761
303 1788
303 1844
303 1848
303 1854
303 1859
303 1863
303 1870
303 1876
303 1929
303 1948
303 1959
303 2024
303 2087
303 2219
303 2221
303 2240
303 2291
303 2324
303 2325
303 2337
303 2430
303 2445
303 2455
303 2507
303 2544
303 2559
303 2564
303 2578
303 2655
303 2696
303 2703
303 2705
303 2721
303 2745
303 2751
303 2766
303 2791
303 2808
303 2848
303 2850
303 2879
303 2911
303 2944
303 2964
303 3061
303 3068
303 3071
303 3096
303 3101
303 3125
303 3136
303 3145
303 3185
303 3220
303 3243
303 3259
303 3301
303 3349
303 3359
303 3373
303 3426
303 3466
303 3477
303 3520
303 3521
303 3534
303 3544
303 3595
303 3629
303 3639
303 3675
303 3676
303 3682
303 3689
303 3721
303 3730
303 3734
304 305
304 346
304 638
304 679
304 819
304 1008
304 1362
304 1364
304 1391
304 1508
304 1510
304 1869
304 1946
304 1957
304 2036
304 2129
304 2189
304 2210
304 2233
304 2297
304 2316
304 2429
304 2445
304 2474
304 2559
304 2639
304 2683
304 2808
304 3101
304 3145
304 3359
304 3405
304 3521
304 3544
304 3603
304 3682
305 423
305 513
305 543
305 561
305 570
305 604
305 633
305 679
305 692
305 719
305 903
305 944
305 1008
305 1010
305 1038
305 1100
305 1137
305 1187
305 1196
305 1225
305 1278
305 1301
305 1322
305 1362
305 1391
305 1400
305 1457
305 1489
305 1501
305 1510
305 1613
305 1618
305 1626
305 1639
305 1700
305 1783
305 1863
305 1869
305 1870
305 1941
305 1946
305 1955
305 1957
305 1959
305 2036
305 2122
305 2129
305 2133
305 2152
305 2174
305 2177
305 2202
305 2262
305 2297
305 2372
305 2418
305 2429
305 2559
305 2622
305 2652
305 2655
305 2705
305 2743
305 2808
305 2865
305 2869
305 2877
305 2906
305 2907
305 2944
305 2964
305 2975
305 3046
305 3061
305 3097
305 3121
305 3131
305 3184
305 3259
305 3359
305 3547
305 3596
305 3603
305 3606
305 3689
305 3702
305 3729
306 319
306 340
306 342
306 347
306 386
306 399
306 420
306 554
306 562
306 579
306 586
306 594
306 595
306 599
306 602
306 620
306 638
306 658
306 740
306 968
306 1030
306 1087
306 1116
306 1119
306 1141
306 1148
306 1178
306 1218
306 1318
306 1321
306 1402
306 1416
306 1452
306 1453
306 1457
306 1471
306 1487
306 1501
306 1532
306 1630
306 1691
306 1703
306 1761
306 1762
306 1772
306 1785
306 1849
306 1863
306 1867
306 2012
306 2016
306 2049
306 2066
306 2071
306 2156
306 2158
306 2170
306 2213
306 2229
306 2251
306 2254
306 2309
306 2324
306 2337
306 2378
306 2462
306 2474
306 2478
306 2533
306 2554
306 2559
306 2571
306 2615
306 2625
306 2630
306 2655
306 2703
306 2705
306 2741
306 2745
306 2753
306 2774
306 2797
306 2804
306 2808
306 2813
306 2865
306 2960
306 2981
306 2994
306 3059
306 3068
306 3071
306 3093
306 3101
306 3131
306 3178
306 3209
306 3212
306 3226
306 3259
306 3309
306 3315
306 3349
306 3370
306 3426
306 3449
306 3511
306 3521
306 3534
306 3562
306 3575
306 3601
306 3619
306 3639
306 3676
306 3681
306 3689
306 3721
306 3726
307 322
307 329
307 388
307 515
307 561
307 595
307 649
307 967
307 1020
307 1195
307 1284
307 1505
307 1719
307 1859
307 2158
307 2206
307 2229
307 2249
307 2480
307 2564
307 2578
307 2751
307 2787
307 2808
307 2915
307 2944
307 2989
307 3046
307 3054
307 3121
307 3266
307 3364
307 3388
307 3466
307 3478
307 3656
307 3745
308 701
308 931
308 965
308 1020
308 1266
308 1742
308 2467
308 2771
308 3446
308 3668
309 416
309 418
309 1765
309 1904
309 2420
309 2523
309 2975
309 3357
309 3546
310 680
310 730
310 987
310 998
310 1081
310 1128
310 1661
310 1748
310 1772
310 1776
310 1939
310 2110
310 2159
310 2174
310 2252
310 2277
310 2570
310 2581
310 2605
310 2733
310 2839
310 2987
310 3288
310 3609
310 3661
311 422
311 564
311 565
311 566
311 711
311 753
311 2210
311 2341
311 3081
311 3746
312 342
312 631
312 752
312 1064
312 1321
312 1711
312 1725
312 2174
312 2219
312 2287
312 2408
312 2648
312 2658
312 3110
313 534
313 2107
313 2251
313 2387
313 2480
313 2544
313 2556
313 2815
313 3252
313 3382
314 358
314 546
314 614
314 700
314 857
314 897
314 915
314 1283
314 1719
314 1992
314 1996
314 2003
314 2223
314 2282
314 2289
314 2454
314 2471
314 2515
314 2531
314 2732
314 2908
314 2979
314 3242
314 3277
314 3349
314 3734
315 316
315 428
315 429
315 665
315 699
315 764
315 790
315 842
315 989
315 1004
315 1010
315 1082
315 1183
315 1335
315 1415
315 1641
315 1934
315 1944
315 1996
315 2128
315 2132
315 2174
315 2205
315 2213
315 2235
315 2474
315 2568
315 2662
315 2666
315 2706
315 2882
315 2885
315 3037
315 3040
315 3128
315 3153
315 3211
315 3382
315 3385
315 3408
315 3585
315 3659
315 3743
316 324
316 342
316 365
316 381
316 382
316 437
316 489
316 490
316 512
316 513
316 580
316 625
316 626
316 631
316 633
316 641
316 685
316 699
316 706
316 718
316 730
316 733
316 738
316 752
316 759
316 784
316 803
316 815
316 840
316 864
316 890
316 891
316 906
316 921
316 953
316 967
316 968
316 1024
316 1030
316 1043
316 1049
316 1062
316 1075
316 1129
316 1155
316 1164
316 1240
316 1285
316 1286
316 1288
316 1321
316 1326
316 1365
316 1390
316 1391
316 1400
316 1408
316 1453
316 1459
316 1465
316 1501
316 1510
316 1518
316 1522
316 1549
316 1557
316 1559
316 1566
316 1567
316 1569
316 1596
316 1610
316 1613
316 1630
316 1645
316 1648
316 1670
316 1681
316 1703
316 1708
316 1725
316 1733
316 1758
316 1761
316 1770
316 1780
316 1799
316 1822
316 1829
316 1838
316 1876
316 1885
316 1908
316 1918
316 1934
316 1935
316 1959
316 1987
316 2031
316 2040
316 2066
316 2117
316 2131
316 2141
316 2174
316 2205
316 2219
316 2235
316 2236
316 2243
316 2291
316 2295
316 2299
316 2316
316 2337
316 2339
316 2363
316 2374
316 2394
316 2406
316 2414
316 2418
316 2430
316 2438
316 2455
316 2497
316 2528
316 2547
316 2549
316 2551
316 2564
316 2575
316 2588
316 2605
316 2607
316 2620
316 2640
316 2647
316 2649
316 2658
316 2662
316 2666
316 2668
316 2696
316 2702
316 2745
316 2766
316 2783
316 2791
316 2858
316 2879
316 2943
316 2944
316 2951
316 2960
316 2999
316 3013
316 3016
316 3029
316 3068
316 3071
316 3075
316 3121
316 3136
316 3139
316 3153
316 3169
316 3171
316 3176
316 3191
316 3227
316 3234
316 3251
316 3277
316 3336
316 3349
316 3367
316 3382
316 3389
316 3408
316 3426
316 3435
316 3461
316 3466
316 3477
316 3482
316 3523
316 3547
316 3558
316 3562
316 3574
316 3575
316 3578
316 3592
316 3603
316 3611
316 3649
316 3675
316 3684
316 3687
316 3726
316 3735
317 327
317 342
317 371
317 378
317 426
317 489
317 513
317 515
317 561
317 571
317 579
317 627
317 666
317 752
317 771
317 832
317 896
317 967
317 1057
317 1065
317 1087
317 1174
317 1228
317 1321
317 1465
317 1471
317 1510
317 1522
317 1526
317 1557
317 1567
317 1593
317 1622
317 1630
317 1631
317 1671
317 1679
317 1724
317 1725
317 1879
317 1959
317 1972
317 1978
317 2012
317 2040
317 2057
317 2186
317 2219
317 2229
317 2236
317 2250
317 2319
317 2321
317 2404
317 2408
317 2414
317 2418
317 2430
317 2508
317 2513
317 2551
317 2582
317 2620
317 2640
317 2648
317 2741
317 2745
317 2751
317 2848
317 2879
317 2944
317 3029
317 3030
317 3045
317 3059
317 3061
317 3071
317 3156
317 3164
317 3191
317 3234
317 3259
317 3312
317 3317
317 3323
317 3325
317 3337
317 3349
317 3367
317 3373
317 3376
317 3395
317 3510
317 3558
317 3611
317 3629
317 3687
317 3689
317 3717
317 3745
318 1297
318 2440
319 349
319 407
319 430
319 514
319 515
319 522
319 569
319 595
319 642
319 658
319 665
319 678
319 704
319 721
319 732
319 740
319 764
319 767
319 886
319 954
319 1012
319 1053
319 1193
319 1210
319 1234
319 1275
319 1288
319 1310
319 1336
319 1337
319 1440
319 1470
319 1495
319 1526
319 1533
319 1550
319 1561
319 1568
319 1668
319 1728
319 1741
319 1754
319 1785
319 1787
319 1788
319 1822
319 1825
319 1843
319 1901
319 1961
319 2004
319 2006
319 2158
319 2209
319 2363
319 2445
319 2478
319 2507
319 2508
319 2554
319 2582
319 2595
319 2615
319 2617
319 2703
319 2727
319 2730
319 2755
319 2767
319 2774
319 2791
319 2808
319 2830
319 2836
319 2882
319 2911
319 2956
319 2973
319 3047
319 3096
319 3106
319 3118
319 3145
319 3147
319 3183
319 3259
319 3296
319 3370
319 3540
319 3558
319 3561
319 3688
319 3689
319 3693
319 3695
319 3731
320 324
320 326
320 640
320 816
320 1058
320 1075
320 1303
320 1516
320 1547
320 1586
320 1699
320 1777
320 1877
320 1978
320 2190
320 2331
320 2350
320 2468
320 2599
320 3026
320 3227
320 3516
320 3520
320 3578
320 3626
320 3692
321 375
321 376
321 441
321 506
321 519
321 570
321 579
321 594
321 618
321 622
321 703
321 786
321 875
321 876
321 892
321 981
321 1081
321 1122
321 1197
321 1270
321 1415
321 1444
321 1460
321 1568
321 1577
321 1596
321 1599
321 1651
321 1681
321 1698
321 1705
321 1751
321 1775
321 1797
321 1805
321 1817
321 1884
321 1905
321 1925
321 1997
321 2034
321 2052
321 2141
321 2165
321 2245
321 2406
321 2567
321 2640
321 2695
321 2723
321 2743
321 2771
321 2883
321 2884
321 2917
321 2941
321 2967
321 3010
321 3013
321 3109
321 3360
321 3385
321 3408
321 3418
321 3601
321 3638
321 3686
321 3721
322 329
322 388
322 484
322 561
322 595
322 620
322 638
322 649
322 700
322 809
322 821
322 833
322 837
322 857
322 1207
322 1356
322 1457
322 1505
322 1613
322 1859
322 1882
322 2080
322 2223
322 2227
322 2249
322 2515
322 2527
322 2559
322 2763
322 2771
322 2808
322 2809
322 2836
322 2908
322 2915
322 2989
322 3046
322 3054
322 3121
322 3194
322 3266
322 3298
322 3426
322 3575
322 3603
322 3639
322 3656
323 327
323 380
323 478
323 619
323 690
323 692
323 758
323 762
323 908
323 1130
323 1158
323 1235
323 1626
323 1922
323 1926
323 1931
323 2132
323 2140
323 2141
323 2333
323 2392
323 2449
323 2562
323 2890
323 2902
323 2947
323 2956
323 3167
323 3264
323 3490
323 3613
324 326
324 340
324 347
324 371
324 378
324 382
324 474
324 496
324 501
324 504
324 513
324 528
324 531
324 548
324 589
324 629
324 631
324 633
324 640
324 699
324 709
324 725
324 726
324 746
324 833
324 895
324 921
324 967
324 1030
324 1043
324 1073
324 1085
324 1111
324 1129
324 1135
324 1186
324 1284
324 1303
324 1310
324 1321
324 1337
324 1365
324 1456
324 1465
324 1537
324 1549
324 1681
324 1700
324 1703
324 1723
324 1745
324 1748
324 1801
324 1944
324 1948
324 1978
324 2109
324 2130
324 2177
324 2222
324 2241
324 2256
324 2325
324 2333
324 2350
324 2455
324 2458
324 2478
324 2508
324 2513
324 2533
324 2593
324 2601
324 2607
324 2631
324 2647
324 2649
324 2755
324 2766
324 2877
324 2891
324 2933
324 3007
324 3015
324 3022
324 3110
324 3118
324 3127
324 3145
324 3153
324 3156
324 3164
324 3191
324 3227
324 3234
324 3349
324 3359
324 3367
324 3382
324 3386
324 3404
324 3449
324 3462
324 3573
324 3626
324 3641
324 3692
325 988
325 1617
325 1746
325 2276
326 380
326 406
326 440
326 456
326 508
326 524
326 528
326 549
326 578
326 609
326 619
326 629
326 631
326 640
326 673
326 686
326 782
326 785
326 791
326 827
326 856
326 898
326 909
326 983
326 1041
326 1053
326 1057
326 1058
326 1069
326 1075
326 1085
326 1118
326 1136
326 1141
326 1174
326 1183
326 1197
326 1223
326 1244
326 1303
326 1320
326 1322
326 1323
326 1333
326 1334
326 1465
326 1590
326 1613
326 1660
326 1681
326 1687
326 1699
326 1732
326 1741
326 1773
326 1799
326 1813
326 1833
326 1877
326 1959
326 1978
326 1981
326 1997
326 2021
326 2049
326 2111
326 2174
326 2177
326 2233
326 2235
326 2250
326 2262
326 2271
326 2284
326 2299
326 2300
326 2319
326 2333
326 2422
326 2457
326 2459
326 2508
326 2530
326 2589
326 2599
326 2600
326 2635
326 2645
326 2649
326 2688
326 2782
326 2793
326 2827
326 2832
326 2839
326 2906
326 2935
326 2941
326 2945
326 2972
326 2988
326 3026
326 3066
326 3098
326 3111
326 3155
326 3168
326 3220
326 3227
326 3234
326 3240
326 3252
326 3300
326 3310
326 3316
326 3382
326 3524
326 3529
326 3547
326 3573
326 3618
326 3626
326 3641
326 3659
326 3666
326 3684
326 3689
326 3692
326 3714
327 472
327 478
327 561
327 703
327 704
327 719
327 768
327 889
327 892
327 908
327 917
327 1065
327 1106
327 1180
327 1198
327 1228
327 1298
327 1352
327 1448
327 1644
327 1903
327 2016
327 2115
327 2133
327 2291
327 2606
327 2728
327 3148
327 3171
327 3196
327 3260
327 3301
327 3433
327 3525
327 3585
328 598
328 697
328 720
328 1049
328 1368
328 1427
328 1489
328 1737
328 1814
328 1962
328 1981
328 2178
328 2330
328 2631
328 2705
328 2753
328 2781
328 2797
328 2912
328 3194
328 3297
328 3359
328 3377
328 3468
328 3628
329 358
329 388
329 595
329 623
329 638
329 649
329 809
329 837
329 858
329 897
329 959
329 1050
329 1105
329 1120
329 1135
329 1431
329 1480
329 1491
329 1505
329 1522
329 1611
329 1719
329 1859
329 1862
329 1875
329 1916
329 1994
329 2029
329 2186
329 2210
329 2229
329 2249
329 2316
329 2350
329 2474
329 2480
329 2552
329 2642
329 2667
329 2751
329 2840
329 2851
329 2915
329 2989
329 3046
329 3054
329 3055
329 3093
329 3121
329 3218
329 3242
329 3266
329 3323
329 3536
329 3639
329 3656
329 3739
330 376
330 440
330 593
330 594
330 664
330 670
330 841
330 850
330 1017
330 1197
330 1239
330 1289
330 1444
330 1486
330 1698
330 1725
330 1751
330 1817
330 2009
330 2014
330 2883
330 2884
330 2889
330 3371
330 3437
330 3638
331 431
331 436
331 462
331 479
331 542
331 593
331 720
331 752
331 800
331 1151
331 1440
331 1492
331 1706
331 1742
331 1906
331 2232
331 2340
331 2482
331 2531
331 2568
331 2656
331 2672
331 2687
331 2830
331 3078
331 3112
331 3222
331 3278
331 3456
331 3711
331 3746
332 829
332 1079
332 1094
332 1247
332 1443
332 1446
332 1708
332 1717
332 2078
332 2161
332 2440
332 2453
332 2472
332 2598
332 3234
332 3414
332 3470
332 3554
332 3658
333 337
333 386
333 412
333 446
333 461
333 534
333 553
333 570
333 619
333 635
333 641
333 718
333 720
333 817
333 998
333 1020
333 1030
333 1082
333 1133
333 1171
333 1207
333 1223
333 1360
333 1427
333 1485
333 1507
333 1593
333 1626
333 1732
333 1743
333 1861
333 1981
333 2059
333 2098
333 2116
333 2119
333 2174
333 2319
333 2342
333 2370
333 2401
333 2438
333 2485
333 2498
333 2588
333 2652
333 2769
333 2827
333 2877
333 2948
333 2951
333 2964
333 3010
333 3015
333 3043
333 3070
333 3075
333 3087
333 3166
333 3231
333 3311
333 3334
333 3337
333 3437
333 3466
333 3491
333 3517
333 3518
333 3536
333 3563
333 3618
333 3686
333 3695
334 636
334 1022
335 1064
336 396
336 690
336 880
336 897
336 1093
336 1224
336 1296
336 1372
336 1444
336 1518
336 1653
336 1734
336 1795
336 1816
336 1825
336 1994
336 1996
336 2252
336 2271
336 2456
336 2611
336 2646
336 2674
336 2725
336 2835
336 2878
336 2907
336 2926
336 2934
336 2935
336 2944
336 3021
336 3194
336 3207
336 3221
336 3283
336 3365
336 3369
336 3390
336 3598
337 482
337 493
337 553
337 570
337 578
337 636
337 682
337 836
337 855
337 875
337 891
337 935
337 956
337 1102
337 1122
337 1170
337 1171
337 1220
337 1223
337 1485
337 1513
337 1543
337 1565
337 1613
337 1736
337 1880
337 2030
337 2035
337 2171
337 2370
337 2424
337 2493
337 2498
337 2522
337 2575
337 2752
337 2835
337 2877
337 2948
337 3087
337 3311
337 3500
337 3686
337 3704
337 3715
338 546
338 550
338 665
338 754
338 804
338 818
338 858
338 1357
338 1444
338 1483
338 1544
338 1705
338 1898
338 1925
338 2075
338 2311
338 2378
338 2723
338 2744
338 2922
338 3029
338 3055
338 3108
338 3131
338 3296
338 3306
338 3384
338 3562
338 3596
338 3687
338 3737
339 1919
340 342
340 347
340 371
340 378
340 420
340 426
340 445
340 473
340 489
340 503
340 515
340 531
340 548
340 586
340 594
340 601
340 608
340 623
340 629
340 638
340 642
340 685
340 698
340 700
340 704
340 718
340 722
340 725
340 754
340 761
340 838
340 857
340 883
340 896
340 922
340 967
340 1002
340 1010
340 1020
340 1023
340 1050
340 1065
340 1087
340 1100
340 1113
340 1121
340 1141
340 1149
340 1155
340 1168
340 1178
340 1186
340 1195
340 1198
340 1239
340 1286
340 1296
340 1303
340 1321
340 1331
340 1333
340 1337
340 1377
340 1402
340 1416
340 1465
340 1471
340 1487
340 1495
340 1533
340 1557
340 1567
340 1589
340 1597
340 1630
340 1631
340 1703
340 1723
340 1734
340 1754
340 1761
340 1762
340 1768
340 1772
340 1788
340 1799
340 1801
340 1818
340 1822
340 1833
340 1848
340 1863
340 1886
340 1901
340 1929
340 1971
340 1972
340 1987
340 2024
340 2034
340 2040
340 2059
340 2066
340 2087
340 2125
340 2162
340 2219
340 2229
340 2291
340 2299
340 2313
340 2333
340 2343
340 2350
340 2378
340 2412
340 2416
340 2438
340 2445
340 2455
340 2478
340 2492
340 2533
340 2553
340 2554
340 2571
340 2582
340 2620
340 2625
340 2655
340 2664
340 2703
340 2741
340 2745
340 2770
340 2787
340 2791
340 2804
340 2808
340 2849
340 2871
340 2907
340 2960
340 2995
340 3007
340 3015
340 3068
340 3070
340 3075
340 3098
340 3121
340 3125
340 3136
340 3139
340 3145
340 3149
340 3182
340 3185
340 3227
340 3242
340 3259
340 3272
340 3349
340 3359
340 3370
340 3373
340 3386
340 3426
340 3433
340 3445
340 3466
340 3520
340 3521
340 3526
340 3575
340 3599
340 3629
340 3639
340 3661
340 3689
340 3695
340 3721
340 3724
340 3734
341 342
341 379
341 425
341 472
341 491
341 514
341 594
341 676
341 799
341 833
341 967
341 1198
341 1239
341 1479
341 1566
341 1687
341 1705
341 1879
341 1922
341 1937
341 2046
341 2156
341 2237
341 2251
341 2262
341 2410
341 2467
341 2779
341 2793
341 2870
341 2896
341 2904
341 2908
341 3045
341 3147
341 3194
341 3199
341 3247
341 3412
341 3575
341 3603
342 358
342 371
342 378
342 381
342 382
342 389
342 423
342 425
342 426
342 437
342 440
342 449
342 460
342 473
342 489
342 495
342 512
342 513
342 514
342 517
342 546
342 548
342 559
342 604
342 620
342 631
342 633
342 634
342 646
342 658
342 666
342 678
342 685
342 691
342 699
342 700
342 704
342 718
342 722
342 725
342 727
342 736
342 752
342 761
342 821
342 837
342 838
342 857
342 861
342 890
342 891
342 896
342 898
342 907
342 957
342 967
342 1024
342 1030
342 1049
342 1050
342 1053
342 1062
342 1065
342 1100
342 1121
342 1129
342 1130
342 1134
342 1141
342 1155
342 1167
342 1168
342 1169
342 1178
342 1239
342 1250
342 1254
342 1277
342 1286
342 1290
342 1294
342 1298
342 1321
342 1331
342 1333
342 1349
342 1359
342 1363
342 1365
342 1409
342 1416
342 1425
342 1428
342 1450
342 1465
342 1471
342 1473
342 1480
342 1487
342 1492
342 1497
342 1501
342 1505
342 1510
342 1530
342 1534
342 1549
342 1557
342 1561
342 1567
342 1569
342 1570
342 1578
342 1589
342 1601
342 1613
342 1630
342 1645
342 1650
342 1664
342 1667
342 1670
342 1681
342 1687
342 1703
342 1705
342 1720
342 1723
342 1738
342 1754
342 1758
342 1761
342 1770
342 1773
342 1780
342 1785
342 1799
342 1813
342 1818
342 1822
342 1833
342 1838
342 1855
342 1870
342 1929
342 1959
342 1971
342 1972
342 1992
342 1994
342 2000
342 2016
342 2024
342 2066
342 2087
342 2105
342 2125
342 2133
342 2134
342 2135
342 2141
342 2147
342 2174
342 2188
342 2206
342 2219
342 2221
342 2225
342 2235
342 2265
342 2287
342 2291
342 2292
342 2299
342 2314
342 2316
342 2324
342 2326
342 2333
342 2355
342 2356
342 2365
342 2374
342 2404
342 2406
342 2408
342 2410
342 2414
342 2418
342 2430
342 2438
342 2440
342 2455
342 2473
342 2492
342 2497
342 2507
342 2533
342 2551
342 2553
342 2571
342 2575
342 2583
342 2610
342 2620
342 2640
342 2647
342 2649
342 2658
342 2664
342 2687
342 2696
342 2741
342 2745
342 2765
342 2767
342 2783
342 2787
342 2791
342 2805
342 2815
342 2825
342 2849
342 2854
342 2856
342 2879
342 2900
342 2901
342 2907
342 2912
342 2928
342 2944
342 2946
342 2951
342 2960
342 2979
342 2995
342 2999
342 3015
342 3023
342 3029
342 3046
342 3047
342 3068
342 3070
342 3075
342 3096
342 3097
342 3111
342 3116
342 3121
342 3136
342 3139
342 3146
342 3147
342 3153
342 3164
342 3169
342 3182
342 3184
342 3185
342 3199
342 3227
342 3234
342 3243
342 3245
342 3253
342 3256
342 3257
342 3259
342 3272
342 3296
342 3301
342 3326
342 3331
342 3337
342 3349
342 3363
342 3366
342 3373
342 3385
342 3386
342 3389
342 3393
342 3408
342 3415
342 3440
342 3445
342 3451
342 3466
342 3477
342 3497
342 3516
342 3520
342 3521
342 3523
342 3528
342 3534
342 3547
342 3548
342 3553
342 3558
342 3562
342 3575
342 3585
342 3592
342 3595
342 3603
342 3611
342 3617
342 3629
342 3630
342 3635
342 3639
342 3649
342 3661
342 3675
342 3687
342 3689
342 3714
342 3729
342 3734
342 3737
343 419
343 489
343 568
343 696
343 890
343 1129
343 1141
343 1298
343 1457
343 1549
343 1569
343 1578
343 1596
343 1664
343 1918
343 2024
343 2188
343 2384
343 2647
343 3301
343 3312
343 3415
343 3639
344 1135
344 1256
344 2022
344 2037
344 2541
344 3024
345 444
345 478
345 630
345 801
345 832
345 939
345 1278
345 1358
345 1425
345 1479
345 1557
345 1700
345 1941
345 2057
345 2066
345 2142
345 2177
345 2202
345 2238
345 2373
345 2418
345 2652
345 2778
345 2828
345 2865
345 2964
345 3061
345 3160
345 3205
345 3296
345 3376
345 3526
345 3534
345 3538
345 3559
345 3617
345 3695
346 1489
346 1627
346 1872
346 2316
346 2427
346 2457
346 3131
347 348
347 433
347 503
347 508
347 515
347 528
347 600
347 627
347 628
347 638
347 699
347 718
347 833
347 849
347 886
347 889
347 898
347 912
347 939
347 988
347 1020
347 1043
347 1111
347 1121
347 1141
347 1151
347 1180
347 1198
347 1211
347 1218
347 1227
347 1402
347 1412
347 1465
347 1475
347 1497
347 1501
347 1543
347 1557
347 1587
347 1697
347 1783
347 1792
347 1801
347 1814
347 1870
347 1924
347 1941
347 1992
347 2024
347 2059
347 2146
347 2161
347 2213
347 2229
347 2256
347 2276
347 2308
347 2359
347 2364
347 2378
347 2400
347 2424
347 2438
347 2508
347 2512
347 2533
347 2571
347 2597
347 2607
347 2655
347 2680
347 2696
347 2703
347 2741
347 2745
347 2751
347 2808
347 2809
347 2960
347 2998
347 3057
347 3059
347 3068
347 3075
347 3098
347 3110
347 3119
347 3143
347 3167
347 3226
347 3336
347 3349
347 3367
347 3373
347 3388
347 3440
347 3449
347 3478
347 3497
347 3514
347 3520
347 3527
347 3528
347 3575
347 3666
347 3695
347 3711
347 3721
348 512
348 513
348 600
348 631
348 732
348 757
348 791
348 798
348 802
348 821
348 912
348 965
348 1009
348 1050
348 1069
348 1134
348 1141
348 1218
348 1402
348 1501
348 1519
348 1624
348 1681
348 1853
348 1870
348 1941
348 1971
348 1987
348 2010
348 2024
348 2129
348 2170
348 2250
348 2320
348 2378
348 2480
348 2485
348 2515
348 2554
348 2564
348 2571
348 2605
348 2680
348 2703
348 2808
348 2838
348 2944
348 2960
348 2980
348 2999
348 3030
348 3098
348 3355
348 3359
348 3440
348 3446
348 3497
348 3661
348 3668
348 3669
348 3693
348 3695
349 417
349 503
349 522
349 600
349 658
349 678
349 725
349 778
349 883
349 1002
349 1012
349 1116
349 1210
349 1334
349 1336
349 1390
349 1465
349 1470
349 1550
349 1568
349 1725
349 1728
349 1754
349 1788
349 1809
349 1825
349 1924
349 1961
349 1971
349 2026
349 2125
349 2158
349 2378
349 2436
349 2507
349 2512
349 2582
349 2595
349 2730
349 2767
349 2774
349 2871
349 2911
349 3096
349 3386
349 3458
349 3540
349 3665
349 3689
349 3731
350 512
350 540
350 545
350 611
350 804
350 842
350 859
350 964
350 1036
350 1091
350 1207
350 1326
350 1389
350 1415
350 1554
350 1661
350 1664
350 1686
350 1705
350 1806
350 1837
350 1917
350 2015
350 2075
350 2139
350 2150
350 2158
350 2219
350 2236
350 2427
350 2506
350 2589
350 2638
350 2741
350 2763
350 2787
350 2858
350 2880
350 2909
350 2973
350 3115
350 3123
350 3171
350 3200
350 3234
350 3436
350 3499
350 3516
350 3612
351 352
351 360
351 440
351 520
351 557
351 729
351 804
351 809
351 867
351 1171
351 1183
351 1186
351 1222
351 1356
351 1584
351 1705
351 1795
351 1814
351 1825
351 1828
351 1837
351 2134
351 2221
351 2282
351 2292
351 2322
351 2337
351 2367
351 2443
351 2467
351 2544
351 2549
351 2564
351 2622
351 2725
351 2877
351 2918
351 2944
351 2954
351 2963
351 2981
351 2997
351 3083
351 3120
351 3123
351 3192
351 3210
351 3241
351 3418
351 3489
351 3638
351 3664
351 3705
351 3714
351 3742
352 711
352 826
352 902
352 986
352 1137
352 1206
352 1940
352 1947
352 2460
352 2542
352 2624
352 2712
352 2910
352 3151
352 3192
353 413
353 422
353 492
353 753
353 950
353 1082
353 1236
353 1313
353 1431
353 1494
353 1538
353 1666
353 1820
353 2453
353 2759
353 3062
353 3570
354 1032
354 2114
355 1492
355 2110
355 2294
355 2536
355 2628
355 2773
355 3241
355 3419
355 3461
355 3580
356 506
356 1588
356 1644
356 2498
356 2517
356 2730
356 3184
356 3296
357 361
357 362
357 422
357 575
357 1294
357 1605
357 1717
357 1919
357 2440
357 2474
357 2841
357 3056
357 3081
357 3660
358 389
358 426
358 512
358 623
358 638
358 668
358 698
358 759
358 809
358 838
358 967
358 1004
358 1016
358 1155
358 1221
358 1286
358 1296
358 1321
358 1345
358 1413
358 1431
358 1567
358 1605
358 1611
358 1630
358 1761
358 1770
358 1837
358 1960
358 1988
358 1994
358 2015
358 2219
358 2223
358 2236
358 2282
358 2291
358 2316
358 2372
358 2413
358 2414
358 2418
358 2419
358 2430
358 2544
358 2551
358 2565
358 2596
358 2604
358 2620
358 2667
358 2668
358 2700
358 2724
358 2783
358 2791
358 2805
358 2837
358 2901
358 2956
358 2973
358 3008
358 3093
358 3137
358 3169
358 3186
358 3235
358 3242
358 3253
358 3428
358 3466
358 3477
358 3553
358 3558
358 3617
358 3629
358 3687
359 482
359 767
359 798
359 825
359 1062
359 1299
359 1522
359 1543
359 1819
359 2011
359 2085
359 2211
359 2372
359 2381
359 2408
359 2424
359 2460
359 2626
359 2749
359 2790
359 2819
359 2869
359 2974
359 3352
359 3504
360 521
360 2000
360 3628
361 489
361 543
361 557
361 579
361 594
361 606
361 814
361 877
361 879
361 916
361 960
361 1015
361 1043
361 1097
361 1458
361 1531
361 1568
361 1578
361 1596
361 1597
361 1599
361 1708
361 1755
361 1825
361 1864
361 2001
361 2034
361 2064
361 2068
361 2076
361 2081
361 2158
361 2259
361 2289
361 2345
361 2387
361 2412
361 2521
361 2567
361 2710
361 2752
361 2842
361 2920
361 2937
361 2940
361 2941
361 2994
361 3000
361 3021
361 3086
361 3103
361 3138
361 3161
361 3183
361 3184
361 3193
361 3197
361 3207
361 3224
361 3394
361 3417
361 3450
361 3486
361 3510
361 3599
361 3638
362 371
362 374
362 422
362 515
362 564
362 646
362 884
362 885
362 930
362 995
362 1174
362 1294
362 1367
362 1500
362 1526
362 1576
362 1622
362 1849
362 2076
362 2209
362 2229
362 2300
362 2480
362 2899
362 2952
362 2986
362 3021
362 3030
362 3248
362 3317
362 3325
362 3388
362 3546
362 3633
362 3687
362 3731
363 563
363 598
363 661
363 1089
363 1299
363 1492
363 2077
363 2356
363 2552
363 2580
363 2585
363 2591
363 2656
363 2661
363 2749
363 2817
363 2884
363 2956
363 3112
363 3278
363 3413
363 3456
363 3476
363 3627
364 400
364 1299
364 2226
364 3076
364 3223
364 3522
365 389
365 1020
365 1029
365 1062
365 1155
365 1578
365 1761
365 1870
365 2117
365 2119
365 2142
365 2410
365 2414
365 2438
365 2999
365 3687
366 594
366 776
366 803
366 822
366 899
366 955
366 988
366 1020
366 1022
366 1546
366 1710
366 1714
366 1777
366 1955
366 2042
366 2052
366 2064
366 2098
366 2211
366 2392
366 2469
366 2626
366 2699
366 2845
366 2942
366 2956
366 3021
366 3094
366 3178
366 3190
366 3264
366 3339
366 3405
366 3466
366 3513
366 3517
366 3575
366 3683
366 3736
367 510
367 832
367 872
367 924
367 956
367 1004
367 1080
367 1192
367 1200
367 1295
367 1554
367 1577
367 1682
367 1875
367 1895
367 1939
367 2015
367 2084
367 2136
367 2174
367 2201
367 2346
367 2443
367 2654
367 2700
367 2790
367 2812
367 2944
367 3201
367 3254
367 3265
367 3287
367 3413
367 3682
367 3739
368 995
368 1693
368 2013
368 2270
368 3076
368 3268
368 3496
369 451
369 563
369 598
369 639
369 661
369 685
369 752
369 766
369 781
369 836
369 935
369 1357
369 1361
369 1492
369 1634
369 1737
369 1816
369 1845
369 2077
369 2110
369 2288
369 2356
369 2371
369 2399
369 2408
369 2580
369 2591
369 2628
369 2773
369 2817
369 2888
369 2911
369 2954
369 2956
369 2979
369 3278
369 3456
369 3476
369 3546
369 3548
370 385
370 437
370 440
370 501
370 567
370 636
370 666
370 709
370 746
370 784
370 802
370 917
370 964
370 997
370 1001
370 1081
370 1144
370 1185
370 1191
370 1225
370 1228
370 1459
370 1469
370 1661
370 1780
370 1828
370 1908
370 1962
370 2009
370 2013
370 2069
370 2205
370 2236
370 2250
370 2267
370 2387
370 2520
370 2522
370 2567
370 2613
370 2684
370 2791
370 2818
370 2988
370 3018
370 3037
370 3066
370 3087
370 3111
370 3112
370 3130
370 3141
370 3147
370 3169
370 3181
370 3247
370 3305
370 3345
370 3358
370 3514
370 3573
370 3641
370 3726
371 379
371 392
371 421
371 445
371 501
371 503
371 515
371 531
371 554
371 627
371 629
371 633
371 634
371 670
371 725
371 748
371 754
371 883
371 916
371 967
371 1023
371 1037
371 1057
371 1085
371 1087
371 1089
371 1134
371 1148
371 1186
371 1298
371 1308
371 1325
371 1360
371 1451
371 1526
371 1622
371 1631
371 1650
371 1681
371 1695
371 1703
371 1723
371 1724
371 1788
371 1801
371 1848
371 1855
371 1948
371 2079
371 2156
371 2218
371 2229
371 2321
371 2325
371 2347
371 2378
371 2404
371 2412
371 2445
371 2492
371 2513
371 2591
371 2664
371 2682
371 2710
371 2726
371 2741
371 2766
371 2858
371 2871
371 2891
371 2912
371 2944
371 2959
371 3007
371 3059
371 3193
371 3325
371 3349
371 3359
371 3367
371 3386
371 3439
371 3449
371 3466
371 3473
371 3573
371 3599
371 3616
371 3734
371 3745
372 580
372 742
372 1041
372 1288
372 1453
372 2157
372 2746
372 3243
372 3405
372 3534
372 3575
372 3695
373 570
373 676
373 1574
373 1728
373 2128
373 2139
373 2333
373 2799
373 3126
374 584
374 594
374 776
374 822
374 862
374 930
374 943
374 988
374 1078
374 1247
374 1443
374 1546
374 1800
374 1879
374 1983
374 1998
374 2114
374 2118
374 2217
374 2469
374 2474
374 2731
374 2985
374 2986
374 3021
374 3248
374 3286
374 3435
374 3481
374 3513
374 3597
374 3640
375 376
375 440
375 441
375 622
375 670
375 819
375 1017
375 1197
375 1444
375 1486
375 1795
375 1817
375 2014
375 2456
375 2549
375 2603
375 2723
375 2771
375 2884
375 2967
375 3371
375 3603
375 3638
376 441
376 528
376 622
376 626
376 630
376 635
376 790
376 936
376 1197
376 1227
376 1243
376 1292
376 1444
376 1593
376 1698
376 1751
376 1797
376 1805
376 1817
376 1996
376 2392
376 2723
376 2771
376 2883
376 2884
376 3148
376 3316
376 3388
376 3538
376 3638
376 3719
377 1299
377 1554
377 1996
377 2347
377 2408
377 2605
377 3285
378 455
378 473
378 548
378 620
378 670
378 700
378 838
378 988
378 1057
378 1097
378 1100
378 1168
378 1320
378 1321
378 1331
378 1334
378 1471
378 1522
378 1526
378 1557
378 1622
378 1631
378 1703
378 1929
378 2040
378 2219
378 2299
378 2533
378 2553
378 2571
378 2745
378 2791
378 2907
378 2960
378 2995
378 3015
378 3098
378 3203
378 3242
378 3325
378 3349
378 3373
378 3445
378 3597
378 3639
378 3687
378 3712
378 3734
379 799
379 1198
379 1318
379 1459
379 1564
379 1566
379 1695
379 1937
379 2020
379 2237
379 2262
379 2337
379 2751
379 2793
379 2970
379 3045
379 3330
379 3426
380 439
380 470
380 762
380 805
380 823
380 895
380 974
380 1030
380 1075
380 1114
380 1118
380 1208
380 1618
380 1823
380 2079
380 2091
380 2110
380 2262
380 2327
380 2449
380 2559
380 2562
380 2609
380 2619
380 2648
380 2688
380 2749
380 2843
380 2868
380 2896
380 2919
380 3066
380 3408
380 3508
380 3514
380 3524
380 3531
380 3613
380 3645
380 3659
381 464
381 496
381 549
381 561
381 595
381 598
381 604
381 694
381 697
381 858
381 925
381 934
381 1002
381 1075
381 1163
381 1321
381 1326
381 1346
381 1366
381 1406
381 1459
381 1465
381 1510
381 1613
381 1646
381 1653
381 1667
381 1717
381 2002
381 2116
381 2170
381 2186
381 2217
381 2219
381 2265
381 2559
381 2620
381 2649
381 2763
381 2825
381 2910
381 2981
381 3018
381 3054
381 3055
381 3124
381 3145
381 3146
381 3194
381 3234
381 3251
381 3349
381 3547
381 3569
381 3575
381 3675
381 3689
381 3704
382 385
382 489
382 513
382 631
382 633
382 699
382 774
382 842
382 864
382 891
382 921
382 944
382 1121
382 1129
382 1284
382 1285
382 1290
382 1303
382 1365
382 1390
382 1456
382 1465
382 1518
382 1549
382 1567
382 1569
382 1664
382 1681
382 1686
382 1793
382 1838
382 1948
382 1987
382 2091
382 2177
382 2219
382 2236
382 2287
382 2295
382 2414
382 2438
382 2455
382 2479
382 2513
382 2593
382 2605
382 2607
382 2640
382 2647
382 2649
382 2730
382 2877
382 2879
382 2933
382 2944
382 2999
382 3096
382 3110
382 3153
382 3184
382 3227
382 3234
382 3245
382 3312
382 3336
382 3366
382 3424
382 3477
382 3547
382 3641
382 3666
382 3735
383 1256
383 1737
383 2382
383 3059
383 3359
383 3420
384 492
384 928
384 1628
384 3031
384 3546
385 391
385 437
385 482
385 501
385 636
385 784
385 836
385 875
385 944
385 1185
385 1223
385 1284
385 1303
385 1326
385 1456
385 1459
385 1586
385 1593
385 1745
385 1793
385 1948
385 2014
385 2035
385 2256
385 2350
385 2522
385 2567
385 2593
385 2818
385 2877
385 2933
385 2988
385 3110
385 3349
385 3514
385 3686
386 514
386 788
386 878
386 1272
386 1485
386 1507
386 1644
386 1685
386 1748
386 1867
386 2016
386 2059
386 2060
386 2299
386 2319
386 2337
386 2400
386 2401
386 2554
386 2629
386 2679
386 2703
386 2877
386 3108
386 3364
386 3518
386 3619
386 3704
386 3718
387 464
387 1613
388 515
388 559
388 561
388 595
388 897
388 959
388 1109
388 1195
388 1247
388 1505
388 1859
388 1875
388 2029
388 2136
388 2229
388 2249
388 2474
388 2552
388 2840
388 2915
388 2989
388 3054
388 3121
388 3207
388 3218
388 3242
388 3266
388 3536
388 3575
388 3656
388 3687
388 3739
388 3745
389 426
389 512
389 605
389 631
389 668
389 698
389 838
389 967
389 1029
389 1062
389 1155
389 1195
389 1286
389 1321
389 1416
389 1431
389 1465
389 1567
389 1578
389 1611
389 1630
389 1761
389 1770
389 1822
389 1916
389 1988
389 1994
389 2038
389 2119
389 2142
389 2219
389 2221
389 2236
389 2291
389 2316
389 2365
389 2414
389 2418
389 2430
389 2551
389 2620
389 2724
389 2783
389 2791
389 2805
389 2849
389 2879
389 2901
389 2933
389 3023
389 3046
389 3093
389 3137
389 3169
389 3253
389 3272
389 3405
389 3466
389 3477
389 3553
389 3558
389 3617
389 3629
389 3680
389 3687
390 561
390 889
390 1106
390 1315
390 1324
390 1667
390 1703
390 1848
390 1980
390 2115
390 3092
390 3291
390 3518
390 3605
391 392
391 487
391 556
391 877
391 1037
391 1085
391 1408
391 1488
391 1522
391 1674
391 1729
391 1908
391 1923
391 1948
391 2166
391 2456
391 2538
391 2698
391 3224
391 3349
391 3360
391 3630
391 3639
392 407
392 433
392 445
392 489
392 530
392 557
392 584
392 589
392 593
392 594
392 621
392 656
392 665
392 807
392 844
392 849
392 877
392 887
392 916
392 930
392 970
392 980
392 988
392 1022
392 1023
392 1051
392 1072
392 1097
392 1149
392 1198
392 1408
392 1475
392 1497
392 1531
392 1537
392 1546
392 1568
392 1597
392 1660
392 1688
392 1803
392 1843
392 1912
392 1956
392 2001
392 2042
392 2064
392 2068
392 2094
392 2112
392 2138
392 2168
392 2176
392 2225
392 2329
392 2345
392 2369
392 2390
392 2412
392 2432
392 2474
392 2510
392 2601
392 2636
392 2659
392 2660
392 2710
392 2755
392 2821
392 2842
392 2895
392 2942
392 3007
392 3021
392 3086
392 3129
392 3138
392 3143
392 3152
392 3161
392 3183
392 3224
392 3274
392 3316
392 3332
392 3339
392 3399
392 3430
392 3450
392 3465
392 3510
392 3557
392 3599
392 3638
392 3640
392 3744
393 437
393 829
393 846
393 1076
393 1502
393 1717
393 2028
393 2135
393 2153
393 2224
393 2472
393 2489
393 2915
393 3353
393 3485
394 407
394 593
394 755
394 843
394 844
394 916
394 958
394 988
394 996
394 1304
394 1311
394 1479
394 1576
394 1688
394 2282
394 2289
394 2369
394 2432
394 2446
394 2461
394 2800
394 2845
394 2973
394 3021
394 3105
394 3129
394 3296
394 3317
394 3465
394 3728
395 637
395 884
395 1443
395 2175
395 2214
395 2431
395 3141
395 3283
395 3365
395 3470
395 3546
395 3567
396 690
396 897
396 1246
396 1364
396 1372
396 1442
396 1518
396 1522
396 1795
396 2232
396 2252
396 2323
396 2346
396 2417
396 2456
396 2544
396 2552
396 2591
396 2628
396 2646
396 2674
396 2725
396 2829
396 2835
396 2878
396 2925
396 2926
396 2934
396 2935
396 2963
396 3000
396 3038
396 3224
396 3242
396 3361
396 3371
396 3437
396 3598
396 3691
397 574
397 829
397 932
397 1236
397 2452
397 2651
397 2965
397 3579
398 411
398 551
398 854
398 1413
398 2195
398 3537
399 580
399 725
399 742
399 758
399 903
399 1020
399 1023
399 1041
399 1071
399 1288
399 1371
399 1404
399 1704
399 1848
399 2038
399 2115
399 2133
399 2157
399 2206
399 2473
399 2602
399 2687
399 2746
399 2956
399 3068
399 3131
399 3243
399 3405
399 3430
399 3514
399 3534
399 3687
400 462
400 1299
400 1359
400 2271
400 2583
400 3223
400 3594
401 407
401 594
401 801
401 916
401 988
401 1022
401 1043
401 1472
401 1814
401 1822
401 2034
401 2330
401 2665
401 2699
401 2721
401 2942
401 3094
401 3138
401 3578
401 3642
401 3724
402 631
402 1321
402 1520
402 1574
402 1725
402 1870
402 1986
402 2086
402 2174
402 2219
402 2454
402 3139
402 3204
402 3277
403 757
403 926
403 976
403 1164
403 1398
403 1459
403 1768
403 1920
403 2057
403 2133
403 2473
403 2728
403 3020
403 3059
403 3276
403 3605
404 799
404 823
404 1639
404 2319
404 2695
404 2898
405 2709
406 501
406 541
406 579
406 665
406 733
406 738
406 778
406 783
406 895
406 924
406 927
406 1026
406 1046
406 1057
406 1104
406 1150
406 1258
406 1578
406 1603
406 1773
406 1814
406 1843
406 1847
406 2049
406 2081
406 2095
406 2127
406 2269
406 2405
406 2483
406 2570
406 2578
406 2677
406 2708
406 2737
406 2804
406 2808
406 2827
406 2838
406 2985
406 3021
406 3096
406 3098
406 3158
406 3163
406 3354
406 3510
406 3574
406 3626
406 3692
406 3713
407 430
407 489
407 514
407 569
407 589
407 593
407 638
407 642
407 647
407 656
407 665
407 675
407 722
407 807
407 814
407 844
407 862
407 877
407 887
407 916
407 958
407 980
407 988
407 1002
407 1022
407 1023
407 1037
407 1051
407 1072
407 1075
407 1085
407 1087
407 1097
407 1104
407 1123
407 1150
407 1321
407 1337
407 1341
407 1458
407 1471
407 1475
407 1503
407 1515
407 1537
407 1564
407 1568
407 1597
407 1660
407 1685
407 1688
407 1833
407 1843
407 1902
407 1912
407 1956
407 1969
407 2001
407 2042
407 2049
407 2064
407 2068
407 2112
407 2114
407 2138
407 2176
407 2225
407 2329
407 2345
407 2369
407 2390
407 2412
407 2423
407 2469
407 2474
407 2478
407 2554
407 2601
407 2636
407 2659
407 2677
407 2686
407 2710
407 2727
407 2745
407 2755
407 2770
407 2804
407 2821
407 2842
407 2859
407 2867
407 2895
407 2942
407 3000
407 3007
407 3086
407 3105
407 3118
407 3129
407 3138
407 3149
407 3152
407 3183
407 3224
407 3258
407 3274
407 3286
407 3301
407 3316
407 3332
407 3339
407 3399
407 3430
407 3450
407 3466
407 3510
407 3597
407 3638
407 3640
407 3744
408 554
408 602
408 804
408 1393
408 1514
408 1681
408 1757
408 1799
408 1841
408 1948
408 2014
408 2046
408 2150
408 2205
408 2213
408 2252
408 2394
408 2578
408 3214
408 3320
408 3359
408 3528
408 3573
408 3726
408 3743
409 1192
409 1247
409 1348
409 1356
409 1600
409 1677
409 1760
409 1794
409 2260
409 2303
409 2305
409 2452
409 2710
409 3201
410 2420
411 632
411 729
411 1236
411 1881
411 1998
411 2195
411 3365
412 472
412 560
412 625
412 640
412 699
412 704
412 709
412 840
412 924
412 1168
412 1183
412 1322
412 1421
412 1554
412 1561
412 1664
412 1911
412 1913
412 1985
412 2008
412 2075
412 2109
412 2146
412 2333
412 2505
412 2513
412 2566
412 2593
412 2648
412 2787
412 2906
412 2942
412 3012
412 3047
412 3092
412 3122
412 3190
412 3385
412 3424
412 3478
412 3507
412 3575
413 422
413 551
413 692
413 707
413 733
413 738
413 869
413 950
413 952
413 1063
413 1066
413 1079
413 1086
413 1104
413 1233
413 1236
413 1247
413 1252
413 1297
413 1396
413 1431
413 1432
413 1446
413 1602
413 1677
413 1683
413 1740
413 1820
413 1891
413 1894
413 1949
413 1974
413 2019
413 2028
413 2203
413 2260
413 2263
413 2279
413 2293
413 2341
413 2354
413 2405
413 2409
413 2422
413 2431
413 2438
413 2440
413 2511
413 2523
413 2541
413 2634
413 2709
413 2724
413 2759
413 2789
413 2834
413 3044
413 3081
413 3088
413 3157
413 3222
413 3250
413 3275
413 3298
413 3331
413 3420
413 3421
413 3459
413 3464
413 3470
413 3532
413 3554
413 3667
413 3697
413 3712
414 1079
414 1457
414 1861
414 2006
414 2059
414 2906
414 3138
414 3196
415 534
415 536
415 630
415 695
415 714
415 1131
415 1200
415 1235
415 1244
415 1312
415 1323
415 1575
415 1580
415 1727
415 1832
415 1849
415 1890
415 1893
415 2009
415 2071
415 2107
415 2121
415 2238
415 2239
415 2300
415 2516
415 2544
415 2556
415 2815
415 2921
415 2973
415 3136
415 3236
415 3296
415 3306
415 3346
415 3348
415 3382
415 3633
415 3687
416 432
416 506
416 570
416 1072
416 1345
416 1464
416 1509
416 1513
416 1518
416 1552
416 1568
416 1778
416 1845
416 1853
416 2063
416 2323
416 2408
416 2573
416 2852
416 2877
416 3108
416 3320
416 3364
416 3384
416 3389
416 3564
416 3704
416 3741
417 426
417 503
417 631
417 778
417 841
417 883
417 939
417 1002
417 1011
417 1075
417 1116
417 1141
417 1211
417 1245
417 1336
417 1346
417 1406
417 1458
417 1465
417 1549
417 1567
417 1583
417 1641
417 1728
417 1809
417 1848
417 1877
417 2057
417 2125
417 2291
417 2414
417 2416
417 2430
417 2455
417 2528
417 2551
417 2562
417 2594
417 2599
417 2688
417 2827
417 2838
417 2879
417 3015
417 3096
417 3164
417 3179
417 3227
417 3276
417 3325
417 3386
417 3433
417 3452
417 3466
417 3477
417 3522
417 3531
417 3540
417 3558
417 3601
417 3629
417 3717
417 3724
418 1068
418 1236
418 1252
418 1613
418 1662
418 2523
418 2752
418 3391
419 440
419 489
419 513
419 563
419 568
419 587
419 598
419 638
419 661
419 696
419 697
419 720
419 732
419 752
419 821
419 890
419 912
419 987
419 1000
419 1017
419 1028
419 1056
419 1082
419 1130
419 1193
419 1200
419 1275
419 1282
419 1298
419 1359
419 1411
419 1440
419 1457
419 1465
419 1479
419 1578
419 1596
419 1635
419 1664
419 1737
419 1856
419 1918
419 2002
419 2077
419 2092
419 2170
419 2188
419 2209
419 2224
419 2356
419 2371
419 2386
419 2575
419 2591
419 2608
419 2625
419 2647
419 2656
419 2680
419 2781
419 2808
419 2822
419 2823
419 2888
419 2956
419 3007
419 3041
419 3150
419 3278
419 3301
419 3312
419 3413
419 3415
419 3422
419 3456
419 3548
419 3677
419 3710
420 423
420 454
420 561
420 572
420 586
420 633
420 718
420 814
420 944
420 968
420 1050
420 1073
420 1141
420 1164
420 1186
420 1195
420 1250
420 1288
420 1333
420 1334
420 1338
420 1366
420 1400
420 1416
420 1465
420 1487
420 1489
420 1501
420 1521
420 1554
420 1618
420 1656
420 1668
420 1723
420 1734
420 1756
420 1761
420 1844
420 1854
420 1863
420 1870
420 1876
420 1921
420 2004
420 2012
420 2016
420 2024
420 2033
420 2212
420 2240
420 2254
420 2265
420 2287
420 2295
420 2337
420 2397
420 2445
420 2507
420 2551
420 2564
420 2578
420 2588
420 2703
420 2705
420 2721
420 2745
420 2751
420 2766
420 2769
420 2783
420 2848
420 2850
420 2944
420 3071
420 3075
420 3101
420 3125
420 3145
420 3185
420 3220
420 3227
420 3243
420 3395
420 3410
420 3426
420 3477
420 3493
420 3521
420 3544
420 3558
420 3674
420 3675
420 3676
420 3682
420 3721
421 629
421 879
421 945
421 996
421 1002
421 1033
421 1075
421 1096
421 1121
421 1314
421 1334
421 1341
421 1346
421 1360
421 1560
421 1585
421 1588
421 1801
421 1863
421 1867
421 2004
421 2016
421 2104
421 2128
421 2289
421 2374
421 2404
421 2473
421 2596
421 2708
421 2879
421 3115
421 3193
421 3212
421 3325
421 3439
422 465
422 564
422 566
422 646
422 687
422 711
422 733
422 753
422 829
422 977
422 1135
422 1313
422 1330
422 1376
422 1468
422 1469
422 1695
422 1717
422 1735
422 1766
422 1859
422 1974
422 1998
422 2078
422 2154
422 2283
422 2341
422 2405
422 2431
422 2434
422 2724
422 2737
422 2853
422 2965
422 2970
422 2975
422 3021
422 3038
422 3071
422 3248
422 3271
422 3310
422 3330
422 3357
422 3358
422 3374
422 3421
422 3426
422 3469
422 3485
422 3546
422 3570
422 3585
422 3597
422 3602
422 3616
423 426
423 513
423 545
423 546
423 586
423 620
423 631
423 638
423 649
423 748
423 841
423 864
423 903
423 941
423 967
423 1024
423 1052
423 1073
423 1129
423 1186
423 1195
423 1207
423 1288
423 1345
423 1372
423 1389
423 1400
423 1416
423 1465
423 1487
423 1583
423 1603
423 1618
423 1724
423 1761
423 1844
423 1854
423 1870
423 1876
423 1929
423 1959
423 1971
423 1972
423 2024
423 2038
423 2048
423 2210
423 2254
423 2307
423 2324
423 2397
423 2416
423 2454
423 2473
423 2474
423 2478
423 2512
423 2668
423 2721
423 2745
423 2791
423 2838
423 2850
423 2942
423 2980
423 3047
423 3054
423 3101
423 3125
423 3145
423 3153
423 3220
423 3243
423 3277
423 3292
423 3365
423 3405
423 3426
423 3440
423 3520
423 3521
423 3534
423 3575
423 3635
423 3639
423 3675
423 3676
423 3682
423 3689
423 3696
423 3721
423 3738
424 563
424 642
424 726
424 767
424 858
424 1064
424 1588
424 1621
424 1655
424 1793
424 2230
424 2514
424 2877
424 2916
424 3122
424 3124
424 3184
424 3376
424 3632
424 3662
425 440
425 473
425 486
425 510
425 512
425 560
425 698
425 815
425 987
425 1033
425 1318
425 1349
425 1383
425 1421
425 1566
425 1590
425 1664
425 1673
425 1687
425 1761
425 1875
425 1897
425 1937
425 1994
425 1996
425 2056
425 2156
425 2187
425 2237
425 2262
425 2282
425 2410
425 2430
425 2467
425 2520
425 2544
425 2596
425 2604
425 2757
425 2793
425 2806
425 2844
425 2907
425 2925
425 2928
425 3082
425 3137
425 3199
425 3247
425 3342
425 3428
425 3528
425 3568
425 3573
425 3603
425 3611
426 489
426 512
426 548
426 631
426 685
426 698
426 700
426 722
426 748
426 752
426 765
426 838
426 857
426 1002
426 1057
426 1075
426 1121
426 1155
426 1168
426 1178
426 1286
426 1321
426 1416
426 1465
426 1471
426 1514
426 1564
426 1567
426 1630
426 1703
426 1761
426 1770
426 1902
426 1929
426 1994
426 2016
426 2057
426 2125
426 2174
426 2219
426 2221
426 2236
426 2291
426 2321
426 2326
426 2365
426 2414
426 2418
426 2430
426 2492
426 2551
426 2582
426 2620
426 2648
426 2664
426 2703
426 2745
426 2755
426 2783
426 2791
426 2804
426 2849
426 2879
426 3068
426 3070
426 3075
426 3137
426 3185
426 3191
426 3227
426 3253
426 3272
426 3276
426 3277
426 3301
426 3349
426 3366
426 3386
426 3415
426 3466
426 3553
426 3558
426 3575
426 3588
426 3611
426 3617
426 3629
426 3635
426 3675
426 3717
427 3210
428 445
428 514
428 614
428 1001
428 1030
428 1037
428 1124
428 1130
428 1174
428 1194
428 1275
428 1372
428 1450
428 1614
428 1644
428 1822
428 1825
428 1902
428 1944
428 1971
428 2005
428 2060
428 2115
428 2132
428 2256
428 2526
428 2569
428 2609
428 2725
428 2752
428 2940
428 3066
428 3257
428 3260
428 3339
428 3473
428 3585
428 3590
428 3616
428 3624
428 3640
428 3683
428 3718
429 469
429 493
429 617
429 635
429 644
429 653
429 684
429 759
429 765
429 784
429 832
429 859
429 969
429 989
429 1035
429 1062
429 1156
429 1179
429 1228
429 1253
429 1288
429 1299
429 1374
429 1385
429 1575
429 1594
429 1613
429 1621
429 1626
429 1648
429 1699
429 1747
429 1882
429 1885
429 1926
429 1934
429 1996
429 2032
429 2046
429 2055
429 2090
429 2095
429 2121
429 2132
429 2213
429 2222
429 2230
429 2250
429 2271
429 2408
429 2493
429 2498
429 2514
429 2547
429 2566
429 2662
429 2869
429 2878
429 2885
429 2989
429 3012
429 3013
429 3043
429 3079
429 3166
429 3268
429 3269
429 3308
429 3382
429 3390
429 3442
429 3463
429 3535
429 3543
429 3573
429 3598
429 3612
430 442
430 514
430 541
430 569
430 642
430 665
430 744
430 832
430 877
430 1104
430 1123
430 1150
430 1234
430 1337
430 1597
430 1912
430 1971
430 2034
430 2068
430 2104
430 2392
430 2412
430 2478
430 2554
430 2677
430 2690
430 2707
430 2727
430 2770
430 2842
430 2867
430 3007
430 3021
430 3118
430 3138
430 3149
430 3274
430 3315
430 3385
430 3510
431 552
431 563
431 598
431 680
431 791
431 812
431 981
431 1000
431 1086
431 1101
431 1256
431 1634
431 1691
431 1775
431 1933
431 2077
431 2190
431 2527
431 2591
431 2628
431 2770
431 2987
431 3083
431 3234
431 3238
432 468
432 500
432 621
432 646
432 873
432 891
432 902
432 907
432 929
432 949
432 958
432 988
432 1101
432 1102
432 1162
432 1296
432 1389
432 1482
432 1509
432 1518
432 1565
432 1681
432 1725
432 1841
432 1892
432 1906
432 1940
432 1944
432 1972
432 1986
432 2122
432 2132
432 2191
432 2204
432 2212
432 2237
432 2293
432 2323
432 2408
432 2422
432 2447
432 2482
432 2634
432 2845
432 2881
432 2907
432 2979
432 3065
432 3095
432 3142
432 3151
432 3384
432 3392
432 3603
432 3718
433 503
433 531
433 935
433 1111
433 1198
433 1352
433 1490
433 1497
433 1679
433 1725
433 1772
433 1941
433 1971
433 2053
433 2147
433 2308
433 2508
433 2625
433 2698
433 2912
433 2962
433 3045
433 3143
433 3161
433 3199
433 3211
433 3226
433 3585
433 3716
434 489
434 572
434 580
434 903
434 1073
434 1100
434 1110
434 1366
434 1417
434 1453
434 1704
434 1848
434 2133
434 2287
434 2358
434 2466
434 2633
434 3444
435 1504
435 2340
435 3104
435 3249
436 902
436 1071
436 1706
436 1726
436 2340
436 3190
436 3530
437 512
437 620
437 626
437 633
437 635
437 636
437 641
437 666
437 709
437 752
437 784
437 803
437 804
437 841
437 892
437 894
437 917
437 934
437 964
437 967
437 1020
437 1030
437 1049
437 1064
437 1081
437 1133
437 1185
437 1215
437 1225
437 1228
437 1290
437 1299
437 1321
437 1333
437 1341
437 1365
437 1368
437 1409
437 1444
437 1472
437 1537
437 1543
437 1567
437 1593
437 1645
437 1649
437 1680
437 1681
437 1705
437 1725
437 1772
437 1780
437 1880
437 1887
437 1908
437 1925
437 1948
437 1952
437 2040
437 2046
437 2088
437 2141
437 2146
437 2174
437 2201
437 2219
437 2267
437 2298
437 2299
437 2316
437 2367
437 2371
437 2406
437 2408
437 2474
437 2567
437 2648
437 2649
437 2664
437 2667
437 2678
437 2696
437 2713
437 2715
437 2720
437 2749
437 2781
437 2809
437 2822
437 2919
437 2944
437 2951
437 2988
437 3000
437 3022
437 3039
437 3075
437 3098
437 3148
437 3192
437 3234
437 3247
437 3265
437 3296
437 3349
437 3386
437 3404
437 3411
437 3454
437 3478
437 3485
437 3504
437 3513
437 3514
437 3534
437 3547
437 3560
437 3575
437 3578
437 3629
437 3641
437 3649
437 3722
437 3734
438 1134
438 1186
438 1222
438 1419
438 1501
438 1526
438 1624
438 1681
438 1805
438 1948
438 2131
438 2300
438 2320
438 2912
438 2999
438 3021
438 3359
438 3387
439 470
439 508
439 762
439 823
439 931
439 974
439 1030
439 1118
439 1208
439 1823
439 2110
439 2201
439 2391
439 2449
439 2559
439 2562
439 2581
439 2609
439 2695
439 2749
439 2843
439 2868
439 2896
439 2919
439 3282
439 3408
439 3508
439 3514
439 3524
439 3613
439 3645
440 456
440 509
440 513
440 567
440 594
440 623
440 636
440 666
440 685
440 706
440 709
440 746
440 784
440 874
440 906
440 933
440 988
440 1017
440 1039
440 1061
440 1130
440 1152
440 1171
440 1172
440 1181
440 1183
440 1197
440 1220
440 1228
440 1325
440 1343
440 1373
440 1469
440 1479
440 1486
440 1565
440 1613
440 1687
440 1725
440 1773
440 1780
440 1822
440 1828
440 1866
440 1908
440 2009
440 2013
440 2014
440 2045
440 2069
440 2220
440 2250
440 2310
440 2374
440 2387
440 2416
440 2424
440 2464
440 2474
440 2520
440 2522
440 2528
440 2567
440 2613
440 2625
440 2635
440 2640
440 2675
440 2684
440 2688
440 2693
440 2700
440 2716
440 2770
440 2818
440 2827
440 2838
440 2856
440 2967
440 3007
440 3022
440 3037
440 3083
440 3111
440 3112
440 3130
440 3141
440 3147
440 3163
440 3167
440 3176
440 3181
440 3296
440 3305
440 3306
440 3345
440 3358
440 3371
440 3389
440 3407
440 3409
440 3418
440 3466
440 3514
440 3626
440 3638
440 3641
440 3670
440 3692
440 3704
440 3714
441 519
441 622
441 726
441 770
441 981
441 1253
441 1336
441 1344
441 1358
441 1444
441 1698
441 1775
441 1817
441 2165
441 2723
441 2771
441 2883
441 2916
441 3159
441 3662
442 665
442 738
442 791
442 812
442 987
442 1087
442 1426
442 1488
442 1491
442 1592
442 1894
442 1972
442 1976
442 2029
442 2081
442 2215
442 2217
442 2243
442 2266
442 2710
442 2770
442 2782
442 2797
442 2967
442 3021
442 3234
442 3238
442 3332
443 598
443 1824
443 2689
444 561
444 600
444 664
444 666
444 767
444 1002
444 1072
444 1278
444 1425
444 1570
444 1588
444 1700
444 1870
444 1941
444 2177
444 2219
444 2373
444 2513
444 2517
444 2545
444 2640
444 2676
444 2730
444 2734
444 2869
444 3061
444 3184
444 3206
444 3225
444 3234
444 3376
444 3559
445 463
445 475
445 480
445 489
445 541
445 543
445 548
445 557
445 569
445 594
445 606
445 629
445 700
445 722
445 764
445 807
445 814
445 844
445 887
445 916
445 926
445 960
445 970
445 1022
445 1023
445 1037
445 1051
445 1072
445 1075
445 1085
445 1098
445 1113
445 1123
445 1149
445 1150
445 1204
445 1321
445 1333
445 1346
445 1458
445 1471
445 1475
445 1533
445 1582
445 1597
445 1660
445 1725
445 1729
445 1761
445 1762
445 1784
445 1788
445 1843
445 1864
445 1865
445 1867
445 1912
445 1929
445 1972
445 2059
445 2060
445 2064
445 2076
445 2078
445 2081
445 2112
445 2119
445 2138
445 2160
445 2204
445 2219
445 2254
445 2289
445 2345
445 2353
445 2363
445 2412
445 2416
445 2510
445 2511
445 2521
445 2538
445 2601
445 2617
445 2636
445 2687
445 2707
445 2710
445 2726
445 2730
445 2734
445 2745
445 2786
445 2787
445 2793
445 2804
445 2842
445 2848
445 2866
445 2882
445 2895
445 2973
445 3000
445 3021
445 3029
445 3051
445 3071
445 3096
445 3103
445 3138
445 3143
445 3149
445 3182
445 3203
445 3224
445 3253
445 3315
445 3316
445 3328
445 3349
445 3370
445 3433
445 3450
445 3469
445 3514
445 3557
445 3571
445 3597
445 3599
445 3624
445 3630
445 3693
446 448
446 461
446 527
446 571
446 590
446 664
446 725
446 802
446 803
446 841
446 912
446 923
446 933
446 1004
446 1186
446 1226
446 1245
446 1273
446 1335
446 1372
446 1472
446 1574
446 1578
446 1600
446 1605
446 1612
446 1626
446 1650
446 1655
446 1677
446 1714
446 1777
446 1785
446 1827
446 2035
446 2147
446 2150
446 2230
446 2238
446 2258
446 2367
446 2419
446 2513
446 2631
446 2695
446 2734
446 2858
446 2898
446 2948
446 2971
446 3003
446 3051
446 3089
446 3335
446 3466
446 3573
446 3581
446 3595
446 3722
447 563
447 669
447 766
447 913
447 1005
447 1291
447 1398
447 1492
447 1544
447 1701
447 1706
447 1715
447 1763
447 1893
447 2077
447 2174
447 2232
447 2405
447 2525
447 2531
447 2640
447 2810
447 2914
447 3027
447 3283
447 3375
447 3546
447 3552
447 3686
448 767
448 1042
448 1043
448 1074
448 1328
448 1372
448 1620
448 2185
448 2212
448 2243
448 2273
448 2671
448 2955
448 3021
448 3051
448 3317
448 3321
448 3411
448 3482
449 512
449 513
449 515
449 550
449 579
449 627
449 631
449 647
449 718
449 725
449 732
449 754
449 818
449 838
449 858
449 1002
449 1050
449 1065
449 1075
449 1167
449 1195
449 1211
449 1290
449 1296
449 1377
449 1465
449 1480
449 1510
449 1616
449 1631
449 1640
449 1667
449 1841
449 1877
449 1898
449 2121
449 2378
449 2397
449 2401
449 2404
449 2455
449 2513
449 2544
449 2582
449 2649
449 2664
449 2665
449 2696
449 2815
449 2879
449 2944
449 3029
449 3055
449 3070
449 3075
449 3093
449 3096
449 3108
449 3131
449 3227
449 3306
449 3349
449 3386
449 3452
449 3466
449 3562
449 3575
449 3596
449 3639
449 3687
449 3695
449 3719
449 3737
449 3745
450 1045
450 1110
450 1626
450 1652
450 1867
450 2016
450 2049
450 2753
450 3444
451 563
451 661
451 752
451 767
451 948
451 1063
451 1082
451 1103
451 1299
451 1344
451 1492
451 1737
451 1893
451 1905
451 2077
451 2591
451 2658
451 2661
451 2781
451 2790
451 2823
451 2954
451 2956
451 3223
451 3278
451 3349
451 3506
452 571
452 1150
452 3510
453 3291
454 482
454 519
454 628
454 765
454 832
454 890
454 941
454 944
454 999
454 1119
454 1253
454 1366
454 1374
454 1384
454 1598
454 1853
454 2190
454 2287
454 2315
454 2337
454 2359
454 2389
454 2397
454 2478
454 2483
454 2769
454 2775
454 2870
454 2923
454 2933
454 2971
454 3196
454 3210
454 3240
454 3424
454 3493
454 3679
454 3704
454 3715
455 501
455 593
455 887
455 1097
455 1458
455 1475
455 1537
455 1568
455 2034
455 2042
455 2104
455 2112
455 2160
455 2390
455 2490
455 2682
455 2746
455 2821
455 2895
455 2941
455 3021
455 3086
455 3129
455 3183
455 3430
455 3450
455 3510
455 3597
455 3638
456 512
456 526
456 663
456 1026
456 1056
456 1057
456 1095
456 1104
456 1150
456 1275
456 1660
456 1673
456 1687
456 1772
456 1829
456 1856
456 1886
456 1928
456 1969
456 2025
456 2049
456 2184
456 2386
456 2554
456 2625
456 2677
456 2732
456 2737
456 2827
456 2945
456 2972
456 3007
456 3098
456 3158
456 3176
456 3510
456 3626
456 3692
457 651
457 769
457 842
457 901
457 946
457 965
457 1003
457 1014
457 1742
457 2179
457 2197
457 2504
457 2749
457 2938
457 3166
457 3446
457 3637
457 3645
457 3668
457 3686
458 827
458 1267
458 1725
458 2394
458 3382
458 3462
458 3514
459 473
459 815
459 869
459 987
459 1169
459 1386
459 1661
459 1897
459 1908
459 1996
459 2187
459 2568
459 2884
459 3095
459 3628
460 482
460 519
460 664
460 875
460 1384
460 1416
460 1473
460 1490
460 1598
460 1617
460 1746
460 2315
460 2333
460 2971
460 3111
460 3360
460 3431
460 3442
460 3466
460 3543
461 526
461 527
461 803
461 899
461 925
461 955
461 1039
461 1245
461 1340
461 1383
461 1419
461 1421
461 1469
461 1472
461 1543
461 1548
461 1675
461 1714
461 1777
461 1908
461 2319
461 2416
461 2424
461 2460
461 2493
461 2528
461 2604
461 2626
461 2699
461 2757
461 2792
461 2861
461 2940
461 2974
461 3059
461 3072
461 3193
461 3264
461 3334
461 3339
461 3342
461 3356
461 3482
461 3484
461 3504
461 3513
461 3536
461 3642
461 3650
461 3736
462 856
462 923
462 955
462 995
462 1013
462 1030
462 1042
462 1067
462 1204
462 1249
462 1270
462 1396
462 1491
462 1563
462 1635
462 1731
462 1756
462 1777
462 1810
462 1812
462 2039
462 2118
462 2152
462 2384
462 2416
462 2484
462 2493
462 2521
462 2626
462 2799
462 2884
462 3144
462 3269
462 3329
462 3432
462 3443
462 3504
462 3546
462 3551
462 3572
462 3578
462 3623
462 3663
463 480
463 543
463 556
463 646
463 702
463 897
463 930
463 970
463 1007
463 1023
463 1037
463 1078
463 1149
463 1330
463 1658
463 1708
463 1859
463 1864
463 1969
463 1998
463 2076
463 2114
463 2168
463 2511
463 2617
463 2859
463 2973
463 2975
463 2986
463 3021
463 3394
463 3469
463 3481
463 3546
463 3624
464 549
464 561
464 586
464 594
464 638
464 697
464 718
464 1028
464 1204
464 1272
464 1290
464 1366
464 1411
464 1469
464 1501
464 1534
464 1613
464 1632
464 1646
464 1705
464 1822
464 1845
464 1859
464 1879
464 1964
464 1972
464 1981
464 2002
464 2170
464 2189
464 2210
464 2264
464 2265
464 2269
464 2287
464 2295
464 2371
464 2397
464 2445
464 2474
464 2559
464 2733
464 2906
464 2944
464 3009
464 3021
464 3026
464 3124
464 3145
464 3146
464 3194
464 3243
464 3312
464 3405
464 3534
464 3575
464 3621
464 3675
464 3736
464 3745
465 666
465 738
465 891
465 905
465 1063
465 1203
465 1233
465 1236
465 1244
465 1247
465 1361
465 1431
465 1432
465 1441
465 1445
465 1594
465 1683
465 1706
465 1891
465 2009
465 2061
465 2065
465 2114
465 2167
465 2212
465 2440
465 2452
465 2735
465 2825
465 2975
465 3135
465 3251
465 3275
465 3298
465 3464
465 3552
465 3628
466 534
466 543
466 638
466 764
466 1039
466 1041
466 1171
466 1244
466 1419
466 1519
466 1640
466 1642
466 1890
466 1899
466 2070
466 2284
466 2416
466 2504
466 2803
466 2845
466 2956
466 3150
466 3306
466 3338
466 3382
466 3684
467 526
467 540
467 1168
467 1314
467 1663
467 1724
467 2166
467 2234
467 2245
467 2368
467 2555
467 2615
467 3102
467 3226
467 3449
467 3706
467 3721
468 701
468 769
468 891
468 965
468 1203
468 1519
468 1594
468 1683
468 2159
468 2179
468 3166
468 3446
468 3668
468 3684
468 3686
469 529
469 684
469 859
469 989
469 1179
469 1363
469 1509
469 1594
469 1747
469 2055
469 2090
469 2121
469 2183
469 2801
469 2941
469 3186
469 3249
469 3268
469 3384
469 3390
469 3463
469 3496
469 3594
470 610
470 728
470 762
470 974
470 1208
470 1336
470 1697
470 1823
470 2337
470 2389
470 2391
470 2449
470 2559
470 2562
470 2609
470 2749
470 2752
470 2843
470 2871
470 2896
470 3066
470 3108
470 3184
470 3408
470 3508
470 3514
470 3524
470 3613
471 495
471 526
471 877
471 1098
471 1444
471 1483
471 2163
471 2353
471 2782
471 2804
471 2866
471 3203
471 3466
471 3692
472 503
472 512
472 513
472 594
472 767
472 768
472 799
472 840
472 934
472 988
472 1024
472 1114
472 1197
472 1228
472 1237
472 1292
472 1352
472 1368
472 1372
472 1417
472 1487
472 1521
472 1566
472 1625
472 1631
472 1673
472 1679
472 1687
472 1725
472 1760
472 1937
472 1984
472 2014
472 2025
472 2156
472 2237
472 2262
472 2276
472 2313
472 2337
472 2391
472 2408
472 2410
472 2421
472 2424
472 2468
472 2471
472 2505
472 2557
472 2575
472 2721
472 2793
472 2870
472 3009
472 3045
472 3077
472 3101
472 3260
472 3334
472 3504
472 3525
472 3530
472 3585
472 3599
472 3624
472 3685
473 548
473 559
473 700
473 815
473 857
473 896
473 987
473 1127
473 1168
473 1169
473 1173
473 1270
473 1321
473 1331
473 1469
473 1471
473 1518
473 1522
473 1557
473 1613
473 1661
473 1674
473 1703
473 1875
473 1897
473 1996
473 2056
473 2175
473 2187
473 2212
473 2282
473 2323
473 2324
473 2347
473 2416
473 2443
473 2533
473 2553
473 2571
473 2579
473 2622
473 2719
473 2745
473 2806
473 2819
473 2878
473 2907
473 2988
473 3068
473 3095
473 3136
473 3242
473 3259
473 3349
473 3373
473 3445
473 3520
473 3598
473 3712
474 524
474 600
474 653
474 1020
474 1047
474 1141
474 1277
474 1427
474 2130
474 2350
474 2575
474 2832
474 3455
474 3618
475 1023
475 1198
475 1586
475 2168
475 2384
475 2498
475 2962
475 3118
476 497
476 508
476 546
476 628
476 669
476 706
476 712
476 740
476 895
476 944
476 1276
476 1436
476 1469
476 1571
476 1641
476 1692
476 1748
476 1814
476 1939
476 1952
476 1973
476 2066
476 2135
476 2148
476 2174
476 2201
476 2222
476 2401
476 2447
476 2493
476 2496
476 2595
476 2605
476 2648
476 2689
476 2802
476 2877
476 2960
476 3004
476 3091
476 3107
476 3127
476 3193
476 3265
476 3354
476 3389
476 3396
476 3400
476 3404
476 3514
476 3518
476 3531
476 3654
476 3659
476 3718
477 482
477 660
477 1655
477 1793
477 2190
477 2498
477 2514
477 2689
477 2877
477 3091
477 3184
477 3547
477 3704
478 558
478 561
478 762
478 765
478 876
478 939
478 1091
478 1125
478 1158
478 1235
478 1379
478 1507
478 1532
478 1745
478 1809
478 1821
478 1893
478 1903
478 2148
478 2238
478 2406
478 2449
478 2479
478 2902
478 2947
478 2959
478 3092
478 3184
478 3205
478 3339
478 3490
478 3518
478 3594
478 3613
478 3716
479 497
479 560
479 669
479 681
479 712
479 902
479 1199
479 1381
479 1406
479 1436
479 1516
479 1577
479 1641
479 1706
479 1732
479 1741
479 1758
479 1793
479 1806
479 1821
479 1823
479 1906
479 1940
479 1952
479 1963
479 2008
479 2039
479 2148
479 2174
479 2201
479 2204
479 2447
479 2482
479 2581
479 2589
479 2648
479 2749
479 2877
479 3010
479 3071
479 3091
479 3092
479 3122
479 3252
479 3404
479 3518
479 3529
479 3649
479 3654
479 3684
479 3689
479 3718
480 556
480 557
480 579
480 594
480 627
480 658
480 916
480 1023
480 1037
480 1149
480 1485
480 1729
480 1788
480 1797
480 1825
480 1863
480 1864
480 2158
480 2168
480 2412
480 2510
480 2511
480 2538
480 2615
480 2617
480 2973
480 3000
480 3021
480 3096
480 3138
480 3224
480 3349
480 3469
480 3481
480 3599
480 3624
480 3689
481 951
481 1173
481 1331
481 1357
481 1538
481 2692
481 2744
481 3131
481 3438
481 3551
482 493
482 506
482 545
482 553
482 570
482 628
482 636
482 660
482 682
482 699
482 728
482 836
482 855
482 875
482 999
482 1050
482 1171
482 1220
482 1223
482 1228
482 1365
482 1442
482 1485
482 1490
482 1517
482 1543
482 1586
482 1613
482 1872
482 1948
482 1985
482 2035
482 2141
482 2315
482 2359
482 2370
482 2377
482 2424
482 2498
482 2503
482 2522
482 2583
482 2719
482 2877
482 2948
482 2975
482 3087
482 3092
482 3111
482 3117
482 3128
482 3186
482 3210
482 3240
482 3311
482 3376
482 3442
482 3500
482 3518
482 3543
482 3606
482 3704
482 3715
483 2224
484 833
484 892
484 940
484 988
484 1099
484 1278
484 1355
484 1356
484 1401
484 1414
484 1457
484 1587
484 1606
484 1718
484 1731
484 1863
484 1914
484 2034
484 2066
484 2099
484 2116
484 2139
484 2147
484 2156
484 2234
484 2319
484 2360
484 2809
484 2899
484 2912
484 3226
484 3388
484 3449
484 3594
484 3620
484 3696
484 3720
484 3721
485 1897
485 2991
485 3496
485 3573
486 728
486 998
486 1006
486 1248
486 1270
486 2565
486 2581
486 2675
486 2806
486 2814
486 2900
486 3110
486 3167
486 3235
486 3346
486 3358
487 602
487 665
487 757
487 1056
487 1070
487 1087
487 1095
487 1488
487 1768
487 1971
487 2217
487 2266
487 2554
487 2782
487 2796
487 3007
487 3014
487 3158
487 3332
487 3693
488 765
488 1189
488 1534
488 1858
488 2990
488 3124
488 3347
489 515
489 561
489 568
489 571
489 600
489 625
489 642
489 646
489 659
489 685
489 696
489 704
489 722
489 725
489 728
489 838
489 861
489 877
489 887
489 890
489 899
489 967
489 1002
489 1030
489 1050
489 1057
489 1073
489 1075
489 1085
489 1087
489 1121
489 1141
489 1153
489 1174
489 1195
489 1239
489 1286
489 1288
489 1298
489 1321
489 1333
489 1334
489 1359
489 1371
489 1416
489 1450
489 1457
489 1465
489 1471
489 1487
489 1495
489 1501
489 1533
489 1549
489 1554
489 1556
489 1567
489 1568
489 1574
489 1578
489 1583
489 1588
489 1589
489 1596
489 1622
489 1664
489 1667
489 1697
489 1724
489 1725
489 1728
489 1762
489 1788
489 1813
489 1831
489 1833
489 1848
489 1902
489 1918
489 1929
489 1971
489 1972
489 1997
489 2016
489 2034
489 2040
489 2057
489 2068
489 2104
489 2125
489 2138
489 2188
489 2199
489 2218
489 2225
489 2287
489 2313
489 2321
489 2378
489 2410
489 2412
489 2416
489 2438
489 2454
489 2455
489 2478
489 2492
489 2507
489 2512
489 2513
489 2564
489 2582
489 2604
489 2608
489 2625
489 2640
489 2664
489 2675
489 2682
489 2703
489 2721
489 2745
489 2791
489 2794
489 2797
489 2804
489 2808
489 2848
489 2871
489 2879
489 2944
489 2960
489 3030
489 3041
489 3047
489 3070
489 3075
489 3098
489 3101
489 3106
489 3139
489 3147
489 3153
489 3164
489 3183
489 3227
489 3234
489 3272
489 3274
489 3276
489 3301
489 3309
489 3312
489 3325
489 3370
489 3386
489 3415
489 3417
489 3424
489 3444
489 3466
489 3510
489 3521
489 3599
489 3629
489 3630
489 3639
489 3666
489 3669
489 3745
490 503
490 512
490 545
490 631
490 802
490 1199
490 1365
490 1465
490 1571
490 1630
490 1725
490 2129
490 2219
490 2221
490 2236
490 2250
490 2251
490 2414
490 2515
490 2620
490 2638
490 2763
490 2849
490 2881
490 2899
490 2956
490 3030
490 3171
490 3611
490 3724
491 514
491 594
491 595
491 808
491 1090
491 1687
491 1695
491 2508
491 2554
491 2629
491 2793
491 3021
491 3121
492 710
492 756
492 792
492 846
492 854
492 900
492 906
492 907
492 928
492 950
492 972
492 1054
492 1082
492 1160
492 1236
492 1291
492 1302
492 1313
492 1398
492 1413
492 1420
492 1609
492 1628
492 1865
492 1949
492 2019
492 2028
492 2114
492 2191
492 2217
492 2248
492 2338
492 2405
492 2415
492 2452
492 2529
492 2685
492 2709
492 2739
492 2781
492 2834
492 2914
492 2957
492 2975
492 3062
492 3222
492 3250
492 3374
492 3429
492 3460
492 3609
492 3697
493 553
493 570
493 578
493 636
493 641
493 679
493 684
493 740
493 859
493 875
493 1004
493 1048
493 1062
493 1122
493 1179
493 1183
493 1220
493 1223
493 1228
493 1316
493 1442
493 1469
493 1513
493 1543
493 1565
493 1594
493 1613
493 1645
493 1747
493 1847
493 1853
493 1996
493 2035
493 2055
493 2090
493 2319
493 2498
493 2503
493 2522
493 2877
493 2948
493 2984
493 3087
493 3117
493 3186
493 3268
493 3269
493 3311
493 3390
493 3397
493 3463
493 3686
493 3704
494 570
494 578
494 669
494 809
494 891
494 906
494 1009
494 1028
494 1048
494 1266
494 1292
494 1472
494 1509
494 1518
494 1565
494 1575
494 1853
494 1908
494 2009
494 2242
494 2323
494 2408
494 2503
494 2549
494 2648
494 2749
494 2857
494 2907
494 3107
494 3117
494 3207
494 3263
494 3390
494 3397
494 3429
494 3508
494 3514
494 3642
494 3683
494 3691
495 526
495 567
495 569
495 638
495 665
495 698
495 715
495 744
495 1024
495 1098
495 1144
495 1307
495 1444
495 1483
495 1522
495 1719
495 1784
495 1908
495 2120
495 2163
495 2210
495 2344
495 2353
495 2386
495 2407
495 2474
495 2554
495 2604
495 2630
495 2668
495 2707
495 2770
495 2866
495 3007
495 3203
495 3315
495 3332
495 3428
495 3652
495 3677
496 531
496 640
496 712
496 726
496 730
496 805
496 813
496 1049
496 1163
496 1592
496 1621
496 1657
496 1681
496 1793
496 1913
496 1931
496 2046
496 2109
496 2323
496 2406
496 2422
496 2466
496 2508
496 2581
496 2693
496 2763
496 2916
496 2971
496 2972
496 3127
496 3128
496 3146
496 3230
496 3376
496 3573
496 3632
496 3678
496 3679
497 508
497 601
497 669
497 712
497 737
497 768
497 839
497 944
497 1050
497 1137
497 1162
497 1189
497 1290
497 1469
497 1534
497 1641
497 1684
497 1692
497 1730
497 1748
497 1793
497 1821
497 1939
497 1952
497 1973
497 1986
497 2008
497 2148
497 2174
497 2201
497 2287
497 2447
497 2461
497 2476
497 2540
497 2648
497 2665
497 2683
497 2699
497 2763
497 2802
497 2877
497 2961
497 3004
497 3091
497 3092
497 3116
497 3122
497 3124
497 3127
497 3128
497 3134
497 3146
497 3151
497 3153
497 3184
497 3265
497 3273
497 3396
497 3404
497 3435
497 3461
497 3534
497 3578
497 3610
497 3654
497 3718
498 506
498 598
498 697
498 726
498 730
498 766
498 891
498 1081
498 1256
498 1469
498 1509
498 1516
498 1913
498 2190
498 2237
498 2270
498 2581
498 2887
498 3151
498 3240
498 3376
498 3431
498 3466
498 3589
498 3598
498 3632
498 3704
499 687
499 1974
499 2361
499 2489
499 3485
499 3546
500 621
500 635
500 873
500 891
500 902
500 929
500 949
500 1162
500 1482
500 1626
500 1892
500 1906
500 1940
500 1944
500 1952
500 2024
500 2119
500 2132
500 2174
500 2177
500 2201
500 2204
500 2206
500 2293
500 2323
500 2422
500 2447
500 2460
500 2482
500 2514
500 2881
500 2902
500 3046
500 3142
500 3151
500 3162
500 3307
500 3376
500 3392
500 3548
500 3606
501 546
501 579
501 603
501 650
501 690
501 709
501 783
501 802
501 1001
501 1027
501 1096
501 1097
501 1191
501 1268
501 1288
501 1325
501 1408
501 1414
501 1489
501 1526
501 1652
501 1681
501 1723
501 1731
501 1801
501 1814
501 1824
501 1863
501 1870
501 1876
501 1927
501 1948
501 2012
501 2046
501 2113
501 2158
501 2250
501 2254
501 2267
501 2330
501 2337
501 2480
501 2564
501 2570
501 2578
501 2631
501 2682
501 2708
501 2751
501 2766
501 2912
501 3066
501 3098
501 3147
501 3173
501 3257
501 3297
501 3304
501 3359
501 3364
501 3544
502 1807
502 3571
503 513
503 545
503 561
503 631
503 699
503 778
503 848
503 1011
503 1075
503 1085
503 1110
503 1113
503 1121
503 1285
503 1288
503 1336
503 1346
503 1360
503 1365
503 1384
503 1390
503 1459
503 1465
503 1490
503 1497
503 1517
503 1549
503 1557
503 1567
503 1569
503 1583
503 1588
503 1593
503 1667
503 1671
503 1679
503 1725
503 1777
503 1838
503 1848
503 1870
503 1922
503 1926
503 1930
503 1941
503 1987
503 2060
503 2131
503 2133
503 2188
503 2236
503 2349
503 2479
503 2499
503 2545
503 2586
503 2638
503 2649
503 2698
503 2717
503 2766
503 2848
503 2871
503 2944
503 3023
503 3043
503 3045
503 3119
503 3137
503 3143
503 3164
503 3167
503 3171
503 3258
503 3259
503 3260
503 3276
503 3277
503 3312
503 3334
503 3336
503 3349
503 3433
503 3452
503 3518
503 3540
503 3689
503 3715
503 3724
504 684
504 723
504 850
504 1240
504 1252
504 1281
504 1356
504 1405
504 1674
504 1703
504 2004
504 2343
504 2348
504 2350
504 2667
504 2806
504 2967
504 3110
504 3169
504 3230
504 3262
504 3367
504 3441
504 3477
504 3503
504 3524
505 768
505 832
505 1292
505 1534
505 2389
505 2627
505 2971
505 3107
505 3171
506 598
506 610
506 660
506 666
506 729
506 746
506 759
506 766
506 781
506 825
506 867
506 1093
506 1111
506 1156
506 1280
506 1481
506 1490
506 1509
506 1517
506 1568
506 1611
506 1613
506 1653
506 1688
506 1845
506 1853
506 1871
506 1992
506 2063
506 2118
506 2205
506 2242
506 2288
506 2315
506 2359
506 2364
506 2392
506 2408
506 2425
506 2498
506 2531
506 2632
506 2678
506 2858
506 2877
506 2885
506 2963
506 2973
506 2975
506 3000
506 3037
506 3066
506 3128
506 3144
506 3183
506 3212
506 3224
506 3237
506 3251
506 3320
506 3384
506 3416
506 3418
506 3442
506 3500
506 3638
506 3704
506 3715
507 1843
507 2469
508 546
508 719
508 762
508 823
508 944
508 1064
508 1101
508 1118
508 1162
508 1238
508 1365
508 1391
508 1571
508 1639
508 1646
508 1748
508 1830
508 1952
508 2004
508 2032
508 2089
508 2111
508 2122
508 2148
508 2174
508 2201
508 2235
508 2327
508 2428
508 2460
508 2498
508 2605
508 2619
508 2648
508 2688
508 2689
508 2839
508 3006
508 3117
508 3127
508 3227
508 3307
508 3354
508 3389
508 3392
508 3400
508 3404
508 3479
508 3483
508 3642
508 3643
508 3659
508 3691
508 3704
508 3718
509 567
509 636
509 666
509 746
509 784
509 874
509 875
509 942
509 1343
509 1373
509 1828
509 1923
509 2009
509 2013
509 2045
509 2522
509 2567
509 3037
509 3305
509 3345
509 3407
510 650
510 698
510 809
510 996
510 1016
510 1200
510 1295
510 1604
510 1610
510 1859
510 1887
510 2015
510 2056
510 2136
510 2201
510 2262
510 2300
510 2346
510 2425
510 2520
510 2596
510 2604
510 2642
510 2668
510 2671
510 2700
510 2751
510 2907
510 2928
510 3021
510 3078
510 3224
510 3297
510 3317
510 3423
510 3664
510 3691
510 3739
510 3741
511 629
511 878
511 1030
511 1272
511 1507
511 1561
511 2299
511 2384
511 2430
511 2766
511 3689
512 513
512 526
512 540
512 546
512 605
512 626
512 631
512 633
512 635
512 636
512 638
512 668
512 698
512 700
512 752
512 767
512 792
512 838
512 892
512 967
512 988
512 1020
512 1057
512 1087
512 1129
512 1130
512 1132
512 1155
512 1168
512 1228
512 1275
512 1286
512 1288
512 1290
512 1321
512 1365
512 1401
512 1416
512 1440
512 1465
512 1549
512 1567
512 1593
512 1630
512 1631
512 1664
512 1670
512 1681
512 1687
512 1725
512 1747
512 1761
512 1770
512 1773
512 1822
512 1829
512 1854
512 1866
512 1902
512 1987
512 1994
512 2025
512 2034
512 2040
512 2066
512 2119
512 2150
512 2174
512 2219
512 2221
512 2236
512 2291
512 2316
512 2326
512 2362
512 2365
512 2368
512 2406
512 2408
512 2413
512 2414
512 2418
512 2424
512 2430
512 2445
512 2455
512 2551
512 2555
512 2559
512 2565
512 2596
512 2615
512 2617
512 2649
512 2658
512 2696
512 2732
512 2745
512 2783
512 2791
512 2805
512 2809
512 2849
512 2879
512 2901
512 2944
512 2973
512 2999
512 3023
512 3070
512 3075
512 3098
512 3101
512 3102
512 3137
512 3139
512 3153
512 3169
512 3191
512 3227
512 3243
512 3253
512 3264
512 3296
512 3349
512 3355
512 3366
512 3386
512 3416
512 3426
512 3436
512 3449
512 3466
512 3477
512 3499
512 3534
512 3547
512 3553
512 3558
512 3562
512 3575
512 3578
512 3592
512 3601
512 3611
512 3617
512 3629
512 3639
512 3721
513 517
513 580
513 594
513 631
513 633
513 638
513 699
513 738
513 752
513 767
513 778
513 782
513 891
513 903
513 921
513 988
513 1025
513 1056
513 1057
513 1075
513 1081
513 1129
513 1133
513 1134
513 1168
513 1169
513 1172
513 1178
513 1183
513 1220
513 1276
513 1278
513 1285
513 1286
513 1290
513 1298
513 1321
513 1365
513 1390
513 1416
513 1417
513 1448
513 1465
513 1487
513 1492
513 1510
513 1518
513 1521
513 1549
513 1557
513 1567
513 1569
513 1578
513 1596
513 1613
513 1630
513 1667
513 1681
513 1758
513 1761
513 1770
513 1773
513 1789
513 1838
513 1902
513 1918
513 1959
513 1987
513 2009
513 2025
513 2048
513 2131
513 2133
513 2141
513 2170
513 2184
513 2205
513 2219
513 2226
513 2233
513 2243
513 2276
513 2295
513 2299
513 2314
513 2316
513 2337
513 2374
513 2406
513 2408
513 2414
513 2418
513 2424
513 2429
513 2430
513 2438
513 2445
513 2455
513 2474
513 2497
513 2551
513 2575
513 2605
513 2607
513 2620
513 2625
513 2635
513 2639
513 2647
513 2649
513 2658
513 2666
513 2696
513 2721
513 2766
513 2783
513 2808
513 2849
513 2944
513 2951
513 2999
513 3007
513 3009
513 3029
513 3068
513 3094
513 3096
513 3101
513 3136
513 3145
513 3153
513 3163
513 3171
513 3191
513 3227
513 3234
513 3243
513 3259
513 3301
513 3312
513 3332
513 3336
513 3349
513 3367
513 3389
513 3404
513 3497
513 3504
513 3510
513 3523
513 3547
513 3562
513 3578
513 3592
513 3599
513 3611
513 3613
513 3624
513 3629
513 3649
513 3675
513 3685
513 3690
513 3691
513 3721
513 3724
513 3735
514 557
514 569
514 594
514 595
514 642
514 665
514 666
514 725
514 764
514 788
514 814
514 856
514 887
514 916
514 960
514 967
514 1022
514 1023
514 1028
514 1030
514 1051
514 1075
514 1085
514 1090
514 1097
514 1119
514 1150
514 1158
514 1174
514 1204
514 1234
514 1239
514 1268
514 1288
514 1337
514 1430
514 1482
514 1507
514 1533
514 1568
514 1597
514 1644
514 1685
514 1686
514 1733
514 1822
514 1825
514 1843
514 1867
514 1893
514 1971
514 2016
514 2064
514 2104
514 2112
514 2115
514 2147
514 2149
514 2299
514 2362
514 2394
514 2401
514 2469
514 2478
514 2483
514 2508
514 2510
514 2554
514 2590
514 2601
514 2629
514 2690
514 2707
514 2727
514 2734
514 2755
514 2786
514 2867
514 2879
514 2947
514 2960
514 2975
514 3007
514 3021
514 3086
514 3112
514 3116
514 3118
514 3138
514 3139
514 3182
514 3183
514 3343
514 3364
514 3370
514 3385
514 3393
514 3430
514 3458
514 3510
514 3518
514 3534
514 3599
514 3619
514 3626
514 3693
514 3695
514 3714
514 3716
514 3718
515 579
515 594
515 627
515 629
515 634
515 647
515 649
515 722
515 748
515 903
515 916
515 967
515 988
515 1057
515 1087
515 1111
515 1174
515 1195
515 1288
515 1297
515 1314
515 1320
515 1377
515 1382
515 1402
515 1450
515 1451
515 1480
515 1489
515 1501
515 1510
515 1521
515 1526
515 1557
515 1567
515 1583
515 1622
515 1631
515 1723
515 1724
515 1773
515 1801
515 1813
515 1831
515 1879
515 1972
515 1978
515 2004
515 2040
515 2186
515 2229
515 2249
515 2250
515 2270
515 2299
515 2321
515 2330
515 2404
515 2441
515 2513
515 2564
515 2582
515 2615
515 2682
515 2692
515 2696
515 2726
515 2728
515 2741
515 2751
515 2848
515 2860
515 2866
515 2891
515 2933
515 2959
515 3014
515 3021
515 3029
515 3030
515 3033
515 3059
515 3071
515 3075
515 3082
515 3171
515 3211
515 3323
515 3325
515 3337
515 3349
515 3433
515 3444
515 3497
515 3616
515 3683
515 3687
515 3734
515 3745
516 1115
516 1236
516 1431
516 2382
516 3081
516 3663
517 521
517 526
517 533
517 570
517 579
517 622
517 631
517 650
517 725
517 738
517 787
517 837
517 968
517 1082
517 1094
517 1125
517 1164
517 1174
517 1186
517 1209
517 1250
517 1279
517 1288
517 1290
517 1297
517 1307
517 1321
517 1339
517 1365
517 1489
517 1501
517 1510
517 1511
517 1521
517 1522
517 1613
517 1656
517 1668
517 1680
517 1756
517 1863
517 1876
517 1902
517 1913
517 1919
517 1972
517 2003
517 2004
517 2012
517 2024
517 2106
517 2129
517 2141
517 2144
517 2192
517 2240
517 2254
517 2299
517 2300
517 2314
517 2362
517 2406
517 2408
517 2438
517 2474
517 2564
517 2578
517 2588
517 2642
517 2696
517 2705
517 2721
517 2751
517 2766
517 2848
517 2884
517 2889
517 3071
517 3075
517 3101
517 3112
517 3125
517 3136
517 3160
517 3183
517 3209
517 3230
517 3234
517 3290
517 3349
517 3385
517 3410
517 3426
517 3544
517 3547
517 3562
517 3623
517 3655
517 3674
517 3675
517 3714
517 3721
517 3739
518 3637
519 594
519 892
519 941
519 1384
519 1416
519 1444
519 1598
519 1617
519 1698
519 1746
519 1805
519 1869
519 1884
519 1905
519 2137
519 2165
519 2253
519 2315
519 2356
519 2460
519 2640
519 2706
519 2723
519 2775
519 2829
519 2870
519 2917
519 2971
519 3360
519 3380
519 3442
519 3449
519 3543
519 3721
520 766
520 1278
520 1436
520 1783
520 1941
520 2122
520 2177
520 2865
520 3376
520 3474
520 3606
520 3729
521 526
521 529
521 666
521 965
521 979
521 1056
521 1253
521 1307
521 1604
521 1708
521 1756
521 1770
521 1796
521 1816
521 1899
521 1905
521 1970
521 2136
521 2362
521 2400
521 2484
521 2642
521 2772
521 2801
521 2853
521 2970
521 3058
521 3130
521 3290
521 3310
521 3568
521 3662
521 3677
521 3714
522 571
522 658
522 678
522 704
522 725
522 883
522 954
522 1002
522 1012
522 1053
522 1085
522 1116
522 1121
522 1334
522 1336
522 1377
522 1550
522 1728
522 1754
522 1785
522 1788
522 2125
522 2158
522 2378
522 2507
522 2512
522 2582
522 2595
522 2730
522 2767
522 2774
522 2804
522 2911
522 2961
522 2980
522 3096
522 3106
522 3370
522 3386
522 3458
522 3540
522 3689
523 841
523 3355
524 653
524 849
524 939
524 1034
524 1277
524 1318
524 1427
524 1597
524 1630
524 1725
524 1962
524 1981
524 2130
524 2344
524 2933
524 3194
524 3455
524 3588
524 3595
524 3618
524 3651
525 560
525 567
525 636
525 666
525 746
525 784
525 874
525 880
525 906
525 942
525 1343
525 1349
525 1373
525 1421
525 1744
525 1908
525 1923
525 2009
525 2013
525 2045
525 2069
525 2485
525 2520
525 2567
525 3037
525 3050
525 3181
525 3305
525 3407
526 531
526 533
526 567
526 594
526 689
526 746
526 877
526 886
526 979
526 1034
526 1056
526 1082
526 1087
526 1098
526 1125
526 1144
526 1168
526 1307
526 1314
526 1340
526 1369
526 1444
526 1451
526 1483
526 1568
526 1687
526 1719
526 1772
526 1773
526 1797
526 1855
526 1856
526 1863
526 1914
526 1928
526 1946
526 1954
526 2004
526 2025
526 2034
526 2146
526 2163
526 2234
526 2246
526 2254
526 2353
526 2362
526 2400
526 2420
526 2553
526 2604
526 2630
526 2642
526 2710
526 2866
526 2962
526 3021
526 3086
526 3102
526 3173
526 3183
526 3203
526 3211
526 3290
526 3466
526 3510
526 3677
526 3716
527 614
527 923
527 933
527 1340
527 1372
527 1472
527 1574
527 2311
527 2367
527 2416
527 2717
527 2971
527 3051
527 3683
528 529
528 544
528 609
528 610
528 614
528 626
528 673
528 806
528 827
528 1001
528 1010
528 1049
528 1099
528 1177
528 1227
528 1263
528 1268
528 1341
528 1350
528 1439
528 1452
528 1544
528 1565
528 1600
528 1601
528 1705
528 1789
528 1831
528 1863
528 1981
528 1996
528 1997
528 2156
528 2171
528 2213
528 2337
528 2360
528 2406
528 2474
528 2515
528 2530
528 2609
528 2657
528 2710
528 2741
528 2751
528 2752
528 2818
528 2935
528 2942
528 2985
528 2994
528 3016
528 3057
528 3066
528 3194
528 3478
528 3501
528 3618
529 544
529 669
529 1099
529 1177
529 1263
529 1363
529 1439
529 1544
529 1789
529 2171
529 2248
529 2271
529 2323
529 2337
529 2484
529 2722
529 2752
529 2801
529 2994
529 3057
529 3249
529 3384
530 543
530 593
530 638
530 656
530 675
530 807
530 844
530 862
530 887
530 906
530 930
530 943
530 988
530 1013
530 1022
530 1037
530 1072
530 1087
530 1458
530 1469
530 1475
530 1537
530 1548
530 1597
530 1777
530 1843
530 1864
530 1912
530 1956
530 1967
530 1969
530 2034
530 2052
530 2064
530 2094
530 2112
530 2114
530 2176
530 2289
530 2329
530 2390
530 2469
530 2474
530 2489
530 2511
530 2601
530 2636
530 2699
530 2710
530 2755
530 2845
530 2859
530 2942
530 2956
530 3021
530 3086
530 3094
530 3105
530 3129
530 3138
530 3149
530 3178
530 3207
530 3224
530 3274
530 3316
530 3339
530 3399
530 3450
530 3510
530 3513
530 3575
530 3597
530 3638
530 3640
530 3709
530 3736
531 589
531 629
531 640
531 670
531 709
531 805
531 886
531 1062
531 1111
531 1125
531 1136
531 1186
531 1198
531 1299
531 1320
531 1325
531 1337
531 1352
531 1358
531 1427
531 1451
531 1585
531 1681
531 1697
531 1721
531 1723
531 1801
531 1855
531 1868
531 1878
531 1948
531 1954
531 1971
531 1978
531 1981
531 2059
531 2146
531 2156
531 2308
531 2325
531 2400
531 2423
531 2438
531 2468
531 2508
531 2631
531 2682
531 2766
531 2891
531 2912
531 2962
531 2964
531 2971
531 2978
531 3015
531 3073
531 3128
531 3143
531 3194
531 3211
531 3261
531 3359
531 3385
531 3439
531 3466
531 3514
531 3573
531 3616
531 3618
531 3640
531 3695
531 3716
532 905
533 570
533 589
533 726
533 1094
533 1098
533 1198
533 1296
533 1307
533 1655
533 1946
533 2094
533 2159
533 2176
533 2297
533 2300
533 2406
533 2543
533 2568
533 2591
533 2605
533 2648
533 2773
533 2795
533 2819
533 2973
533 3015
533 3230
533 3385
533 3478
533 3486
533 3506
533 3630
533 3718
534 536
534 574
534 693
534 695
534 764
534 965
534 1041
534 1131
534 1235
534 1244
534 1312
534 1323
534 1575
534 1580
534 1640
534 1730
534 1832
534 1849
534 2056
534 2107
534 2121
534 2238
534 2251
534 2471
534 2516
534 2544
534 2556
534 2815
534 2973
534 3237
534 3306
534 3346
534 3382
534 3633
534 3684
534 3686
534 3687
535 568
535 570
535 596
535 639
535 856
535 868
535 988
535 1010
535 1222
535 1227
535 1292
535 1545
535 1698
535 2082
535 2276
535 2525
535 2739
535 2809
535 2912
535 3021
535 3102
535 3147
535 3586
536 1235
536 1323
536 1832
536 2095
536 2121
536 2379
536 2516
536 3018
536 3080
536 3236
536 3255
536 3346
536 3382
536 3546
537 1565
537 1832
537 1905
537 1992
537 3296
537 3384
537 3456
537 3511
538 803
539 1036
539 1851
539 1983
539 3150
539 3602
540 609
540 875
540 935
540 988
540 1168
540 1227
540 1356
540 1364
540 1415
540 1457
540 1587
540 1599
540 1651
540 1663
540 1664
540 1772
540 1960
540 2166
540 2221
540 2234
540 2245
540 2276
540 2360
540 2368
540 2555
540 2567
540 2615
540 2657
540 2809
540 2901
540 2912
540 3012
540 3059
540 3102
540 3136
540 3226
540 3378
540 3417
540 3449
540 3499
540 3569
540 3611
540 3720
541 578
541 663
541 689
541 738
541 757
541 791
541 799
541 814
541 840
541 1010
541 1020
541 1023
541 1029
541 1095
541 1123
541 1150
541 1275
541 1308
541 1401
541 1402
541 1673
541 1687
541 1716
541 1761
541 1772
541 1886
541 1964
541 2119
541 2144
541 2215
541 2269
541 2319
541 2363
541 2420
541 2445
541 2464
541 2469
541 2554
541 2690
541 2727
541 2787
541 2813
541 2827
541 2832
541 2839
541 2867
541 2919
541 2948
541 2960
541 2992
541 2999
541 3007
541 3021
541 3119
541 3138
541 3169
541 3191
541 3332
541 3385
541 3626
542 766
542 800
542 1058
542 1209
542 1238
542 1690
542 2077
542 2122
542 2152
542 2191
542 2460
542 2650
542 2656
542 2734
542 3280
542 3516
542 3554
543 557
543 594
543 606
543 614
543 638
543 665
543 725
543 759
543 781
543 803
543 824
543 825
543 877
543 897
543 916
543 925
543 955
543 960
543 988
543 1022
543 1023
543 1037
543 1149
543 1156
543 1157
543 1204
543 1245
543 1258
543 1272
543 1314
543 1340
543 1383
543 1408
543 1419
543 1469
543 1472
543 1501
543 1522
543 1526
543 1543
543 1548
543 1565
543 1568
543 1599
543 1648
543 1681
543 1710
543 1714
543 1733
543 1747
543 1755
543 1777
543 1846
543 1863
543 1864
543 1879
543 1880
543 1970
543 1996
543 2001
543 2011
543 2015
543 2034
543 2042
543 2052
543 2059
543 2064
543 2068
543 2076
543 2104
543 2223
543 2289
543 2323
543 2357
543 2369
543 2372
543 2374
543 2376
543 2381
543 2388
543 2416
543 2424
543 2469
543 2474
543 2493
543 2504
543 2511
543 2517
543 2521
543 2528
543 2544
543 2565
543 2626
543 2636
543 2699
543 2710
543 2757
543 2770
543 2792
543 2836
543 2842
543 2845
543 2860
543 2861
543 2878
543 2907
543 2920
543 2940
543 2956
543 2973
543 2985
543 2989
543 3000
543 3021
543 3082
543 3094
543 3103
543 3138
543 3183
543 3193
543 3207
543 3224
543 3264
543 3329
543 3332
543 3339
543 3394
543 3450
543 3465
543 3482
543 3484
543 3504
543 3508
543 3510
543 3513
543 3517
543 3534
543 3536
543 3572
543 3575
543 3598
543 3599
543 3624
543 3638
543 3650
543 3683
543 3736
544 1099
544 1263
544 2801
544 3678
545 561
545 660
545 1113
545 1184
545 1228
545 1285
545 1317
545 1346
545 1353
545 1465
545 1517
545 1671
545 1679
545 1725
545 1848
545 1860
545 2072
545 2162
545 2219
545 2236
545 2538
545 2547
545 2638
545 2648
545 2728
545 2763
545 2944
545 2951
545 2973
545 3002
545 3026
545 3115
545 3119
545 3143
545 3171
545 3177
545 3204
545 3276
545 3336
545 3362
545 3412
545 3433
545 3540
545 3612
545 3724
546 579
546 586
546 594
546 646
546 650
546 685
546 700
546 704
546 718
546 722
546 725
546 838
546 857
546 915
546 944
546 968
546 1024
546 1027
546 1101
546 1121
546 1130
546 1164
546 1198
546 1239
546 1250
546 1321
546 1489
546 1501
546 1521
546 1724
546 1808
546 1814
546 1816
546 1822
546 1854
546 1859
546 1863
546 1876
546 1925
546 1971
546 1972
546 1992
546 2003
546 2012
546 2014
546 2024
546 2201
546 2229
546 2330
546 2347
546 2413
546 2445
546 2460
546 2492
546 2564
546 2565
546 2640
546 2664
546 2668
546 2703
546 2705
546 2741
546 2751
546 2766
546 2791
546 2805
546 2808
546 2843
546 2845
546 2848
546 2856
546 2884
546 2889
546 2908
546 2962
546 3047
546 3070
546 3071
546 3075
546 3139
546 3147
546 3199
546 3209
546 3227
546 3245
546 3266
546 3272
546 3288
546 3296
546 3297
546 3317
546 3330
546 3337
546 3366
546 3466
546 3477
546 3482
546 3534
546 3544
546 3585
546 3635
546 3674
546 3675
546 3687
546 3691
547 558
547 1725
547 2295
547 2468
547 2962
547 3156
547 3261
548 559
548 634
548 691
548 700
548 761
548 896
548 1043
548 1073
548 1100
548 1121
548 1164
548 1168
548 1186
548 1195
548 1321
548 1331
548 1333
548 1334
548 1465
548 1471
548 1557
548 1618
548 1703
548 1918
548 1929
548 1972
548 2087
548 2125
548 2241
548 2324
548 2445
548 2533
548 2553
548 2571
548 2745
548 2804
548 2960
548 2995
548 3068
548 3097
548 3136
548 3180
548 3185
548 3242
548 3259
548 3349
548 3373
548 3445
548 3466
548 3648
548 3687
548 3734
549 604
549 638
549 697
549 799
549 1366
549 1534
549 1613
549 1646
549 1687
549 1705
549 1935
549 1964
549 1972
549 2170
549 2265
549 2295
549 2337
549 2474
549 2559
549 2733
549 2838
549 2906
549 3101
549 3124
549 3145
549 3146
549 3194
549 3243
549 3482
549 3534
549 3575
549 3603
549 3621
550 647
550 754
550 818
550 858
550 883
550 967
550 1002
550 1050
550 1065
550 1120
550 1141
550 1167
550 1195
550 1377
550 1480
550 1510
550 1616
550 1667
550 1898
550 1925
550 2378
550 2389
550 2397
550 2696
550 3029
550 3055
550 3070
550 3108
550 3131
550 3133
550 3227
550 3306
550 3466
550 3562
550 3596
550 3689
550 3737
551 854
551 1413
551 1735
551 3064
551 3537
551 3709
551 3746
552 689
552 733
552 911
552 918
552 1104
552 1163
552 1217
552 1226
552 1547
552 1555
552 1856
552 1969
552 2220
552 2420
552 2464
552 2474
552 2660
552 2677
552 3081
552 3083
552 3163
552 3562
553 570
553 636
553 664
553 682
553 699
553 875
553 881
553 917
553 965
553 1053
553 1145
553 1171
553 1220
553 1223
553 1228
553 1262
553 1485
553 1519
553 1573
553 1593
553 1655
553 1681
553 1699
553 1741
553 1780
553 2013
553 2035
553 2141
553 2171
553 2333
553 2359
553 2370
553 2498
553 2514
553 2522
553 2809
553 2835
553 2858
553 2877
553 2948
553 2964
553 3066
553 3087
553 3111
553 3166
553 3311
553 3573
553 3668
553 3684
553 3686
553 3700
553 3704
553 3715
553 3729
554 564
554 594
554 599
554 602
554 753
554 1087
554 1089
554 1148
554 1393
554 1411
554 1514
554 1624
554 1636
554 1946
554 2034
554 2046
554 2113
554 2213
554 2229
554 2337
554 2625
554 2682
554 2703
554 2741
554 2808
554 2891
554 3190
554 3214
554 3248
554 3309
554 3511
554 3521
554 3562
554 3600
554 3721
554 3726
555 647
555 725
555 1060
555 1121
555 1570
555 1724
555 1867
555 2125
555 2492
555 2994
555 3071
555 3074
555 3093
556 646
556 689
556 930
556 943
556 1007
556 1037
556 1055
556 1330
556 1969
556 2076
556 2114
556 2124
556 2243
556 2416
556 2511
556 2617
556 2724
556 2789
556 2838
556 2973
556 2975
556 2986
556 3008
556 3021
556 3081
556 3135
556 3248
556 3275
556 3398
556 3431
556 3469
556 3481
556 3597
557 594
557 606
557 638
557 723
557 783
557 824
557 877
557 916
557 960
557 1023
557 1037
557 1149
557 1258
557 1314
557 1358
557 1408
557 1522
557 1531
557 1546
557 1568
557 1597
557 1599
557 1681
557 1729
557 1745
557 1755
557 1814
557 1825
557 1843
557 1846
557 1863
557 1864
557 2001
557 2034
557 2064
557 2076
557 2079
557 2104
557 2158
557 2168
557 2289
557 2390
557 2416
557 2462
557 2510
557 2521
557 2601
557 2617
557 2682
557 2710
557 2755
557 2842
557 2861
557 2973
557 3000
557 3021
557 3103
557 3138
557 3183
557 3193
557 3207
557 3212
557 3224
557 3332
557 3339
557 3342
557 3430
557 3449
557 3450
557 3465
557 3510
557 3557
557 3608
557 3624
557 3638
557 3641
557 3672
558 1425
558 2308
558 2641
558 2665
558 2689
558 3122
558 3184
558 3336
558 3632
559 638
559 700
559 896
559 967
559 1109
559 1168
559 1321
559 1333
559 1412
559 1444
559 1471
559 1505
559 1522
559 1557
559 1613
559 1631
559 1703
559 1854
559 1863
559 1875
559 1929
559 2178
559 2229
559 2323
559 2324
559 2533
559 2553
559 2571
559 2710
559 2741
559 2745
559 2752
559 2907
559 2915
559 2925
559 2963
559 3000
559 3068
559 3112
559 3136
559 3224
559 3242
559 3259
559 3325
559 3349
559 3445
559 3575
559 3656
559 3682
559 3712
559 3734
560 1004
560 1509
560 1554
560 1741
560 1908
560 2035
560 2212
560 2372
560 2503
560 3384
560 3424
560 3507
561 595
561 600
561 633
561 649
561 660
561 664
561 685
561 704
561 802
561 838
561 841
561 864
561 889
561 897
561 899
561 903
561 917
561 921
561 967
561 1002
561 1050
561 1057
561 1072
561 1085
561 1121
561 1141
561 1153
561 1174
561 1180
561 1185
561 1218
561 1228
561 1321
561 1322
561 1324
561 1360
561 1382
561 1402
561 1414
561 1448
561 1459
561 1475
561 1480
561 1487
561 1520
561 1549
561 1583
561 1588
561 1593
561 1598
561 1613
561 1618
561 1644
561 1660
561 1686
561 1719
561 1724
561 1728
561 1821
561 1848
561 1859
561 1902
561 1903
561 1916
561 1943
561 1978
561 1987
561 2004
561 2007
561 2008
561 2040
561 2115
561 2144
561 2206
561 2216
561 2236
561 2249
561 2250
561 2251
561 2265
561 2291
561 2313
561 2327
561 2337
561 2416
561 2430
561 2452
561 2478
561 2479
561 2498
561 2512
561 2514
561 2515
561 2517
561 2538
561 2545
561 2548
561 2566
561 2582
561 2638
561 2664
561 2728
561 2734
561 2741
561 2763
561 2791
561 2804
561 2871
561 2899
561 2903
561 2944
561 2971
561 2989
561 3030
561 3046
561 3047
561 3054
561 3059
561 3075
561 3087
561 3091
561 3092
561 3121
561 3124
561 3145
561 3153
561 3161
561 3171
561 3173
561 3194
561 3225
561 3227
561 3259
561 3295
561 3325
561 3337
561 3339
561 3366
561 3395
561 3433
561 3497
561 3525
561 3550
561 3553
561 3575
561 3584
561 3599
561 3656
561 3689
561 3690
561 3704
561 3716
561 3734
561 3745
562 620
562 638
562 640
562 873
562 939
562 1031
562 1091
562 1275
562 1299
562 1318
562 1532
562 1797
562 1893
562 2071
562 2084
562 2176
562 2238
562 2242
562 2309
562 2337
562 2438
562 2445
562 2495
562 2588
562 2625
562 2650
562 2655
562 2703
562 2808
562 2848
562 3059
562 3265
562 3426
562 3535
562 3575
562 3639
562 3640
562 3681
562 3703
562 3721
563 587
563 598
563 669
563 697
563 712
563 720
563 726
563 752
563 767
563 781
563 805
563 948
563 963
563 1000
563 1003
563 1004
563 1021
563 1028
563 1038
563 1063
563 1082
563 1103
563 1183
563 1222
563 1295
563 1299
563 1357
563 1492
563 1634
563 1698
563 1748
563 1841
563 1893
563 1894
563 1905
563 1913
563 2067
563 2077
563 2110
563 2174
563 2179
563 2235
563 2356
563 2392
563 2466
563 2536
563 2544
563 2580
563 2581
563 2591
563 2605
563 2628
563 2656
563 2661
563 2706
563 2723
563 2772
563 2817
563 2851
563 2852
563 2869
563 2890
563 2954
563 2956
563 2972
563 3044
563 3117
563 3150
563 3223
563 3241
563 3278
563 3280
563 3287
563 3376
563 3390
563 3413
563 3456
563 3476
563 3741
564 565
564 566
564 602
564 646
564 753
564 885
564 977
564 1089
564 1446
564 1468
564 1708
564 1735
564 2341
564 2440
564 3081
564 3248
564 3709
564 3746
565 854
565 928
565 1086
565 1104
565 1236
565 1256
565 1413
565 1666
565 2263
565 2431
565 2434
565 2487
565 2834
565 2853
565 3271
565 3421
565 3546
565 3746
566 753
566 885
566 930
566 950
566 977
566 1429
566 1468
566 1766
566 2341
566 3248
566 3570
567 636
567 666
567 746
567 784
567 834
567 874
567 875
567 906
567 1144
567 1236
567 1244
567 1373
567 1444
567 1483
567 1719
567 1780
567 1828
567 1908
567 1923
567 2009
567 2013
567 2045
567 2069
567 2121
567 2310
567 2353
567 2520
567 2522
567 2567
567 2684
567 2693
567 2815
567 2866
567 2880
567 3037
567 3050
567 3111
567 3112
567 3130
567 3141
567 3181
567 3203
567 3305
567 3306
567 3345
567 3358
567 3407
567 3514
567 3670
568 696
568 1107
568 1298
568 1359
568 1457
568 1578
568 1596
568 1664
568 1778
568 1917
568 1918
568 2188
568 2224
568 2255
568 2400
568 2608
568 2826
568 3041
568 3301
568 3312
568 3503
568 3575
569 638
569 642
569 656
569 665
569 744
569 832
569 1037
569 1104
569 1123
569 1150
569 1234
569 1275
569 1337
569 1522
569 1530
569 1597
569 1640
569 1843
569 2025
569 2034
569 2251
569 2392
569 2445
569 2521
569 2554
569 2677
569 2690
569 2707
569 2710
569 2727
569 2770
569 2808
569 2973
569 3007
569 3016
569 3021
569 3118
569 3129
569 3149
569 3183
569 3224
569 3315
569 3510
569 3624
570 578
570 586
570 594
570 598
570 628
570 636
570 641
570 664
570 669
570 676
570 699
570 801
570 815
570 832
570 833
570 836
570 856
570 875
570 923
570 924
570 941
570 973
570 1001
570 1028
570 1030
570 1036
570 1038
570 1048
570 1049
570 1050
570 1094
570 1122
570 1130
570 1132
570 1158
570 1171
570 1174
570 1183
570 1186
570 1206
570 1220
570 1222
570 1223
570 1228
570 1256
570 1259
570 1292
570 1293
570 1391
570 1397
570 1438
570 1442
570 1469
570 1543
570 1565
570 1574
570 1586
570 1593
570 1644
570 1659
570 1728
570 1748
570 1773
570 1822
570 1849
570 1853
570 1875
570 1893
570 1992
570 1996
570 2013
570 2034
570 2035
570 2067
570 2082
570 2115
570 2129
570 2141
570 2210
570 2242
570 2270
570 2300
570 2319
570 2339
570 2370
570 2496
570 2498
570 2503
570 2522
570 2543
570 2549
570 2575
570 2583
570 2605
570 2666
570 2670
570 2713
570 2749
570 2763
570 2799
570 2809
570 2819
570 2852
570 2877
570 2946
570 2948
570 2964
570 2973
570 2977
570 2978
570 2984
570 2999
570 3016
570 3066
570 3087
570 3107
570 3111
570 3112
570 3117
570 3120
570 3153
570 3186
570 3230
570 3234
570 3263
570 3270
570 3273
570 3311
570 3390
570 3397
570 3413
570 3424
570 3435
570 3442
570 3452
570 3478
570 3513
570 3528
570 3585
570 3586
570 3598
570 3613
570 3659
570 3704
570 3718
570 3741
571 748
571 761
571 967
571 1116
571 1121
571 1174
571 1333
571 1377
571 1583
571 1589
571 1631
571 1724
571 1788
571 1918
571 1972
571 1978
571 2016
571 2040
571 2104
571 2125
571 2186
571 2229
571 2321
571 2378
571 2404
571 2507
571 2551
571 2582
571 2588
571 2741
571 2755
571 2772
571 2794
571 2804
571 3029
571 3047
571 3301
571 3312
571 3323
571 3325
571 3395
571 3415
571 3444
571 3745
572 748
572 903
572 968
572 1073
572 1100
572 1164
572 1174
572 1195
572 1250
572 1334
572 1371
572 1400
572 1487
572 1521
572 1618
572 1728
572 1844
572 1854
572 1876
572 1921
572 1959
572 1972
572 2016
572 2218
572 2240
572 2265
572 2337
572 2445
572 2507
572 2602
572 2721
572 2791
572 2850
572 3047
572 3101
572 3125
572 3220
572 3259
572 3292
572 3395
572 3415
572 3426
572 3444
572 3521
572 3675
572 3676
572 3682
572 3721
573 581
573 2398
574 695
574 829
574 884
574 932
574 994
574 1041
574 1354
574 1446
574 1581
574 1891
574 2056
574 2061
574 2440
574 2529
574 2589
574 2673
574 2707
574 2807
574 3022
574 3052
574 3222
574 3318
574 3331
574 3346
574 3457
575 615
575 1269
575 1485
575 1591
575 1672
575 2975
575 3056
575 3233
575 3251
575 3255
575 3660
576 665
576 987
576 1018
576 1772
576 1776
576 1886
576 2796
576 2867
576 2870
576 3043
576 3350
577 1198
577 3614
578 680
578 681
578 906
578 1056
578 1103
578 1171
578 1220
578 1259
578 1275
578 1292
578 1350
578 1402
578 1509
578 1565
578 1613
578 1661
578 1687
578 1716
578 1850
578 1853
578 1871
578 1888
578 1893
578 1935
578 1978
578 2035
578 2237
578 2271
578 2408
578 2445
578 2549
578 2570
578 2752
578 2799
578 2808
578 2832
578 2978
578 3019
578 3107
578 3117
578 3187
578 3263
578 3311
578 3384
578 3397
578 3449
578 3523
578 3626
578 3668
578 3670
578 3692
579 620
579 627
579 636
579 650
579 658
579 783
579 784
579 798
579 875
579 934
579 967
579 968
579 1024
579 1027
579 1057
579 1065
579 1087
579 1096
579 1164
579 1174
579 1250
579 1288
579 1320
579 1321
579 1350
579 1450
579 1482
579 1487
579 1489
579 1501
579 1521
579 1526
579 1531
579 1568
579 1583
579 1593
579 1616
579 1622
579 1631
579 1642
579 1685
579 1690
579 1724
579 1725
579 1772
579 1797
579 1814
579 1822
579 1825
579 1853
579 1863
579 1876
579 1877
579 1879
579 1925
579 1972
579 1978
579 1992
579 2012
579 2040
579 2064
579 2151
579 2158
579 2186
579 2205
579 2229
579 2240
579 2245
579 2250
579 2254
579 2314
579 2320
579 2321
579 2330
579 2337
579 2368
579 2404
579 2408
579 2460
579 2507
579 2513
579 2555
579 2564
579 2570
579 2578
579 2582
579 2613
579 2615
579 2703
579 2705
579 2710
579 2741
579 2743
579 2751
579 2752
579 2763
579 2766
579 2774
579 2808
579 2818
579 2842
579 2848
579 3030
579 3071
579 3098
579 3102
579 3108
579 3164
579 3169
579 3183
579 3184
579 3259
579 3297
579 3316
579 3320
579 3323
579 3325
579 3337
579 3349
579 3370
579 3395
579 3397
579 3410
579 3424
579 3444
579 3486
579 3513
579 3521
579 3544
579 3573
579 3575
579 3599
579 3623
579 3674
579 3683
579 3687
579 3689
579 3721
579 3734
579 3745
580 742
580 832
580 903
580 1041
580 1141
580 1453
580 1691
580 1704
580 1725
580 1870
580 2038
580 2133
580 2157
580 2287
580 2594
580 2648
580 2746
580 2980
580 3405
581 1731
581 1776
581 2398
581 2656
582 1608
582 1807
582 1974
582 2263
582 2338
582 2634
582 2651
582 2685
582 3088
582 3562
583 625
583 765
583 1133
583 1799
583 2008
583 2699
583 2792
583 2956
583 3578
584 593
584 594
584 638
584 656
584 844
584 887
584 916
584 930
584 943
584 988
584 1022
584 1072
584 1085
584 1087
584 1204
584 1475
584 1546
584 1548
584 1597
584 1688
584 1843
584 1879
584 1912
584 1967
584 2042
584 2052
584 2064
584 2112
584 2160
584 2289
584 2329
584 2369
584 2390
584 2436
584 2469
584 2474
584 2517
584 2521
584 2528
584 2601
584 2636
584 2699
584 2707
584 2710
584 2792
584 2808
584 2859
584 2942
584 2956
584 3021
584 3086
584 3094
584 3129
584 3138
584 3224
584 3316
584 3339
584 3450
584 3465
584 3513
584 3597
584 3640
584 3642
584 3683
584 3736
585 1108
586 646
586 812
586 837
586 968
586 1024
586 1071
586 1164
586 1275
586 1288
586 1298
586 1299
586 1334
586 1364
586 1416
586 1450
586 1487
586 1501
586 1510
586 1522
586 1656
586 1668
586 1734
586 1756
586 1844
586 1848
586 1854
586 1859
586 1863
586 1921
586 1972
586 2012
586 2016
586 2052
586 2209
586 2337
586 2445
586 2474
586 2544
586 2564
586 2578
586 2588
586 2703
586 2705
586 2707
586 2751
586 2766
586 2797
586 2808
586 2848
586 2850
586 2889
586 2907
586 3021
586 3054
586 3068
586 3071
586 3075
586 3101
586 3145
586 3209
586 3220
586 3243
586 3259
586 3288
586 3426
586 3476
586 3521
586 3544
586 3562
586 3575
586 3603
586 3676
586 3682
586 3721
586 3736
587 598
587 697
587 720
587 732
587 752
587 809
587 1028
587 1082
587 1282
587 1361
587 1440
587 1816
587 2002
587 2092
587 2137
587 2319
587 2356
587 2371
587 2656
587 2771
587 2823
587 2888
587 2956
587 3278
587 3413
587 3456
587 3710
588 1225
588 1226
588 1928
588 2353
588 2474
588 2554
589 593
589 594
589 844
589 916
589 1022
589 1072
589 1097
589 1198
589 1458
589 1475
589 1490
589 1510
589 1597
589 1655
589 1695
589 1912
589 2042
589 2094
589 2176
589 2390
589 2423
589 2508
589 2601
589 2636
589 2895
589 2912
589 2986
589 3015
589 3021
589 3073
589 3105
589 3129
589 3152
589 3230
589 3316
589 3359
589 3399
589 3450
589 3466
589 3478
589 3573
589 3597
589 3640
589 3744
590 767
590 803
590 988
590 1013
590 1153
590 1245
590 1249
590 1340
590 1593
590 1710
590 1777
590 1819
590 2298
590 2424
590 2517
590 2528
590 2699
590 2792
590 2940
590 3072
590 3094
590 3264
590 3356
590 3482
590 3484
590 3504
590 3683
591 891
591 1137
591 1425
591 1648
591 1873
591 1939
591 2095
591 2204
591 2212
591 3028
591 3151
591 3423
591 3436
591 3453
591 3682
591 3702
591 3742
592 731
592 1697
592 1733
592 1954
592 1986
592 2060
592 2144
592 2201
592 2373
592 2466
592 2547
592 2679
592 2959
592 2962
592 3065
592 3125
592 3189
592 3376
592 3404
593 594
593 638
593 844
593 916
593 930
593 988
593 1085
593 1097
593 1197
593 1236
593 1304
593 1458
593 1475
593 1568
593 1597
593 1688
593 1705
593 1837
593 1912
593 1956
593 2112
593 2160
593 2165
593 2176
593 2178
593 2182
593 2210
593 2329
593 2347
593 2369
593 2390
593 2423
593 2469
593 2474
593 2601
593 2687
593 2710
593 2746
593 2755
593 2821
593 2895
593 2941
593 2973
593 3000
593 3021
593 3078
593 3086
593 3105
593 3129
593 3183
593 3224
593 3296
593 3371
593 3399
593 3437
593 3450
593 3465
593 3575
593 3624
593 3638
593 3640
594 620
594 626
594 638
594 642
594 658
594 665
594 740
594 767
594 804
594 809
594 812
594 816
594 840
594 844
594 877
594 887
594 892
594 899
594 916
594 930
594 943
594 953
594 955
594 964
594 967
594 970
594 988
594 1002
594 1022
594 1023
594 1024
594 1043
594 1058
594 1072
594 1085
594 1087
594 1097
594 1116
594 1117
594 1149
594 1157
594 1197
594 1198
594 1209
594 1222
594 1225
594 1227
594 1275
594 1288
594 1299
594 1321
594 1344
594 1358
594 1362
594 1366
594 1408
594 1416
594 1422
594 1444
594 1458
594 1465
594 1471
594 1475
594 1479
594 1490
594 1501
594 1526
594 1537
594 1543
594 1544
594 1550
594 1568
594 1597
594 1613
594 1632
594 1681
594 1686
594 1705
594 1710
594 1729
594 1754
594 1764
594 1772
594 1777
594 1788
594 1799
594 1805
594 1814
594 1822
594 1825
594 1863
594 1869
594 1879
594 1886
594 1912
594 1922
594 1925
594 1969
594 1999
594 2001
594 2004
594 2014
594 2015
594 2025
594 2034
594 2038
594 2042
594 2046
594 2052
594 2059
594 2064
594 2076
594 2104
594 2112
594 2137
594 2141
594 2152
594 2158
594 2168
594 2176
594 2234
594 2238
594 2253
594 2276
594 2289
594 2311
594 2369
594 2372
594 2390
594 2392
594 2408
594 2423
594 2436
594 2445
594 2469
594 2474
594 2507
594 2510
594 2517
594 2521
594 2528
594 2544
594 2559
594 2575
594 2582
594 2601
594 2615
594 2617
594 2625
594 2633
594 2636
594 2648
594 2649
594 2655
594 2665
594 2682
594 2699
594 2703
594 2706
594 2710
594 2743
594 2745
594 2752
594 2772
594 2774
594 2791
594 2792
594 2808
594 2821
594 2838
594 2842
594 2845
594 2859
594 2861
594 2869
594 2884
594 2888
594 2895
594 2906
594 2917
594 2920
594 2922
594 2940
594 2941
594 2942
594 2956
594 2962
594 2966
594 2967
594 2973
594 2984
594 2988
594 3000
594 3009
594 3015
594 3021
594 3047
594 3059
594 3086
594 3094
594 3118
594 3129
594 3138
594 3145
594 3152
594 3178
594 3183
594 3190
594 3193
594 3194
594 3207
594 3212
594 3234
594 3248
594 3274
594 3296
594 3300
594 3316
594 3339
594 3343
594 3360
594 3371
594 3376
594 3394
594 3399
594 3405
594 3449
594 3450
594 3465
594 3466
594 3482
594 3484
594 3504
594 3510
594 3511
594 3513
594 3534
594 3557
594 3572
594 3575
594 3578
594 3597
594 3624
594 3638
594 3639
594 3640
594 3641
594 3642
594 3683
594 3687
594 3689
594 3714
594 3718
594 3721
594 3736
594 3744
595 603
595 638
595 697
595 740
595 757
595 809
595 825
595 839
595 996
595 1033
595 1062
595 1156
595 1179
595 1206
595 1221
595 1366
595 1469
595 1505
595 1514
595 1595
595 1613
595 1661
595 1719
595 1822
595 1996
595 2004
595 2033
595 2066
595 2095
595 2134
595 2205
595 2206
595 2229
595 2249
595 2337
595 2554
595 2648
595 2808
595 2878
595 2915
595 2989
595 3004
595 3046
595 3054
595 3083
595 3121
595 3147
595 3194
595 3226
595 3266
595 3396
595 3404
595 3521
595 3536
595 3573
595 3575
595 3598
595 3639
595 3656
595 3736
595 3739
595 3745
596 1054
596 1055
596 1394
596 1476
596 1879
596 1900
596 2224
596 2238
596 2356
596 2440
596 2511
596 3081
596 3414
596 3459
596 3469
597 3275
598 636
598 661
598 669
598 684
598 697
598 712
598 720
598 726
598 732
598 747
598 752
598 766
598 769
598 781
598 784
598 805
598 832
598 858
598 901
598 907
598 965
598 981
598 1000
598 1009
598 1021
598 1028
598 1082
598 1151
598 1193
598 1220
598 1277
598 1282
598 1357
598 1361
598 1411
598 1440
598 1469
598 1485
598 1492
598 1509
598 1519
598 1613
598 1634
598 1653
598 1699
598 1737
598 1742
598 1744
598 1748
598 1757
598 1816
598 1852
598 1913
598 1951
598 1952
598 1996
598 2002
598 2009
598 2067
598 2077
598 2092
598 2122
598 2159
598 2174
598 2191
598 2201
598 2212
598 2237
598 2242
598 2265
598 2356
598 2371
598 2392
598 2399
598 2406
598 2418
598 2471
598 2514
598 2574
598 2580
598 2581
598 2591
598 2628
598 2648
598 2656
598 2661
598 2683
598 2749
598 2771
598 2773
598 2781
598 2802
598 2810
598 2822
598 2823
598 2825
598 2829
598 2852
598 2884
598 2888
598 2890
598 2911
598 2954
598 2956
598 2979
598 3004
598 3010
598 3016
598 3111
598 3112
598 3150
598 3166
598 3278
598 3295
598 3302
598 3359
598 3376
598 3390
598 3396
598 3404
598 3413
598 3422
598 3431
598 3435
598 3446
598 3456
598 3476
598 3548
598 3569
598 3596
598 3622
598 3632
598 3637
598 3686
598 3696
598 3718
598 3729
599 638
599 1148
599 1624
599 1768
599 2049
599 2170
599 2337
599 2462
599 2655
599 2703
599 2808
599 2813
599 2865
599 3059
599 3190
599 3511
599 3521
599 3600
599 3621
599 3639
600 732
600 754
600 883
600 1050
600 1072
600 1116
600 1134
600 1141
600 1218
600 1290
600 1402
600 1501
600 1588
600 1644
600 1725
600 1758
600 1848
600 1870
600 1924
600 1941
600 2024
600 2033
600 2129
600 2132
600 2295
600 2320
600 2378
600 2497
600 2498
600 2512
600 2517
600 2703
600 2730
600 2766
600 2808
600 2871
600 2906
600 2912
600 2960
600 2980
600 3098
600 3184
600 3349
600 3359
600 3440
600 3497
600 3661
600 3666
600 3669
600 3695
601 642
601 703
601 757
601 765
601 832
601 917
601 934
601 939
601 1075
601 1114
601 1141
601 1276
601 1292
601 1321
601 1346
601 1475
601 1561
601 1625
601 1695
601 1787
601 1878
601 1903
601 2047
601 2101
601 2201
601 2287
601 2412
601 2447
601 2476
601 2482
601 2581
601 2582
601 2698
601 2728
601 2730
601 2877
601 2939
601 3010
601 3069
601 3164
601 3404
601 3433
601 3435
601 3531
601 3718
602 659
602 753
602 840
602 1056
602 1087
602 1089
602 1148
602 1393
602 1417
602 1514
602 1624
602 1946
602 2025
602 2129
602 2213
602 2229
602 2337
602 2363
602 2625
602 2703
602 2741
602 2808
602 2891
602 3150
602 3214
602 3309
602 3511
602 3521
602 3528
602 3626
602 3721
602 3726
603 933
603 1081
603 1661
603 2066
603 2808
603 2861
603 3147
603 3681
604 697
604 864
604 1290
604 1366
604 1534
604 1613
604 1646
604 1959
604 2033
604 2134
604 2170
604 2257
604 2264
604 2265
604 2287
604 2295
604 2559
604 2733
604 2906
604 3124
604 3145
604 3146
604 3194
604 3243
604 3547
604 3575
604 3689
605 638
605 661
605 679
605 698
605 752
605 759
605 802
605 825
605 859
605 897
605 942
605 965
605 995
605 1004
605 1030
605 1062
605 1156
605 1221
605 1275
605 1286
605 1299
605 1323
605 1383
605 1469
605 1518
605 1568
605 1605
605 1629
605 1640
605 1648
605 1734
605 1761
605 1770
605 1822
605 1837
605 1845
605 1859
605 1873
605 1879
605 1897
605 1994
605 1996
605 2014
605 2035
605 2054
605 2095
605 2151
605 2187
605 2212
605 2219
605 2236
605 2282
605 2291
605 2372
605 2413
605 2418
605 2430
605 2445
605 2474
605 2556
605 2583
605 2604
605 2620
605 2760
605 2790
605 2791
605 2857
605 2869
605 2878
605 2884
605 2907
605 2956
605 2973
605 3016
605 3119
605 3137
605 3253
605 3423
605 3437
605 3466
605 3477
605 3558
605 3585
605 3592
605 3598
605 3629
605 3630
605 3638
605 3687
605 3696
606 824
606 887
606 916
606 960
606 1023
606 1072
606 1087
606 1149
606 1458
606 1477
606 1568
606 1597
606 2001
606 2034
606 2064
606 2068
606 2079
606 2168
606 2206
606 2289
606 2416
606 2510
606 2514
606 2521
606 2601
606 2710
606 2755
606 2842
606 2920
606 3000
606 3021
606 3103
606 3138
606 3183
606 3207
606 3224
606 3339
606 3417
606 3430
606 3466
606 3510
606 3624
606 3638
607 1512
607 1672
607 1740
607 2097
607 3467
608 670
608 673
608 1958
608 2014
608 2836
608 3426
608 3526
608 3561
608 3600
609 827
609 832
609 988
609 1049
609 1227
609 1263
609 1337
609 1356
609 1368
609 1457
609 1601
609 1962
609 2276
609 2371
609 2555
609 2657
609 2781
609 2809
609 2901
609 3012
609 3057
609 3194
609 3246
609 3378
609 3618
609 3746
610 669
610 729
610 806
610 951
610 1177
610 1208
610 1263
610 1280
610 1350
610 1568
610 1641
610 1697
610 2067
610 2149
610 2242
610 2337
610 2609
610 2678
610 2710
610 2752
610 2852
610 2994
610 3057
610 3066
610 3183
610 3212
610 3390
610 3718
611 998
611 1554
611 1664
611 1699
611 1756
611 1806
611 2075
611 2448
611 2506
611 2880
611 3034
611 3110
611 3436
611 3536
611 3546
611 3564
612 697
612 821
612 1893
612 2574
612 2911
613 1083
613 1247
614 623
614 626
614 669
614 677
614 690
614 759
614 764
614 806
614 807
614 850
614 856
614 897
614 998
614 1001
614 1022
614 1108
614 1124
614 1177
614 1256
614 1263
614 1296
614 1350
614 1372
614 1439
614 1518
614 1543
614 1544
614 1548
614 1565
614 1725
614 1734
614 1761
614 1795
614 1873
614 1908
614 2034
614 2042
614 2055
614 2064
614 2171
614 2174
614 2190
614 2237
614 2252
614 2271
614 2337
614 2372
614 2416
614 2488
614 2531
614 2553
614 2634
614 2646
614 2674
614 2710
614 2725
614 2752
614 2765
614 2845
614 2861
614 2907
614 2908
614 2975
614 2994
614 2998
614 3057
614 3066
614 3249
614 3369
614 3376
614 3509
614 3536
614 3609
615 1269
615 1445
615 1591
615 1974
615 2048
615 3031
615 3296
615 3660
616 3332
617 759
617 773
617 859
617 1156
617 1179
617 1648
617 1747
617 2035
617 2583
617 2878
617 2969
617 2989
617 3463
617 3535
617 3598
618 3612
619 718
619 757
619 767
619 878
619 893
619 1020
619 1082
619 1133
619 1272
619 1303
619 1452
619 1456
619 1507
619 1725
619 1981
619 2059
619 2119
619 2139
619 2140
619 2299
619 2333
619 2392
619 2400
619 2528
619 2543
619 2781
619 2827
619 2998
619 3009
619 3010
619 3070
619 3194
619 3337
619 3466
619 3491
619 3575
619 3618
619 3626
619 3695
620 638
620 839
620 939
620 956
620 1050
620 1091
620 1186
620 1195
620 1207
620 1218
620 1225
620 1234
620 1318
620 1321
620 1333
620 1393
620 1400
620 1403
620 1471
620 1510
620 1557
620 1618
620 1630
620 1667
620 1723
620 1797
620 1818
620 1882
620 1902
620 1959
620 1972
620 1984
620 2071
620 2202
620 2210
620 2324
620 2337
620 2418
620 2474
620 2527
620 2533
620 2553
620 2559
620 2571
620 2625
620 2655
620 2683
620 2703
620 2745
620 2766
620 2774
620 2804
620 2808
620 2865
620 2944
620 3068
620 3136
620 3193
620 3234
620 3259
620 3345
620 3349
620 3373
620 3426
620 3440
620 3462
620 3520
620 3521
620 3549
620 3562
620 3575
620 3639
620 3675
620 3689
620 3717
620 3721
621 631
621 902
621 929
621 949
621 1460
621 1940
621 2115
621 2122
621 2323
621 2881
621 3039
621 3075
621 3128
621 3392
622 712
622 726
622 858
622 878
622 1209
622 1444
622 1485
622 1593
622 1594
622 1655
622 1698
622 1751
622 1817
622 2165
622 2293
622 2422
622 2514
622 2581
622 2616
622 2723
622 2771
622 2883
622 2884
622 3010
622 3123
622 3183
622 3192
622 3376
622 3479
622 3655
623 764
623 804
623 891
623 897
623 1024
623 1084
623 1156
623 1231
623 1235
623 1256
623 1296
623 1345
623 1464
623 1487
623 1491
623 1505
623 1514
623 1518
623 1522
623 1552
623 1610
623 1667
623 1674
623 1734
623 1756
623 1788
623 1816
623 1841
623 1845
623 1859
623 1897
623 1979
623 2120
623 2158
623 2307
623 2323
623 2357
623 2374
623 2413
623 2417
623 2424
623 2430
623 2504
623 2668
623 2687
623 2819
623 2836
623 2861
623 2907
623 2911
623 2956
623 2994
623 3000
623 3071
623 3093
623 3108
623 3214
623 3296
623 3306
623 3317
623 3324
623 3437
623 3507
623 3536
623 3544
623 3561
623 3575
623 3652
623 3667
623 3688
623 3691
623 3704
623 3714
623 3721
623 3731
624 1600
624 1811
624 2416
624 2504
624 3154
625 626
625 633
625 699
625 1223
625 1322
625 1417
625 1517
625 1554
625 1561
625 1799
625 1867
625 1950
625 2008
625 2352
625 2517
625 2699
625 2775
625 2792
625 2877
625 2879
625 2942
625 2999
625 3092
625 3122
625 3153
625 3182
625 3261
625 3424
625 3507
625 3578
625 3642
626 630
626 631
626 633
626 636
626 669
626 737
626 752
626 806
626 892
626 901
626 1014
626 1161
626 1177
626 1197
626 1228
626 1263
626 1350
626 1439
626 1465
626 1518
626 1565
626 1567
626 1619
626 1630
626 1651
626 1681
626 1725
626 1761
626 1789
626 1797
626 1799
626 2008
626 2040
626 2052
626 2174
626 2219
626 2242
626 2246
626 2316
626 2337
626 2406
626 2408
626 2414
626 2418
626 2430
626 2517
626 2559
626 2710
626 2738
626 2740
626 2752
626 2755
626 2792
626 2809
626 2891
626 2944
626 2985
626 2994
626 3029
626 3057
626 3075
626 3098
626 3249
626 3349
626 3466
626 3546
626 3578
626 3588
626 3629
627 629
627 813
627 917
627 967
627 1057
627 1072
627 1158
627 1174
627 1360
627 1377
627 1402
627 1451
627 1459
627 1583
627 1588
627 1622
627 1631
627 1644
627 1724
627 1801
627 1832
627 1883
627 2040
627 2041
627 2321
627 2475
627 2479
627 2517
627 2586
627 2726
627 2741
627 2751
627 2806
627 2866
627 2891
627 2902
627 2933
627 2947
627 2959
627 3014
627 3033
627 3048
627 3059
627 3092
627 3096
627 3184
627 3227
627 3325
627 3337
627 3433
627 3519
627 3616
627 3734
627 3745
628 722
628 765
628 771
628 921
628 999
628 1002
628 1171
628 1293
628 1517
628 1573
628 1592
628 1748
628 1853
628 1914
628 2080
628 2295
628 2298
628 2299
628 2319
628 2359
628 2421
628 2496
628 2559
628 2581
628 2592
628 2599
628 2679
628 2688
628 2692
628 2852
628 3179
628 3240
628 3263
628 3270
628 3383
628 3400
628 3423
628 3442
628 3489
628 3543
628 3659
628 3704
628 3715
628 3718
628 3741
628 3746
629 709
629 722
629 725
629 883
629 967
629 999
629 1023
629 1072
629 1075
629 1114
629 1186
629 1303
629 1425
629 1475
629 1478
629 1537
629 1583
629 1622
629 1673
629 1723
629 1762
629 1937
629 1971
629 2168
629 2218
629 2225
629 2333
629 2601
629 2664
629 2682
629 2755
629 2766
629 2865
629 2891
629 2959
629 3043
629 3059
629 3124
629 3125
629 3164
629 3184
629 3193
629 3270
629 3299
629 3336
629 3367
629 3386
629 3433
629 3573
629 3616
629 3689
629 3692
630 690
630 780
630 897
630 901
630 936
630 951
630 1014
630 1112
630 1120
630 1235
630 1284
630 1493
630 1619
630 1630
630 1651
630 1797
630 1940
630 2090
630 2139
630 2152
630 2242
630 2246
630 2337
630 2630
630 2713
630 2725
630 2738
630 2763
630 2808
630 2835
630 2908
630 2912
630 2935
630 2946
630 2977
630 3073
630 3132
630 3148
630 3179
630 3207
630 3538
630 3588
630 3608
630 3645
630 3703
630 3714
631 633
631 668
631 699
631 718
631 738
631 752
631 778
631 838
631 842
631 849
631 864
631 867
631 890
631 891
631 921
631 953
631 965
631 967
631 1050
631 1062
631 1065
631 1075
631 1129
631 1140
631 1155
631 1178
631 1199
631 1285
631 1286
631 1290
631 1321
631 1365
631 1390
631 1401
631 1465
631 1487
631 1510
631 1518
631 1549
631 1557
631 1567
631 1569
631 1596
631 1613
631 1630
631 1680
631 1681
631 1695
631 1758
631 1761
631 1770
631 1773
631 1838
631 1959
631 1978
631 1987
631 2072
631 2075
631 2131
631 2138
631 2201
631 2204
631 2219
631 2221
631 2236
631 2243
631 2287
631 2291
631 2295
631 2316
631 2319
631 2349
631 2406
631 2414
631 2418
631 2430
631 2438
631 2454
631 2455
631 2474
631 2509
631 2547
631 2551
631 2599
631 2605
631 2607
631 2620
631 2640
631 2647
631 2649
631 2696
631 2745
631 2766
631 2774
631 2783
631 2791
631 2827
631 2849
631 2879
631 2901
631 2944
631 2951
631 2960
631 2999
631 3023
631 3046
631 3047
631 3059
631 3075
631 3136
631 3139
631 3153
631 3169
631 3191
631 3204
631 3220
631 3227
631 3234
631 3253
631 3336
631 3337
631 3349
631 3389
631 3415
631 3424
631 3466
631 3477
631 3538
631 3547
631 3558
631 3562
631 3592
631 3595
631 3611
631 3617
631 3629
631 3649
631 3661
631 3666
631 3686
631 3692
631 3728
631 3735
632 729
632 1330
632 1469
632 1881
632 1983
632 1998
632 2195
632 2440
632 2986
632 3248
632 3357
633 635
633 658
633 699
633 752
633 778
633 840
633 891
633 892
633 921
633 953
633 1012
633 1029
633 1050
633 1062
633 1075
633 1155
633 1161
633 1228
633 1276
633 1285
633 1290
633 1298
633 1299
633 1321
633 1365
633 1391
633 1401
633 1465
633 1510
633 1517
633 1518
633 1549
633 1567
633 1569
633 1670
633 1681
633 1691
633 1725
633 1761
633 1770
633 1838
633 1848
633 1885
633 1959
633 1987
633 2009
633 2040
633 2116
633 2119
633 2131
633 2133
633 2174
633 2188
633 2205
633 2219
633 2221
633 2236
633 2287
633 2291
633 2316
633 2319
633 2363
633 2408
633 2414
633 2438
633 2455
633 2538
633 2547
633 2551
633 2566
633 2605
633 2607
633 2617
633 2620
633 2647
633 2649
633 2766
633 2783
633 2791
633 2809
633 2849
633 2877
633 2944
633 2960
633 2999
633 3013
633 3059
633 3075
633 3098
633 3136
633 3153
633 3191
633 3202
633 3259
633 3312
633 3325
633 3336
633 3349
633 3462
633 3466
633 3477
633 3611
633 3669
633 3675
633 3698
634 685
634 765
634 1002
634 1141
634 1321
634 1471
634 1631
634 1725
634 2040
634 2358
634 2430
634 2745
634 3068
634 3121
634 3325
634 3675
635 752
635 765
635 826
635 832
635 892
635 988
635 1082
635 1299
635 1416
635 1482
635 1507
635 1593
635 1644
635 1681
635 1725
635 1863
635 2271
635 2359
635 2406
635 2408
635 2498
635 2609
635 2679
635 2752
635 2811
635 2858
635 2881
635 3115
635 3349
635 3412
635 3686
635 3704
636 641
636 666
636 746
636 752
636 771
636 774
636 784
636 874
636 875
636 892
636 896
636 906
636 917
636 933
636 934
636 935
636 942
636 1049
636 1053
636 1061
636 1183
636 1201
636 1228
636 1299
636 1325
636 1326
636 1343
636 1357
636 1373
636 1385
636 1459
636 1469
636 1507
636 1538
636 1543
636 1567
636 1573
636 1593
636 1594
636 1699
636 1725
636 1733
636 1748
636 1780
636 1802
636 1828
636 1855
636 1866
636 1867
636 1884
636 1908
636 1914
636 1923
636 1948
636 1996
636 2009
636 2013
636 2014
636 2035
636 2045
636 2056
636 2069
636 2174
636 2177
636 2250
636 2299
636 2394
636 2406
636 2408
636 2493
636 2502
636 2520
636 2522
636 2567
636 2613
636 2684
636 2692
636 2693
636 2763
636 2809
636 2818
636 2877
636 2881
636 2888
636 2912
636 3006
636 3037
636 3050
636 3087
636 3088
636 3098
636 3110
636 3111
636 3112
636 3130
636 3141
636 3169
636 3170
636 3181
636 3186
636 3194
636 3305
636 3345
636 3349
636 3358
636 3407
636 3489
636 3514
636 3573
636 3578
636 3605
636 3670
636 3674
636 3686
636 3732
636 3742
637 3263
638 646
638 647
638 664
638 697
638 740
638 744
638 764
638 776
638 807
638 809
638 837
638 839
638 896
638 897
638 911
638 912
638 916
638 919
638 960
638 968
638 988
638 1008
638 1022
638 1024
638 1031
638 1050
638 1071
638 1094
638 1098
638 1123
638 1134
638 1137
638 1151
638 1155
638 1159
638 1161
638 1186
638 1195
638 1200
638 1206
638 1225
638 1234
638 1258
638 1275
638 1288
638 1299
638 1321
638 1366
638 1402
638 1403
638 1416
638 1419
638 1479
638 1483
638 1486
638 1487
638 1489
638 1493
638 1501
638 1510
638 1521
638 1522
638 1543
638 1557
638 1558
638 1613
638 1616
638 1618
638 1622
638 1630
638 1631
638 1646
638 1667
638 1668
638 1705
638 1734
638 1745
638 1761
638 1785
638 1797
638 1805
638 1808
638 1825
638 1837
638 1843
638 1845
638 1846
638 1848
638 1854
638 1859
638 1863
638 1864
638 1876
638 1879
638 1902
638 1916
638 1946
638 1959
638 1964
638 1967
638 1972
638 2012
638 2014
638 2015
638 2040
638 2042
638 2052
638 2064
638 2066
638 2075
638 2079
638 2091
638 2121
638 2129
638 2138
638 2146
638 2157
638 2163
638 2170
638 2191
638 2210
638 2219
638 2221
638 2237
638 2249
638 2265
638 2283
638 2316
638 2320
638 2323
638 2333
638 2337
638 2347
638 2353
638 2369
638 2379
638 2390
638 2395
638 2413
638 2416
638 2429
638 2430
638 2445
638 2461
638 2462
638 2469
638 2474
638 2544
638 2549
638 2553
638 2556
638 2559
638 2564
638 2568
638 2571
638 2601
638 2605
638 2620
638 2622
638 2623
638 2655
638 2680
638 2683
638 2703
638 2705
638 2710
638 2721
638 2749
638 2753
638 2772
638 2797
638 2804
638 2808
638 2815
638 2819
638 2836
638 2842
638 2845
638 2848
638 2869
638 2882
638 2889
638 2907
638 2938
638 2940
638 2942
638 2944
638 2963
638 2973
638 2975
638 2989
638 3000
638 3009
638 3016
638 3021
638 3030
638 3044
638 3047
638 3054
638 3055
638 3071
638 3075
638 3078
638 3086
638 3093
638 3101
638 3103
638 3106
638 3118
638 3124
638 3129
638 3135
638 3138
638 3145
638 3149
638 3178
638 3194
638 3207
638 3223
638 3224
638 3243
638 3259
638 3266
638 3303
638 3306
638 3315
638 3342
638 3349
638 3426
638 3450
638 3461
638 3465
638 3507
638 3520
638 3521
638 3534
638 3562
638 3572
638 3575
638 3603
638 3608
638 3628
638 3630
638 3639
638 3642
638 3672
638 3675
638 3682
638 3687
638 3689
638 3702
638 3703
638 3714
638 3717
638 3718
638 3721
638 3734
638 3736
638 3737
638 3745
639 935
639 1796
639 1816
639 2288
639 2525
639 2631
639 2809
639 3586
640 664
640 699
640 924
640 956
640 1048
640 1091
640 1186
640 1198
640 1318
640 1391
640 1478
640 1532
640 1577
640 1681
640 1682
640 1723
640 2071
640 2084
640 2156
640 2174
640 2201
640 2333
640 2503
640 2508
640 2649
640 2658
640 2670
640 2766
640 2812
640 2858
640 2971
640 3061
640 3091
640 3117
640 3265
640 3376
640 3404
640 3478
640 3531
640 3573
640 3692
641 669
641 681
641 684
641 752
641 759
641 781
641 825
641 892
641 1010
641 1021
641 1062
641 1082
641 1156
641 1183
641 1228
641 1292
641 1322
641 1329
641 1360
641 1427
641 1469
641 1593
641 1594
641 1595
641 1613
641 1641
641 1645
641 1648
641 1681
641 1725
641 1736
641 1744
641 1792
641 1996
641 2009
641 2013
641 2035
641 2067
641 2095
641 2116
641 2174
641 2205
641 2242
641 2271
641 2339
641 2381
641 2406
641 2408
641 2503
641 2514
641 2522
641 2609
641 2648
641 2700
641 2771
641 2809
641 2852
641 2877
641 2878
641 2943
641 2978
641 3028
641 3075
641 3107
641 3117
641 3153
641 3166
641 3349
641 3390
641 3463
641 3488
641 3598
642 658
642 807
642 814
642 883
642 916
642 926
642 976
642 1012
642 1022
642 1051
642 1085
642 1116
642 1121
642 1141
642 1204
642 1321
642 1337
642 1366
642 1377
642 1458
642 1495
642 1537
642 1546
642 1588
642 1724
642 1728
642 1762
642 1788
642 1825
642 1848
642 1870
642 1967
642 2040
642 2042
642 2046
642 2087
642 2125
642 2287
642 2290
642 2378
642 2412
642 2469
642 2478
642 2507
642 2554
642 2582
642 2636
642 2690
642 2707
642 2727
642 2755
642 2791
642 2804
642 2838
642 2860
642 2877
642 2940
642 2944
642 2959
642 2960
642 3021
642 3047
642 3106
642 3118
642 3137
642 3178
642 3274
642 3433
642 3450
642 3484
642 3615
642 3669
642 3689
642 3695
643 1179
643 2021
643 2059
644 1045
644 1329
644 1725
644 1736
644 2035
644 2205
644 3186
644 3463
644 3680
644 3694
645 1592
645 2059
645 2554
645 3473
646 665
646 732
646 753
646 841
646 885
646 955
646 1009
646 1054
646 1089
646 1104
646 1247
646 1275
646 1298
646 1364
646 1376
646 1403
646 1446
646 1450
646 1457
646 1468
646 1479
646 1493
646 1522
646 1578
646 1596
646 1677
646 1708
646 1734
646 1797
646 1814
646 1825
646 1837
646 1854
646 1879
646 1894
646 1918
646 2025
646 2110
646 2188
646 2210
646 2224
646 2229
646 2247
646 2311
646 2341
646 2357
646 2440
646 2445
646 2464
646 2474
646 2511
646 2544
646 2554
646 2608
646 2683
646 2804
646 2877
646 2878
646 2884
646 2889
646 2907
646 2956
646 2973
646 3003
646 3007
646 3016
646 3021
646 3031
646 3082
646 3098
646 3104
646 3137
646 3183
646 3192
646 3209
646 3224
646 3248
646 3301
646 3312
646 3332
646 3368
646 3428
646 3437
646 3450
646 3464
646 3510
646 3532
646 3561
646 3598
646 3638
646 3641
646 3682
646 3683
646 3687
646 3702
646 3703
647 676
647 754
647 818
647 858
647 883
647 1002
647 1050
647 1062
647 1065
647 1075
647 1120
647 1141
647 1167
647 1195
647 1371
647 1377
647 1465
647 1480
647 1510
647 1530
647 1616
647 1631
647 1641
647 1667
647 1754
647 1898
647 1925
647 2138
647 2378
647 2397
647 2401
647 2404
647 2512
647 2696
647 2791
647 2804
647 2808
647 2815
647 2879
647 2933
647 3029
647 3055
647 3070
647 3093
647 3108
647 3131
647 3183
647 3227
647 3306
647 3466
647 3503
647 3575
647 3596
647 3687
647 3695
647 3718
647 3737
648 808
648 1477
648 2146
648 2522
648 3057
648 3167
648 3528
649 967
649 1174
649 1288
649 1465
649 1505
649 1719
649 1848
649 1916
649 1929
649 2206
649 2249
649 2404
649 2578
649 2751
649 2906
649 2944
649 2989
649 3046
649 3054
649 3121
649 3266
649 3520
649 3639
649 3656
649 3745
650 879
650 896
650 978
650 1027
650 1096
650 1194
650 1268
650 1408
650 1489
650 1528
650 1585
650 1652
650 1814
650 1863
650 1867
650 1876
650 2012
650 2069
650 2128
650 2299
650 2330
650 2483
650 2564
650 2578
650 2708
650 2751
650 2867
650 2997
650 3071
650 3098
650 3297
650 3304
650 3364
650 3473
650 3544
650 3575
650 3619
650 3696
650 3700
651 769
651 842
651 1865
651 3446
651 3637
651 3645
652 734
652 957
652 1199
652 1504
652 1516
652 1677
652 1796
652 2340
652 3104
653 832
653 979
653 1030
653 1034
653 1110
653 1185
653 1277
653 1577
653 1625
653 1848
653 1926
653 1973
653 1986
653 2053
653 2130
653 2401
653 2421
653 2455
653 2547
653 2593
653 2679
653 2933
653 3010
653 3043
653 3230
653 3433
653 3455
653 3520
653 3581
653 3605
653 3651
653 3704
654 1924
654 2363
654 2445
654 2620
654 2633
654 3179
654 3354
654 3601
654 3659
655 762
655 817
655 858
655 878
655 1183
655 1361
655 1931
655 2152
655 2392
655 2807
655 2954
655 3330
655 3376
655 3506
655 3568
655 3714
656 887
656 916
656 970
656 988
656 1022
656 1051
656 1072
656 1104
656 1150
656 1227
656 1337
656 1475
656 1546
656 1597
656 1688
656 1843
656 1912
656 1956
656 1967
656 2001
656 2042
656 2112
656 2138
656 2147
656 2176
656 2290
656 2329
656 2390
656 2469
656 2601
656 2636
656 2677
656 2770
656 2809
656 2842
656 2895
656 3007
656 3021
656 3086
656 3105
656 3129
656 3138
656 3178
656 3258
656 3274
656 3316
656 3332
656 3349
656 3417
656 3450
656 3465
656 3597
656 3638
656 3640
656 3744
657 785
657 949
657 1162
657 1356
657 2031
657 2132
657 3010
657 3128
657 3594
658 678
658 732
658 821
658 954
658 974
658 1012
658 1023
658 1037
658 1050
658 1053
658 1116
658 1134
658 1141
658 1186
658 1193
658 1210
658 1218
658 1275
658 1298
658 1310
658 1336
658 1359
658 1440
658 1470
658 1495
658 1526
658 1550
658 1556
658 1568
658 1728
658 1754
658 1772
658 1785
658 1788
658 1825
658 1849
658 1870
658 1959
658 1961
658 2038
658 2158
658 2168
658 2209
658 2337
658 2371
658 2430
658 2445
658 2478
658 2492
658 2507
658 2510
658 2514
658 2562
658 2582
658 2615
658 2617
658 2649
658 2666
658 2730
658 2767
658 2774
658 2791
658 2911
658 2961
658 2973
658 3092
658 3096
658 3106
658 3153
658 3183
658 3253
658 3291
658 3370
658 3404
658 3405
658 3458
658 3540
658 3599
658 3624
658 3629
658 3688
658 3689
658 3695
658 3716
658 3731
659 705
659 967
659 1141
659 1371
659 1416
659 1489
659 1813
659 1848
659 2016
659 2330
659 2416
659 2590
659 2741
659 2933
659 3309
659 3466
660 729
660 841
660 889
660 1001
660 1178
660 1180
660 1228
660 1232
660 1280
660 1365
660 1448
660 1459
660 1481
660 1490
660 1509
660 1517
660 1568
660 1573
660 1593
660 1665
660 1870
660 1992
660 2132
660 2219
660 2315
660 2321
660 2503
660 2547
660 2632
660 2648
660 2678
660 2736
660 2860
660 2910
660 2944
660 3010
660 3069
660 3128
660 3164
660 3177
660 3183
660 3212
660 3362
660 3367
660 3376
660 3404
660 3418
660 3424
660 3433
660 3442
660 3478
660 3547
660 3578
660 3594
660 3638
661 697
661 752
661 897
661 912
661 981
661 1000
661 1016
661 1038
661 1082
661 1089
661 1103
661 1127
661 1225
661 1361
661 1383
661 1492
661 1570
661 1826
661 2077
661 2092
661 2110
661 2167
661 2191
661 2340
661 2356
661 2372
661 2546
661 2574
661 2580
661 2591
661 2605
661 2628
661 2661
661 2680
661 2817
661 2834
661 2878
661 2888
661 2956
661 2975
661 3088
661 3150
661 3187
661 3278
661 3293
661 3413
661 3456
661 3476
661 3548
661 3603
662 738
662 869
662 952
662 984
662 1054
662 1104
662 1247
662 1282
662 1431
662 1470
662 1708
662 1983
662 2166
662 2440
662 2511
662 3251
662 3275
662 3464
662 3554
662 3561
662 3598
663 689
663 791
663 1056
663 1057
663 1095
663 1321
663 1597
663 1660
663 1856
663 1928
663 1969
663 2025
663 2184
663 2386
663 2601
663 2625
663 2677
663 2813
663 2839
663 2972
663 3007
663 3098
663 3149
663 3191
663 3332
663 3510
663 3626
663 3693
664 845
664 856
664 875
664 1004
664 1062
664 1103
664 1191
664 1206
664 1299
664 1337
664 1403
664 1543
664 1617
664 1859
664 1884
664 1942
664 2210
664 2315
664 2333
664 2359
664 2431
664 2463
664 2474
664 2605
664 2700
664 2734
664 2831
664 2923
664 3066
664 3111
664 3223
664 3225
664 3277
664 3431
664 3437
664 3466
664 3543
664 3595
664 3628
664 3630
664 3687
664 3729
665 755
665 764
665 783
665 814
665 824
665 896
665 898
665 916
665 927
665 939
665 953
665 1022
665 1023
665 1046
665 1051
665 1070
665 1095
665 1104
665 1117
665 1204
665 1234
665 1337
665 1387
665 1416
665 1475
665 1508
665 1568
665 1640
665 1661
665 1772
665 1814
665 1831
665 1843
665 1886
665 1924
665 1925
665 1971
665 1972
665 1978
665 2001
665 2034
665 2049
665 2064
665 2121
665 2189
665 2282
665 2358
665 2363
665 2386
665 2445
665 2459
665 2474
665 2515
665 2521
665 2554
665 2570
665 2588
665 2649
665 2666
665 2710
665 2728
665 2751
665 2755
665 2815
665 2838
665 2867
665 2940
665 2985
665 3007
665 3021
665 3118
665 3138
665 3183
665 3191
665 3231
665 3274
665 3332
665 3431
665 3450
665 3599
665 3601
665 3624
665 3661
665 3693
666 684
666 709
666 714
666 729
666 730
666 732
666 746
666 752
666 764
666 784
666 821
666 856
666 858
666 859
666 875
666 891
666 906
666 942
666 965
666 967
666 981
666 1024
666 1061
666 1144
666 1163
666 1185
666 1210
666 1228
666 1343
666 1345
666 1469
666 1489
666 1568
666 1580
666 1594
666 1685
666 1688
666 1725
666 1747
666 1756
666 1780
666 1816
666 1828
666 1862
666 1893
666 1908
666 1948
666 1961
666 1991
666 2009
666 2013
666 2014
666 2035
666 2055
666 2069
666 2090
666 2165
666 2197
666 2209
666 2219
666 2242
666 2300
666 2310
666 2323
666 2364
666 2387
666 2408
666 2484
666 2520
666 2522
666 2544
666 2567
666 2613
666 2640
666 2684
666 2693
666 2720
666 2795
666 2815
666 2818
666 2911
666 2988
666 3019
666 3022
666 3037
666 3042
666 3050
666 3055
666 3087
666 3093
666 3111
666 3112
666 3120
666 3130
666 3139
666 3141
666 3181
666 3183
666 3234
666 3268
666 3305
666 3306
666 3317
666 3345
666 3355
666 3358
666 3364
666 3407
666 3430
666 3463
666 3496
666 3510
666 3514
666 3534
666 3598
666 3638
666 3641
666 3662
666 3683
666 3686
666 3691
666 3695
666 3719
666 3731
667 835
667 1039
667 1155
667 2640
667 3110
667 3515
667 3564
667 3737
668 967
668 1155
668 1199
668 1240
668 1286
668 1401
668 1489
668 1567
668 1630
668 1960
668 1994
668 2219
668 2221
668 2236
668 2291
668 2316
668 2365
668 2414
668 2418
668 2430
668 2559
668 2620
668 2724
668 2774
668 2808
668 2849
668 2879
668 3008
668 3023
668 3145
668 3169
668 3191
668 3253
668 3278
668 3466
668 3477
668 3553
668 3558
668 3575
668 3592
668 3601
668 3611
668 3617
668 3629
668 3721
669 697
669 712
669 759
669 901
669 931
669 965
669 1001
669 1063
669 1101
669 1263
669 1335
669 1350
669 1439
669 1469
669 1518
669 1519
669 1565
669 1619
669 1634
669 1692
669 1706
669 1734
669 1742
669 1748
669 1863
669 1893
669 1939
669 1952
669 1986
669 1996
669 2067
669 2077
669 2135
669 2149
669 2174
669 2201
669 2242
669 2256
669 2337
669 2406
669 2408
669 2447
669 2531
669 2532
669 2549
669 2591
669 2609
669 2615
669 2648
669 2658
669 2683
669 2710
669 2752
669 2774
669 2802
669 2830
669 2852
669 2878
669 2907
669 2994
669 3004
669 3066
669 3091
669 3112
669 3127
669 3280
669 3320
669 3365
669 3390
669 3396
669 3404
669 3425
669 3435
669 3453
669 3478
669 3508
669 3536
669 3645
669 3654
669 3718
670 673
670 757
670 850
670 895
670 919
670 1015
670 1017
670 1114
670 1129
670 1150
670 1197
670 1325
670 1337
670 1398
670 1419
670 1432
670 1459
670 1486
670 1487
670 1522
670 1625
670 1723
670 1928
670 1948
670 1958
670 2014
670 2049
670 2068
670 2142
670 2325
670 2376
670 2386
670 2452
670 2508
670 2549
670 2659
670 2836
670 2838
670 2889
670 2906
670 2940
670 2942
670 2964
670 2967
670 2971
670 3051
670 3339
670 3433
670 3557
670 3561
670 3573
670 3670
670 3721
671 785
671 902
671 929
671 1162
671 1665
671 1830
671 2514
671 2851
672 1880
673 827
673 850
673 1601
673 1831
673 1958
673 2014
673 2021
673 2836
673 2941
673 2967
673 3168
673 3281
673 3618
674 3198
675 814
675 844
675 862
675 887
675 916
675 970
675 980
675 1023
675 1051
675 1072
675 1085
675 1087
675 1097
675 1458
675 1475
675 1537
675 1597
675 1688
675 1729
675 1843
675 1912
675 1956
675 2042
675 2068
675 2114
675 2176
675 2225
675 2358
675 2390
675 2469
675 2601
675 2628
675 2636
675 2755
675 2842
675 2859
675 2895
675 2986
675 3021
675 3086
675 3116
675 3129
675 3183
675 3274
675 3399
675 3450
675 3571
675 3640
675 3744
676 782
676 819
676 833
676 866
676 1049
676 1391
676 1397
676 1479
676 1574
676 1667
676 1687
676 1728
676 1894
676 2034
676 2044
676 2129
676 2232
676 2364
676 2384
676 2471
676 2623
676 2793
676 2799
676 2810
676 2832
676 2851
676 2896
676 2908
676 2971
676 3126
676 3194
676 3237
676 3270
676 3510
676 3562
676 3603
676 3655
676 3664
676 3711
676 3741
677 1108
677 1177
677 1263
677 1350
677 1439
677 1565
677 1795
677 2488
677 2725
677 2752
677 2994
677 3066
677 3115
677 3249
677 3326
677 3369
677 3431
677 3509
678 697
678 732
678 821
678 954
678 986
678 1012
678 1053
678 1060
678 1116
678 1134
678 1141
678 1193
678 1210
678 1275
678 1310
678 1336
678 1369
678 1440
678 1470
678 1526
678 1550
678 1568
678 1690
678 1728
678 1754
678 1785
678 1788
678 1825
678 1849
678 1961
678 2122
678 2158
678 2201
678 2209
678 2320
678 2371
678 2445
678 2507
678 2555
678 2595
678 2615
678 2617
678 2672
678 2705
678 2730
678 2767
678 2774
678 2808
678 2830
678 2836
678 2911
678 3096
678 3106
678 3183
678 3253
678 3300
678 3370
678 3458
678 3466
678 3540
678 3544
678 3575
678 3688
678 3689
678 3731
679 733
679 753
679 802
679 859
679 942
679 945
679 965
679 1104
679 1285
679 1299
679 1323
679 1339
679 1362
679 1365
679 1407
679 1541
679 1629
679 1640
679 1771
679 1845
679 1859
679 1869
679 1957
679 1988
679 2036
679 2053
679 2129
679 2151
679 2152
679 2177
679 2297
679 2314
679 2508
679 2509
679 2556
679 2583
679 2750
679 2760
679 2790
679 2941
679 3071
679 3119
679 3133
679 3150
679 3316
679 3359
679 3575
679 3696
680 791
680 812
680 987
680 1018
680 1128
680 1661
680 1772
680 1776
680 1850
680 1886
680 1933
680 1976
680 2570
680 2671
680 2836
680 2987
680 3083
680 3231
680 3238
680 3314
680 3344
680 3533
680 3609
680 3661
681 1085
681 1132
681 1183
681 1292
681 1438
681 1454
681 1963
681 2116
681 2358
681 2503
681 2627
681 2852
681 2978
681 3107
681 3117
681 3390
681 3523
682 1220
682 1223
682 1807
682 2030
682 2370
682 2498
682 2877
682 3311
682 3571
682 3715
683 743
683 1138
683 1623
683 2095
683 2181
683 2361
683 2965
683 3546
684 709
684 723
684 802
684 859
684 989
684 1004
684 1156
684 1185
684 1206
684 1228
684 1268
684 1363
684 1405
684 1469
684 1513
684 1594
684 1670
684 1681
684 1699
684 1744
684 1747
684 1853
684 1885
684 1996
684 2035
684 2046
684 2055
684 2059
684 2090
684 2113
684 2121
684 2167
684 2213
684 2316
684 2333
684 2370
684 2463
684 2493
684 2547
684 2568
684 2771
684 2837
684 2878
684 3111
684 3169
684 3268
684 3269
684 3382
684 3390
684 3463
684 3486
684 3496
684 3536
684 3573
684 3598
684 3612
684 3726
684 3743
685 691
685 699
685 704
685 718
685 725
685 761
685 778
685 838
685 883
685 890
685 896
685 926
685 967
685 976
685 980
685 1002
685 1010
685 1024
685 1050
685 1065
685 1121
685 1130
685 1167
685 1186
685 1198
685 1239
685 1254
685 1298
685 1321
685 1333
685 1346
685 1377
685 1391
685 1458
685 1461
685 1465
685 1471
685 1490
685 1497
685 1530
685 1533
685 1537
685 1567
685 1583
685 1589
685 1593
685 1595
685 1601
685 1618
685 1621
685 1667
685 1720
685 1721
685 1748
685 1762
685 1777
685 1822
685 1848
685 1885
685 1898
685 1925
685 1971
685 1992
685 2001
685 2024
685 2030
685 2040
685 2042
685 2046
685 2057
685 2066
685 2125
685 2230
685 2235
685 2287
685 2290
685 2291
685 2292
685 2324
685 2374
685 2378
685 2438
685 2492
685 2507
685 2530
685 2533
685 2547
685 2576
685 2640
685 2664
685 2696
685 2744
685 2745
685 2787
685 2791
685 2843
685 2856
685 2878
685 2882
685 2919
685 2928
685 2980
685 3015
685 3029
685 3047
685 3068
685 3070
685 3075
685 3115
685 3116
685 3139
685 3143
685 3147
685 3153
685 3245
685 3247
685 3259
685 3272
685 3276
685 3296
685 3317
685 3322
685 3336
685 3337
685 3349
685 3366
685 3386
685 3404
685 3412
685 3440
685 3466
685 3518
685 3534
685 3558
685 3585
685 3607
685 3629
685 3635
685 3689
685 3714
685 3724
685 3734
685 3737
686 757
686 1479
686 2281
686 2573
686 2827
686 3144
686 3609
686 3626
687 753
687 862
687 905
687 1104
687 1603
687 1699
687 1974
687 2200
687 2255
687 2489
687 2677
687 2737
687 3104
688 1429
689 733
689 738
689 791
689 858
689 995
689 1095
689 1163
689 1247
689 1275
689 1401
689 1716
689 1750
689 1856
689 1862
689 1888
689 1969
689 1984
689 2081
689 2217
689 2420
689 2445
689 2464
689 2474
689 2488
689 2570
689 2660
689 2973
689 3018
689 3306
689 3416
689 3505
689 3667
689 3719
690 879
690 880
690 897
690 908
690 1093
690 1120
690 1220
690 1372
690 1518
690 1608
690 1653
690 1795
690 1922
690 1923
690 1994
690 2158
690 2235
690 2252
690 2362
690 2456
690 2646
690 2674
690 2725
690 2835
690 2919
690 2926
690 2934
690 2935
690 3040
690 3066
690 3150
690 3167
690 3184
690 3207
690 3277
690 3283
690 3365
690 3419
690 3490
691 704
691 725
691 727
691 761
691 838
691 1121
691 1239
691 1265
691 1530
691 1589
691 1667
691 1720
691 1833
691 1972
691 2125
691 2533
691 2640
691 2791
691 3029
691 3068
691 3180
691 3245
691 3366
691 3395
691 3466
692 715
692 903
692 950
692 1137
692 1244
692 1428
692 1479
692 1594
692 1610
692 1626
692 1692
692 1859
692 1890
692 1908
692 1925
692 1996
692 2075
692 2133
692 2134
692 2151
692 2205
692 2237
692 2347
692 2559
692 2560
692 2622
692 2869
692 2890
692 2906
692 2907
692 2956
692 3016
692 3071
692 3209
692 3368
692 3437
692 3490
692 3547
692 3689
692 3702
692 3711
692 3726
692 3743
693 695
693 1131
693 1235
693 1244
693 1312
693 1323
693 1580
693 2238
693 2357
693 2516
693 2544
693 2648
693 2815
693 3004
693 3382
693 3396
694 709
694 858
694 876
694 1002
694 1120
694 1163
694 1460
694 1596
694 1651
694 1667
694 1695
694 1721
694 1750
694 1790
694 1862
694 1877
694 1984
694 2186
694 2285
694 2387
694 2763
694 3010
694 3018
694 3048
694 3055
694 3096
694 3120
694 3306
694 3416
694 3465
694 3601
694 3719
695 720
695 764
695 802
695 813
695 983
695 1041
695 1053
695 1131
695 1181
695 1235
695 1244
695 1312
695 1323
695 1363
695 1455
695 1554
695 1575
695 1580
695 1640
695 1732
695 1741
695 1832
695 1849
695 1895
695 2121
695 2284
695 2387
695 2504
695 2516
695 2556
695 2589
695 2777
695 2815
695 2897
695 3022
695 3080
695 3252
695 3306
695 3316
695 3338
695 3346
695 3377
695 3382
695 3437
695 3479
695 3529
695 3684
695 3725
696 890
696 1142
696 1298
696 1457
696 1578
696 1587
696 1589
696 1596
696 1664
696 1918
696 2144
696 2188
696 2199
696 2400
696 2410
696 2430
696 2608
696 2794
696 2978
696 3301
696 3312
696 3415
696 3521
696 3639
696 3720
697 720
697 732
697 747
697 752
697 769
697 821
697 836
697 1000
697 1028
697 1060
697 1082
697 1282
697 1366
697 1368
697 1380
697 1411
697 1440
697 1543
697 1613
697 1619
697 1634
697 1646
697 1705
697 1737
697 1742
697 1757
697 1816
697 1959
697 1964
697 2002
697 2037
697 2067
697 2092
697 2137
697 2170
697 2174
697 2201
697 2209
697 2242
697 2265
697 2287
697 2356
697 2371
697 2397
697 2427
697 2445
697 2559
697 2591
697 2648
697 2656
697 2749
697 2773
697 2781
697 2822
697 2823
697 2852
697 2888
697 2911
697 2956
697 2975
697 3004
697 3112
697 3124
697 3145
697 3150
697 3187
697 3194
697 3243
697 3278
697 3300
697 3359
697 3396
697 3413
697 3422
697 3446
697 3453
697 3456
697 3476
697 3548
697 3575
697 3621
697 3637
697 3675
697 3686
697 3689
697 3718
697 3746
698 838
698 1016
698 1024
698 1130
698 1156
698 1345
698 1761
698 1837
698 1845
698 1994
698 2048
698 2120
698 2133
698 2307
698 2316
698 2413
698 2419
698 2430
698 2596
698 2604
698 2620
698 2668
698 2805
698 2844
698 2857
698 2878
698 2901
698 2973
698 3028
698 3169
698 3186
698 3235
698 3242
698 3340
698 3342
698 3349
698 3423
698 3428
698 3558
698 3592
698 3598
698 3617
698 3624
699 891
699 895
699 921
699 1075
699 1082
699 1099
699 1115
699 1121
699 1129
699 1211
699 1228
699 1285
699 1303
699 1321
699 1365
699 1394
699 1416
699 1465
699 1487
699 1497
699 1507
699 1518
699 1530
699 1549
699 1554
699 1561
699 1567
699 1569
699 1593
699 1663
699 1681
699 1698
699 1838
699 1950
699 1987
699 2008
699 2219
699 2241
699 2287
699 2299
699 2333
699 2337
699 2350
699 2359
699 2406
699 2414
699 2438
699 2455
699 2480
699 2481
699 2583
699 2605
699 2607
699 2620
699 2640
699 2647
699 2649
699 2696
699 2791
699 2809
699 2819
699 2882
699 2919
699 2944
699 2966
699 2999
699 3026
699 3047
699 3070
699 3075
699 3092
699 3110
699 3139
699 3153
699 3156
699 3191
699 3227
699 3336
699 3337
699 3349
699 3359
699 3367
699 3385
699 3449
699 3459
699 3518
699 3575
699 3605
699 3611
699 3717
699 3721
699 3735
700 857
700 896
700 915
700 955
700 967
700 987
700 1057
700 1168
700 1186
700 1252
700 1283
700 1286
700 1321
700 1331
700 1333
700 1374
700 1470
700 1471
700 1557
700 1661
700 1703
700 1761
700 1879
700 1897
700 1929
700 1957
700 1996
700 2003
700 2087
700 2187
700 2209
700 2219
700 2223
700 2229
700 2236
700 2251
700 2289
700 2323
700 2324
700 2414
700 2418
700 2430
700 2474
700 2515
700 2531
700 2533
700 2553
700 2571
700 2703
700 2743
700 2745
700 2751
700 2805
700 2845
700 2907
700 2908
700 2911
700 2956
700 2988
700 2995
700 3068
700 3098
700 3102
700 3136
700 3192
700 3207
700 3242
700 3259
700 3266
700 3272
700 3288
700 3349
700 3373
700 3445
700 3466
700 3477
700 3520
700 3553
700 3575
700 3605
700 3629
700 3639
700 3641
700 3712
700 3722
700 3734
701 769
701 842
701 931
701 965
701 1266
701 1380
701 1742
701 2159
701 2179
701 2873
701 3166
701 3446
701 3516
701 3645
701 3668
702 844
702 862
702 930
702 943
702 1247
702 1330
702 2114
702 2859
702 2986
702 3021
702 3248
702 3597
703 909
703 1185
703 1401
703 1460
703 1475
703 1841
703 1997
703 2034
703 2412
703 2752
703 2933
703 3003
703 3010
703 3069
703 3601
704 718
704 722
704 725
704 727
704 761
704 838
704 899
704 980
704 1121
704 1130
704 1149
704 1239
704 1277
704 1290
704 1298
704 1321
704 1366
704 1416
704 1458
704 1465
704 1475
704 1530
704 1537
704 1589
704 1613
704 1646
704 1720
704 1724
704 1809
704 1822
704 1833
704 1971
704 1972
704 2033
704 2046
704 2125
704 2134
704 2219
704 2225
704 2264
704 2287
704 2291
704 2438
704 2492
704 2507
704 2551
704 2640
704 2664
704 2733
704 2745
704 2787
704 2791
704 2804
704 2856
704 2895
704 2944
704 3015
704 3029
704 3047
704 3070
704 3075
704 3097
704 3116
704 3139
704 3147
704 3153
704 3184
704 3239
704 3245
704 3272
704 3349
704 3366
704 3386
704 3396
704 3437
704 3450
704 3452
704 3466
704 3534
704 3547
704 3585
704 3635
704 3666
704 3689
705 1104
705 1130
705 1371
705 1452
705 1813
705 1848
705 2025
705 2330
705 2440
705 2933
705 3309
705 3554
705 3561
705 3677
706 726
706 730
706 764
706 856
706 912
706 956
706 1204
706 1222
706 1276
706 1428
706 1444
706 1472
706 1543
706 1565
706 1607
706 1648
706 1687
706 1850
706 1871
706 1880
706 2060
706 2129
706 2323
706 2364
706 2424
706 2493
706 2605
706 2653
706 2670
706 2680
706 2749
706 2772
706 2869
706 2882
706 2955
706 2975
706 3004
706 3009
706 3120
706 3327
706 3389
706 3482
706 3546
706 3586
706 3659
706 3687
706 3691
707 1243
707 1836
707 2198
708 1994
708 2001
709 723
709 729
709 784
709 802
709 803
709 818
709 826
709 841
709 858
709 876
709 896
709 942
709 964
709 994
709 1087
709 1185
709 1191
709 1227
709 1343
709 1408
709 1459
709 1472
709 1526
709 1573
709 1593
709 1667
709 1681
709 1723
709 1814
709 1824
709 1828
709 1877
709 1908
709 1911
709 2009
709 2013
709 2014
709 2066
709 2104
709 2146
709 2159
709 2219
709 2250
709 2267
709 2325
709 2333
709 2360
709 2485
709 2515
709 2522
709 2567
709 2613
709 2631
709 2682
709 2684
709 2703
709 2741
709 2751
709 2791
709 2808
709 2837
709 2838
709 2899
709 2912
709 2944
709 2964
709 2973
709 2981
709 2988
709 3010
709 3021
709 3022
709 3055
709 3059
709 3073
709 3080
709 3111
709 3141
709 3147
709 3225
709 3227
709 3247
709 3345
709 3358
709 3359
709 3364
709 3388
709 3424
709 3449
709 3466
709 3478
709 3514
709 3562
709 3573
709 3601
709 3683
709 3721
710 836
710 1005
710 1036
710 1063
710 1082
710 1432
710 2076
710 2369
710 2415
710 2440
710 2957
710 3062
710 3104
711 902
711 986
711 1089
711 1693
711 1946
711 2270
711 2542
711 2624
711 2712
711 2787
711 3359
711 3473
712 726
712 730
712 944
712 1050
712 1064
712 1081
712 1220
712 1222
712 1285
712 1357
712 1436
712 1469
712 1516
712 1641
712 1692
712 1741
712 1748
712 1793
712 1913
712 1939
712 1952
712 1973
712 2039
712 2109
712 2135
712 2148
712 2159
712 2174
712 2179
712 2190
712 2201
712 2222
712 2293
712 2337
712 2356
712 2392
712 2447
712 2466
712 2581
712 2648
712 2713
712 2802
712 2877
712 2887
712 2972
712 2980
712 3004
712 3010
712 3091
712 3117
712 3122
712 3127
712 3265
712 3376
712 3396
712 3404
712 3518
712 3578
712 3632
712 3654
712 3659
712 3684
712 3689
712 3718
713 734
713 1253
713 1413
713 1666
713 1949
713 3746
714 766
714 935
714 981
714 1103
714 1200
714 1233
714 1235
714 1357
714 1413
714 1739
714 1890
714 1893
714 1905
714 2015
714 2077
714 2208
714 2238
714 2419
714 2437
714 2531
714 2790
714 2921
714 3064
714 3296
714 3537
714 3579
714 3684
714 3686
715 749
715 880
715 1024
715 1345
715 1626
715 1895
715 2048
715 2120
715 2151
715 2288
715 2307
715 2346
715 2654
715 2668
715 2700
715 3016
715 3195
715 3507
715 3652
716 803
716 841
716 899
716 1022
716 1039
716 1117
716 1153
716 1157
716 1245
716 1340
716 1472
716 1501
716 1543
716 1574
716 1714
716 1733
716 1777
716 2086
716 2219
716 2388
716 2416
716 2424
716 2469
716 2479
716 2528
716 2594
716 2665
716 2699
716 2792
716 2940
716 3021
716 3072
716 3213
716 3244
716 3264
716 3322
716 3339
716 3482
716 3484
716 3504
716 3557
716 3585
716 3650
717 2451
718 727
718 838
718 967
718 1020
718 1082
718 1141
718 1290
718 1366
718 1501
718 1510
718 1530
718 1593
718 1613
718 1646
718 1656
718 1670
718 1758
718 1761
718 1799
718 1809
718 1870
718 1981
718 2033
718 2059
718 2098
718 2102
718 2119
718 2134
718 2254
718 2259
718 2264
718 2265
718 2287
718 2295
718 2333
718 2392
718 2400
718 2438
718 2564
718 2578
718 2588
718 2640
718 2664
718 2696
718 2733
718 2769
718 2787
718 2827
718 2906
718 2948
718 3010
718 3015
718 3070
718 3075
718 3097
718 3139
718 3194
718 3337
718 3349
718 3410
718 3466
718 3497
718 3520
718 3534
718 3547
718 3575
718 3618
718 3666
718 3695
718 3745
719 894
719 988
719 1639
719 1641
719 1646
719 1653
719 1697
719 1824
719 1852
719 1913
719 2010
719 2174
719 2370
719 2503
719 2575
719 2802
719 3005
719 3117
719 3261
719 3504
719 3704
719 3718
720 732
720 752
720 821
720 1000
720 1028
720 1082
720 1282
720 1361
720 1427
720 1737
720 1816
720 1841
720 1996
720 2002
720 2077
720 2092
720 2137
720 2356
720 2371
720 2417
720 2656
720 2771
720 2781
720 2817
720 2822
720 2823
720 2888
720 2956
720 2979
720 3093
720 3110
720 3148
720 3150
720 3194
720 3241
720 3278
720 3359
720 3413
720 3422
720 3456
720 3507
720 3618
720 3622
720 3686
720 3710
721 802
721 922
721 1218
721 1225
721 1347
721 1599
721 1630
721 1725
721 1863
721 1901
721 2034
721 2066
721 2104
721 2250
721 2320
721 2513
721 2515
721 2899
721 3030
721 3316
721 3406
722 725
722 748
722 838
722 1002
722 1121
722 1130
722 1155
722 1239
722 1286
722 1321
722 1333
722 1465
722 1471
722 1589
722 1762
722 1822
722 1833
722 1971
722 1972
722 2068
722 2080
722 2125
722 2134
722 2236
722 2316
722 2475
722 2492
722 2620
722 2664
722 2745
722 2787
722 2791
722 2856
722 3021
722 3047
722 3070
722 3075
722 3272
722 3301
722 3366
722 3386
722 3466
722 3519
722 3629
722 3689
723 1020
723 1206
723 1405
723 1681
723 2059
723 2210
723 2316
723 2418
723 2565
723 2808
723 3169
723 3235
724 1456
724 1459
724 1978
724 2600
724 2933
724 3194
724 3563
724 3618
725 727
725 754
725 761
725 832
725 838
725 840
725 861
725 968
725 1010
725 1024
725 1043
725 1050
725 1065
725 1098
725 1110
725 1114
725 1121
725 1130
725 1141
725 1164
725 1195
725 1204
725 1239
725 1250
725 1254
725 1265
725 1290
725 1298
725 1321
725 1333
725 1336
725 1338
725 1359
725 1365
725 1377
725 1391
725 1417
725 1425
725 1471
725 1475
725 1530
725 1533
725 1567
725 1589
725 1667
725 1728
725 1762
725 1788
725 1822
725 1833
725 1848
725 1918
725 1971
725 1972
725 1985
725 2042
725 2119
725 2125
725 2287
725 2292
725 2321
725 2363
725 2416
725 2438
725 2479
725 2492
725 2507
725 2583
725 2640
725 2664
725 2665
725 2698
725 2708
725 2730
725 2745
725 2755
725 2787
725 2791
725 2792
725 2794
725 2804
725 2848
725 2856
725 2879
725 3021
725 3029
725 3047
725 3070
725 3075
725 3139
725 3147
725 3164
725 3180
725 3184
725 3245
725 3272
725 3301
725 3349
725 3366
725 3370
725 3386
725 3458
725 3466
725 3477
725 3534
725 3557
725 3595
725 3599
725 3613
725 3635
725 3687
725 3689
725 3718
726 730
726 801
726 805
726 891
726 981
726 1064
726 1222
726 1253
726 1295
726 1336
726 1516
726 1559
726 1607
726 1621
726 1651
726 1655
726 1748
726 1783
726 1793
726 1885
726 1913
726 1952
726 2115
726 2159
726 2179
726 2230
726 2238
726 2293
726 2323
726 2337
726 2352
726 2356
726 2373
726 2392
726 2466
726 2498
726 2508
726 2514
726 2533
726 2547
726 2581
726 2591
726 2605
726 2628
726 2661
726 2693
726 2706
726 2723
726 2852
726 2887
726 2916
726 2972
726 3010
726 3122
726 3128
726 3184
726 3376
726 3385
726 3389
726 3425
726 3490
726 3632
726 3649
726 3662
726 3678
726 3718
727 735
727 861
727 921
727 1121
727 1239
727 1290
727 1720
727 1758
727 1809
727 2033
727 2102
727 2125
727 2132
727 2134
727 2177
727 2264
727 2287
727 2295
727 2438
727 2640
727 2664
727 2733
727 2881
727 2906
727 3097
727 3139
727 3220
727 3245
727 3386
727 3547
727 3665
727 3666
728 1208
728 1270
728 1335
728 1336
728 1574
728 2581
728 2593
728 2806
728 2814
728 2871
728 2944
728 3128
728 3167
728 3408
728 3666
729 784
729 858
729 875
729 1270
729 1280
729 1373
729 1469
729 1505
729 1568
729 1744
729 1828
729 1881
729 1897
729 1996
729 1998
729 2009
729 2013
729 2161
729 2174
729 2195
729 2388
729 2567
729 2678
729 2684
729 2700
729 2808
729 3004
729 3055
729 3088
729 3111
729 3141
729 3183
729 3212
729 3268
729 3305
729 3306
729 3345
729 3418
729 3638
730 912
730 956
730 1049
730 1081
730 1163
730 1222
730 1302
730 1469
730 1472
730 1543
730 1607
730 1748
730 1850
730 1880
730 1913
730 2066
730 2078
730 2109
730 2310
730 2347
730 2364
730 2581
730 2605
730 2653
730 3004
730 3120
730 3340
730 3389
730 3424
730 3496
730 3573
730 3632
730 3718
731 765
731 767
731 901
731 1229
731 1524
731 1651
731 1756
731 1940
731 2134
731 2144
731 2460
731 2466
731 3065
731 3189
732 752
732 764
732 776
732 821
732 892
732 903
732 912
732 954
732 1000
732 1009
732 1012
732 1028
732 1060
732 1082
732 1109
732 1134
732 1135
732 1163
732 1210
732 1218
732 1224
732 1282
732 1296
732 1310
732 1345
732 1368
732 1369
732 1402
732 1411
732 1440
732 1444
732 1470
732 1493
732 1550
732 1630
732 1700
732 1728
732 1737
732 1754
732 1785
732 1797
732 1811
732 1816
732 1841
732 1848
732 1849
732 1870
732 1961
732 2002
732 2024
732 2046
732 2129
732 2158
732 2170
732 2204
732 2209
732 2320
732 2371
732 2478
732 2507
732 2512
732 2596
732 2615
732 2680
732 2707
732 2730
732 2751
732 2767
732 2772
732 2773
732 2774
732 2781
732 2815
732 2822
732 2823
732 2869
732 2882
732 2888
732 2890
732 2911
732 2956
732 2960
732 2980
732 3093
732 3098
732 3106
732 3150
732 3278
732 3343
732 3359
732 3370
732 3413
732 3440
732 3456
732 3477
732 3490
732 3507
732 3661
732 3669
732 3688
732 3689
732 3695
732 3696
732 3703
732 3731
733 930
733 950
733 952
733 1022
733 1055
733 1056
733 1104
733 1204
733 1217
733 1236
733 1476
733 1547
733 1603
733 1652
733 1708
733 1856
733 1928
733 1935
733 1969
733 2042
733 2049
733 2066
733 2081
733 2083
733 2114
733 2167
733 2200
733 2341
733 2386
733 2420
733 2431
733 2452
733 2459
733 2660
733 2677
733 2737
733 2789
733 2813
733 2931
733 2986
733 2992
733 3007
733 3021
733 3081
733 3098
733 3135
733 3176
733 3248
733 3262
733 3464
733 3481
733 3574
734 1666
734 1949
734 2711
735 1391
735 1496
735 1885
735 2566
735 3307
735 3665
736 752
736 913
736 1294
736 1319
736 1696
736 2437
736 2928
736 2953
736 3206
736 3283
736 3326
736 3363
736 3365
736 3466
736 3495
736 3516
736 3591
736 3712
737 791
737 1075
737 1118
737 1729
737 1799
737 2327
737 2428
737 2566
737 3164
737 3395
737 3610
738 753
738 928
738 947
738 949
738 950
738 952
738 995
738 1079
738 1199
738 1236
738 1275
738 1297
738 1425
738 1602
738 1661
738 1687
738 1716
738 1725
738 1820
738 2081
738 2217
738 2243
738 2341
738 2405
738 2420
738 2431
738 2440
738 2452
738 2464
738 2634
738 2709
738 2944
738 3018
738 3021
738 3081
738 3135
738 3197
738 3248
738 3250
738 3251
738 3332
738 3500
739 856
739 1493
739 1797
739 1925
739 2552
739 2946
739 2977
739 3132
739 3303
739 3703
740 766
740 867
740 898
740 1278
740 1314
740 1389
740 1452
740 1489
740 1543
740 1613
740 1661
740 1797
740 1853
740 1880
740 1941
740 2033
740 2038
740 2052
740 2066
740 2141
740 2170
740 2201
740 2210
740 2311
740 2384
740 2531
740 2583
740 2655
740 2683
740 2808
740 2865
740 2908
740 3107
740 3109
740 3128
740 3234
740 3385
740 3396
740 3424
740 3575
740 3594
740 3639
741 1319
741 1623
741 3250
742 838
742 901
742 903
742 1041
742 1101
742 1288
742 1341
742 1362
742 1416
742 1453
742 1501
742 1704
742 1777
742 1839
742 1879
742 2038
742 2078
742 2157
742 2602
742 2687
742 2746
742 2933
742 2956
742 3047
742 3083
742 3405
742 3513
742 3534
742 3664
742 3687
742 3745
743 991
743 1138
743 1689
743 1740
743 2181
743 2440
743 2776
744 764
744 832
744 1087
744 1123
744 1234
744 1337
744 1408
744 1734
744 2251
744 2392
744 2690
744 2707
744 2710
744 2727
744 2770
744 3149
744 3315
745 1321
745 1711
745 1725
745 2174
745 2219
745 2287
745 2319
745 2408
745 2658
746 784
746 825
746 874
746 875
746 925
746 942
746 1144
746 1343
746 1373
746 1421
746 1444
746 1483
746 1780
746 1828
746 1866
746 1908
746 1923
746 2009
746 2013
746 2045
746 2121
746 2520
746 2522
746 2544
746 2567
746 2684
746 2693
746 2875
746 2973
746 2989
746 3050
746 3110
746 3111
746 3112
746 3305
746 3306
746 3345
746 3346
746 3407
746 3514
746 3564
746 3589
746 3670
747 769
747 965
747 1009
747 1160
747 1519
747 1742
747 1913
747 1952
747 2248
747 2250
747 2356
747 2531
747 2560
747 3079
747 3166
747 3376
747 3446
747 3668
747 3686
748 941
748 967
748 968
748 1024
748 1073
748 1174
748 1195
748 1286
748 1314
748 1321
748 1333
748 1334
748 1338
748 1346
748 1371
748 1416
748 1471
748 1487
748 1501
748 1583
748 1618
748 1631
748 1724
748 1725
748 1831
748 1848
748 1876
748 1972
748 2240
748 2321
748 2438
748 2721
748 2804
748 2813
748 2838
748 2848
748 3047
748 3125
748 3145
748 3259
748 3277
748 3292
748 3301
748 3316
748 3395
748 3444
748 3462
748 3675
749 1505
749 2668
749 2857
749 3462
749 3652
749 3682
750 2338
751 836
751 901
751 951
751 1082
751 1210
751 1310
751 1444
751 1470
751 1619
751 1641
751 1754
751 1961
751 2067
751 2158
751 2209
751 2242
751 2452
751 2656
751 2780
751 2852
751 2956
751 3112
751 3556
751 3688
751 3718
751 3731
752 781
752 821
752 838
752 892
752 907
752 915
752 935
752 953
752 967
752 1000
752 1021
752 1028
752 1082
752 1227
752 1228
752 1240
752 1282
752 1286
752 1294
752 1299
752 1321
752 1368
752 1409
752 1411
752 1419
752 1440
752 1518
752 1565
752 1567
752 1593
752 1613
752 1681
752 1725
752 1737
752 1761
752 1770
752 1773
752 1816
752 1880
752 1893
752 1960
752 1996
752 2002
752 2040
752 2052
752 2092
752 2141
752 2170
752 2174
752 2219
752 2223
752 2236
752 2282
752 2291
752 2298
752 2316
752 2356
752 2364
752 2369
752 2371
752 2399
752 2406
752 2408
752 2414
752 2544
752 2580
752 2584
752 2605
752 2640
752 2656
752 2658
752 2683
752 2749
752 2771
752 2781
752 2783
752 2792
752 2809
752 2823
752 2849
752 2879
752 2888
752 2890
752 2901
752 2911
752 2944
752 2956
752 2979
752 3009
752 3012
752 3038
752 3075
752 3098
752 3136
752 3137
752 3150
752 3164
752 3194
752 3234
752 3253
752 3278
752 3349
752 3359
752 3371
752 3413
752 3422
752 3437
752 3456
752 3466
752 3477
752 3548
752 3553
752 3558
752 3575
752 3578
752 3592
752 3601
752 3611
752 3617
752 3622
752 3629
752 3687
752 3696
752 3710
752 3734
752 3746
753 829
753 884
753 885
753 930
753 1078
753 1105
753 1313
753 1330
753 1443
753 1468
753 1735
753 1843
753 1859
753 1998
753 2078
753 2081
753 2114
753 2154
753 2341
753 2395
753 2431
753 2610
753 2724
753 2737
753 2789
753 2853
753 2965
753 3008
753 3021
753 3081
753 3104
753 3135
753 3248
753 3262
753 3271
753 3358
753 3421
753 3570
753 3597
753 3602
753 3616
754 818
754 838
754 858
754 883
754 967
754 980
754 1002
754 1050
754 1065
754 1116
754 1120
754 1141
754 1167
754 1195
754 1321
754 1357
754 1377
754 1402
754 1416
754 1453
754 1465
754 1480
754 1487
754 1495
754 1497
754 1510
754 1530
754 1567
754 1568
754 1616
754 1631
754 1667
754 1681
754 1723
754 1724
754 1754
754 1788
754 1870
754 1872
754 1898
754 1902
754 1924
754 1972
754 2066
754 2265
754 2378
754 2397
754 2430
754 2438
754 2443
754 2478
754 2507
754 2512
754 2559
754 2696
754 2730
754 2744
754 2791
754 2804
754 2879
754 2944
754 2960
754 3029
754 3055
754 3070
754 3093
754 3098
754 3108
754 3116
754 3128
754 3131
754 3183
754 3227
754 3306
754 3323
754 3386
754 3426
754 3458
754 3562
754 3596
754 3669
754 3689
754 3717
754 3719
754 3737
755 809
755 850
755 1031
755 1568
755 1610
755 1642
755 1837
755 1988
755 2015
755 2055
755 2282
755 2973
755 3183
755 3368
755 3371
755 3437
755 3638
755 3691
755 3728
756 993
756 1036
756 1744
756 3374
757 791
757 812
757 814
757 889
757 926
757 976
757 1020
757 1064
757 1070
757 1075
757 1082
757 1095
757 1136
757 1174
757 1180
757 1284
757 1360
757 1389
757 1427
757 1448
757 1479
757 1482
757 1537
757 1593
757 1597
757 1768
757 1801
757 1924
757 1971
757 1976
757 1981
757 1990
757 2059
757 2119
757 2176
757 2201
757 2281
757 2378
757 2554
757 2682
757 2728
757 2769
757 2782
757 2827
757 2838
757 3007
757 3020
757 3045
757 3194
757 3231
757 3276
757 3396
757 3433
757 3439
757 3491
757 3514
757 3538
757 3563
757 3605
757 3618
757 3626
757 3640
757 3690
757 3693
758 804
758 1174
758 1185
758 1280
758 1469
758 1559
758 1621
758 1686
758 1705
758 1863
758 1867
758 1926
758 2230
758 2237
758 2370
758 2547
758 3211
758 3230
758 3234
758 3490
758 3649
759 784
759 825
759 859
759 897
759 1004
759 1062
759 1066
759 1156
759 1178
759 1179
759 1221
759 1228
759 1329
759 1415
759 1469
759 1509
759 1565
759 1645
759 1648
759 1736
759 1744
759 1747
759 1873
759 1897
759 1996
759 2011
759 2035
759 2095
759 2187
759 2205
759 2567
759 2857
759 2878
759 2989
759 3002
759 3004
759 3028
759 3137
759 3153
759 3181
759 3296
759 3423
759 3507
759 3510
759 3573
759 3598
759 3687
759 3691
759 3703
759 3714
759 3736
760 1020
760 1293
760 2059
760 2098
760 2119
760 2729
760 3014
760 3128
761 838
761 861
761 883
761 1116
761 1121
761 1164
761 1239
761 1254
761 1265
761 1321
761 1338
761 1377
761 1521
761 1567
761 1589
761 1720
761 1724
761 1821
761 1918
761 1971
761 1972
761 2040
761 2125
761 2378
761 2492
761 2507
761 2582
761 2640
761 2648
761 2665
761 2791
761 2794
761 2850
761 2940
761 3029
761 3047
761 3070
761 3097
761 3147
761 3180
761 3227
761 3259
761 3386
761 3395
761 3415
761 3466
761 3534
761 3592
761 3635
761 3689
761 3717
762 909
762 931
762 974
762 1030
762 1085
762 1114
762 1118
762 1158
762 1208
762 1335
762 1614
762 1823
762 1931
762 1944
762 2089
762 2132
762 2148
762 2174
762 2201
762 2256
762 2327
762 2333
762 2392
762 2449
762 2508
762 2559
762 2562
762 2581
762 2609
762 2688
762 2749
762 2843
762 2896
762 3279
762 3408
762 3490
762 3514
762 3613
762 3645
762 3659
763 1837
763 2177
763 2474
763 2751
763 2884
763 2973
763 3194
763 3405
764 809
764 832
764 838
764 967
764 1037
764 1041
764 1057
764 1123
764 1186
764 1234
764 1244
764 1296
764 1312
764 1323
764 1337
764 1522
764 1530
764 1580
764 1640
764 1832
764 1837
764 1845
764 1849
764 1908
764 1970
764 2034
764 2111
764 2121
764 2250
764 2251
764 2311
764 2364
764 2392
764 2419
764 2504
764 2515
764 2516
764 2544
764 2554
764 2556
764 2664
764 2690
764 2707
764 2737
764 2770
764 2787
764 2815
764 2908
764 2963
764 2973
764 3007
764 3037
764 3112
764 3118
764 3149
764 3224
764 3306
764 3315
764 3332
764 3346
764 3382
764 3386
764 3430
764 3466
764 3478
764 3624
764 3633
764 3639
764 3641
764 3684
764 3687
764 3695
765 890
765 895
765 941
765 999
765 1195
765 1229
765 1253
765 1288
765 1374
765 1416
765 1478
765 1517
765 1571
765 1618
765 1639
765 1682
765 1818
765 1853
765 1930
765 1979
765 2144
765 2359
765 2401
765 2514
765 2609
765 2638
765 2648
765 2664
765 2769
765 2858
765 2877
765 2916
765 2933
765 2944
765 3065
765 3068
765 3185
765 3189
765 3196
765 3299
765 3462
765 3493
765 3518
765 3675
765 3704
765 3729
766 800
766 856
766 858
766 897
766 1103
766 1151
766 1351
766 1492
766 1509
766 1594
766 1706
766 1893
766 1992
766 2077
766 2110
766 2223
766 2232
766 2356
766 2364
766 2531
766 2560
766 2687
766 2700
766 2749
766 2807
766 2810
766 2829
766 2887
766 2908
766 2964
766 2982
766 3027
766 3192
766 3297
766 3302
766 3372
766 3474
766 3632
766 3711
767 782
767 798
767 816
767 841
767 899
767 901
767 906
767 955
767 958
767 963
767 967
767 968
767 988
767 991
767 1000
767 1022
767 1043
767 1068
767 1092
767 1133
767 1134
767 1138
767 1139
767 1153
767 1214
767 1274
767 1289
767 1321
767 1406
767 1419
767 1487
767 1501
767 1521
767 1543
767 1565
767 1577
767 1616
767 1620
767 1624
767 1641
767 1710
767 1713
767 1725
767 1742
767 1777
767 1851
767 1955
767 1986
767 2025
767 2052
767 2116
767 2148
767 2190
767 2198
767 2211
767 2219
767 2226
767 2287
767 2320
767 2328
767 2337
767 2391
767 2406
767 2408
767 2416
767 2424
767 2438
767 2445
767 2458
767 2460
767 2479
767 2507
767 2517
767 2528
767 2564
767 2575
767 2588
767 2590
767 2640
767 2648
767 2658
767 2676
767 2699
767 2721
767 2751
767 2792
767 2808
767 2812
767 2877
767 2888
767 2910
767 2956
767 3009
767 3010
767 3051
767 3071
767 3094
767 3096
767 3101
767 3178
767 3227
767 3234
767 3249
767 3284
767 3317
767 3339
767 3354
767 3466
767 3496
767 3510
767 3513
767 3517
767 3562
767 3569
767 3572
767 3578
767 3599
767 3605
767 3624
767 3642
767 3645
767 3649
767 3685
767 3704
768 771
768 892
768 917
768 1011
768 1065
768 1228
768 1292
768 1368
768 1534
768 1573
768 1625
768 1852
768 1872
768 2109
768 2313
768 2381
768 2389
768 2421
768 2606
768 2781
768 2996
768 3022
768 3124
768 3146
768 3148
768 3312
768 3334
768 3493
768 3518
768 3717
769 812
769 832
769 842
769 901
769 931
769 965
769 1009
769 1266
769 1309
769 1380
769 1519
769 1742
769 2137
769 2159
769 2179
769 2356
769 2656
769 2749
769 2938
769 3166
769 3192
769 3413
769 3446
769 3516
769 3637
769 3645
769 3668
769 3684
769 3686
770 1225
770 1339
770 1344
770 1358
770 1551
770 1659
770 1681
770 1747
770 1789
770 1797
770 2141
770 2152
770 2360
770 2418
770 2427
770 2575
770 2672
770 2683
770 2713
770 2743
770 2801
770 2830
770 2869
770 2909
770 2951
770 3061
770 3159
770 3553
770 3596
771 892
771 1011
771 1425
771 1573
771 1671
771 1679
771 2057
771 2313
771 2373
771 2477
771 2499
771 2530
771 3061
771 3099
771 3156
771 3312
771 3376
771 3559
771 3721
772 966
772 1063
772 2081
772 2097
773 859
773 1339
773 2177
773 2583
773 2683
773 2689
773 2867
773 3573
773 3585
773 3714
773 3729
774 784
774 785
774 921
774 929
774 1228
774 1325
774 1360
774 1459
774 1573
774 1665
774 1680
774 1914
774 2299
774 2358
774 2394
774 2593
774 2613
774 2818
774 3261
774 3489
774 3514
774 3573
774 3605
774 3704
775 841
775 894
775 1641
775 3355
776 821
776 822
776 899
776 1009
776 1022
776 1043
776 1179
776 1419
776 1469
776 1543
776 1870
776 1879
776 1955
776 2042
776 2369
776 2416
776 2452
776 2469
776 2474
776 2517
776 2699
776 2713
776 2809
776 2845
776 2956
776 2960
776 3094
776 3098
776 3178
776 3234
776 3513
776 3572
776 3578
776 3642
776 3736
777 908
777 915
777 1198
777 2573
777 2935
777 2970
777 3330
778 921
778 953
778 1075
778 1129
778 1141
778 1245
778 1298
778 1336
778 1365
778 1390
778 1458
778 1465
778 1497
778 1507
778 1549
778 1569
778 1583
778 1679
778 1838
778 1875
778 1959
778 1975
778 1987
778 2133
778 2349
778 2528
778 2728
778 2783
778 2838
778 3106
778 3153
778 3171
778 3191
778 3196
778 3210
778 3312
778 3336
778 3518
778 3540
778 3689
778 3735
779 994
779 1053
779 1214
779 1323
779 1363
779 1575
779 1773
779 2005
779 2256
779 2387
779 2614
779 2667
779 2777
779 2822
779 2897
779 2909
779 3022
779 3080
779 3382
779 3429
779 3479
779 3528
779 3662
779 3725
780 896
780 936
780 1996
780 2189
780 2763
780 2838
780 2908
780 3148
780 3538
781 808
781 912
781 935
781 1028
781 1082
781 1120
781 1200
781 1304
781 1361
781 1492
781 1509
781 1518
781 1519
781 1565
781 1613
781 1681
781 1695
781 1782
781 1845
781 1979
781 2009
781 2077
781 2110
781 2169
781 2288
781 2338
781 2399
781 2408
781 2532
781 2536
781 2591
781 2604
781 2661
781 2752
781 2802
781 2877
781 2885
781 2890
781 2923
781 2954
781 2956
781 3105
781 3112
781 3118
781 3320
781 3404
781 3418
781 3426
781 3456
781 3461
781 3529
781 3627
781 3676
781 3677
781 3703
781 3704
781 3718
781 3721
781 3739
782 833
782 988
782 1397
782 1487
782 1799
782 1989
782 2049
782 2226
782 2235
782 2276
782 2319
782 2408
782 2581
782 2747
782 3504
782 3655
782 3685
783 814
783 927
783 987
783 1018
783 1087
783 1095
783 1150
783 1387
783 1624
783 1661
783 1673
783 1678
783 1772
783 1776
783 1814
783 1825
783 1886
783 2386
783 2570
783 2625
783 2779
783 2838
783 3007
783 3098
783 3231
783 3332
783 3344
783 3359
783 3511
783 3677
784 832
784 834
784 874
784 875
784 892
784 906
784 917
784 942
784 1001
784 1061
784 1144
784 1152
784 1170
784 1185
784 1214
784 1225
784 1228
784 1273
784 1325
784 1326
784 1343
784 1373
784 1459
784 1467
784 1489
784 1520
784 1531
784 1575
784 1593
784 1648
784 1680
784 1699
784 1719
784 1757
784 1780
784 1828
784 1866
784 1908
784 1923
784 1948
784 2009
784 2013
784 2014
784 2045
784 2069
784 2250
784 2310
784 2381
784 2387
784 2493
784 2520
784 2522
784 2567
784 2613
784 2658
784 2678
784 2684
784 2693
784 2781
784 2791
784 2808
784 2818
784 2988
784 3037
784 3050
784 3087
784 3111
784 3112
784 3130
784 3141
784 3147
784 3170
784 3181
784 3247
784 3305
784 3316
784 3345
784 3358
784 3409
784 3486
784 3514
784 3565
784 3573
784 3641
784 3670
784 3698
784 3706
784 3722
785 902
785 929
785 949
785 1041
785 1162
785 1228
785 1316
785 1360
785 1385
785 1459
785 1559
785 1573
785 1575
785 1665
785 2031
785 2174
785 2284
785 2589
785 2593
785 2648
785 2881
785 3006
785 3010
785 3128
785 3261
785 3295
785 3382
785 3404
785 3684
785 3686
786 875
786 876
786 879
786 978
786 1352
786 1415
786 1599
786 1745
786 1797
786 1884
786 2051
786 2116
786 2245
786 2325
786 2337
786 2618
786 2708
786 3021
786 3188
786 3212
786 3232
786 3442
786 3569
786 3716
788 1119
788 1158
788 1507
788 1644
788 1691
788 1867
788 2016
788 2115
788 2401
788 2629
788 2721
788 3364
788 3518
788 3619
789 1071
789 2340
789 2687
789 2966
789 3190
790 842
790 867
790 1156
790 1273
790 1335
790 1356
790 1469
790 1493
790 1574
790 1648
790 1718
790 1797
790 1996
790 2036
790 2150
790 2391
790 2392
790 2408
790 2631
790 2681
790 2695
790 2713
790 2878
790 2882
790 3040
790 3144
790 3335
790 3408
790 3528
790 3703
791 801
791 812
791 840
791 1020
791 1321
791 1352
791 1401
791 1417
791 1533
791 1597
791 1768
791 1920
791 1971
791 1981
791 2010
791 2115
791 2219
791 2243
791 2329
791 2420
791 2468
791 2497
791 2554
791 2600
791 2676
791 2732
791 2763
791 2770
791 2782
791 2827
791 2948
791 3003
791 3234
791 3238
791 3261
791 3425
791 3594
791 3626
791 3734
792 900
792 1143
792 1236
792 1740
792 1756
792 2019
792 2415
792 2834
792 2909
792 3150
794 961
794 1949
794 2486
795 1002
795 1011
795 2298
795 2300
795 2692
795 2927
795 3616
796 1263
796 1834
796 3035
796 3448
797 988
797 1644
797 1897
797 2407
797 2446
797 2653
797 2875
797 3221
797 3569
798 1624
798 1925
798 1978
798 2320
799 895
799 1318
799 1360
799 1459
799 1479
799 1566
799 1673
799 1678
799 1687
799 1801
799 1937
799 1985
799 2156
799 2237
799 2262
799 2319
799 2779
799 2793
799 2904
799 3003
799 3045
799 3191
799 3199
800 931
800 1020
800 1089
800 1151
800 1492
800 1706
800 1742
800 2077
800 2232
800 2340
800 2407
800 2531
800 2656
800 2687
800 2810
800 2830
800 2982
800 3150
800 3278
800 3372
800 3456
801 806
801 981
801 1030
801 1133
801 1177
801 1206
801 1253
801 1278
801 1358
801 1391
801 1425
801 1557
801 1661
801 1700
801 1743
801 1783
801 1848
801 1941
801 1977
801 2057
801 2067
801 2122
801 2142
801 2177
801 2202
801 2237
801 2337
801 2418
801 2646
801 2652
801 2666
801 2778
801 2799
801 2808
801 2828
801 2865
801 2916
801 2946
801 3061
801 3160
801 3205
801 3376
801 3526
801 3559
801 3617
801 3678
801 3695
801 3714
801 3718
802 841
802 859
802 896
802 898
802 958
802 965
802 995
802 1027
802 1156
802 1169
802 1178
802 1186
802 1217
802 1225
802 1270
802 1273
802 1285
802 1290
802 1299
802 1323
802 1325
802 1339
802 1347
802 1366
802 1408
802 1482
802 1494
802 1519
802 1526
802 1629
802 1640
802 1659
802 1686
802 1780
802 1814
802 1824
802 1845
802 1859
802 1864
802 1901
802 2014
802 2053
802 2064
802 2104
802 2146
802 2147
802 2151
802 2177
802 2219
802 2250
802 2251
802 2267
802 2314
802 2368
802 2387
802 2480
802 2509
802 2515
802 2544
802 2583
802 2631
802 2707
802 2760
802 2763
802 2790
802 2838
802 2878
802 2899
802 2908
802 2912
802 2922
802 2951
802 2973
802 2999
802 3021
802 3030
802 3087
802 3115
802 3119
802 3133
802 3167
802 3212
802 3225
802 3284
802 3306
802 3316
802 3355
802 3377
802 3388
802 3478
802 3482
802 3573
802 3598
802 3686
802 3696
802 3729
803 841
803 894
803 899
803 906
803 923
803 925
803 1004
803 1022
803 1039
803 1043
803 1133
803 1153
803 1172
803 1245
803 1281
803 1322
803 1340
803 1372
803 1391
803 1419
803 1434
803 1460
803 1469
803 1472
803 1543
803 1548
803 1714
803 1733
803 1827
803 1880
803 1884
803 1908
803 2008
803 2009
803 2052
803 2060
803 2298
803 2367
803 2370
803 2388
803 2424
803 2458
803 2479
803 2493
803 2517
803 2528
803 2612
803 2626
803 2699
803 2718
803 2792
803 2845
803 2940
803 2956
803 2988
803 3000
803 3059
803 3072
803 3089
803 3094
803 3128
803 3213
803 3227
803 3264
803 3284
803 3322
803 3329
803 3339
803 3343
803 3356
803 3482
803 3484
803 3504
803 3513
803 3517
803 3578
803 3642
803 3649
803 3650
803 3683
803 3736
804 842
804 859
804 964
804 1036
804 1207
804 1296
804 1358
804 1389
804 1661
804 1686
804 1705
804 1837
804 1925
804 1947
804 1948
804 2015
804 2205
804 2219
804 2236
804 2282
804 2311
804 2322
804 2638
804 2763
804 2922
804 2973
804 3002
804 3081
804 3115
804 3123
804 3234
804 3296
804 3516
804 3562
804 3601
804 3705
805 878
805 940
805 1140
805 1222
805 1293
805 1350
805 1450
805 1536
805 1789
805 1913
805 2179
805 2581
805 2609
805 2723
805 2729
805 2752
805 2851
805 2972
805 3014
805 3057
805 3066
805 3128
805 3376
805 3385
805 3435
805 3545
806 1004
806 1025
806 1177
806 1263
806 1350
806 1439
806 1508
806 1565
806 1789
806 2146
806 2171
806 2609
806 2646
806 2710
806 2752
806 2882
806 2994
806 3016
806 3057
806 3066
806 3167
806 3501
806 3528
807 844
807 887
807 943
807 988
807 1022
807 1023
807 1072
807 1087
807 1104
807 1150
807 1452
807 1597
807 1677
807 1912
807 1956
807 1969
807 2390
807 2440
807 2515
807 2601
807 2677
807 2699
807 2710
807 2792
807 2859
807 3000
807 3021
807 3081
807 3094
807 3224
807 3316
807 3399
807 3450
807 3466
807 3510
807 3597
807 3640
807 3683
807 3695
807 3736
808 999
808 1200
808 1467
808 1477
808 1490
808 1520
808 1617
808 1695
808 1790
808 1813
808 2020
808 2146
808 2190
808 2359
808 2421
808 2460
808 2463
808 2734
808 2802
808 2923
808 2974
808 3152
808 3219
808 3240
808 3404
808 3426
808 3456
808 3640
808 3677
808 3680
809 897
809 996
809 1014
809 1016
809 1061
809 1094
809 1109
809 1288
809 1295
809 1304
809 1333
809 1492
809 1501
809 1505
809 1522
809 1532
809 1604
809 1651
809 1673
809 1760
809 1775
809 1797
809 1859
809 1862
809 1863
809 1865
809 1876
809 1972
809 1992
809 2015
809 2075
809 2105
809 2136
809 2174
809 2201
809 2209
809 2262
809 2282
809 2300
809 2346
809 2410
809 2564
809 2596
809 2642
809 2654
809 2687
809 2700
809 2734
809 2751
809 2793
809 2840
809 2848
809 2882
809 2928
809 2956
809 2989
809 3021
809 3078
809 3105
809 3110
809 3135
809 3137
809 3209
809 3266
809 3288
809 3317
809 3358
809 3598
809 3645
809 3656
809 3691
809 3702
809 3739
810 1463
810 3319
810 3468
811 1041
811 2284
812 955
812 996
812 1070
812 1087
812 1114
812 1337
812 1426
812 1464
812 1488
812 1582
812 1768
812 1837
812 1850
812 1928
812 1937
812 1971
812 1976
812 2014
812 2064
812 2131
812 2174
812 2210
812 2217
812 2266
812 2283
812 2319
812 2329
812 2445
812 2474
812 2480
812 2554
812 2570
812 2573
812 2710
812 2770
812 2808
812 2836
812 2884
812 2987
812 3007
812 3053
812 3083
812 3234
812 3238
812 3465
812 3533
812 3575
812 3609
812 3661
812 3677
812 3693
812 3736
813 994
813 1096
813 1181
813 1360
813 1588
813 1657
813 2267
813 2387
813 2485
813 2520
813 2586
813 2667
813 2734
813 2806
813 2818
813 2941
813 3022
813 3080
813 3120
813 3252
813 3382
813 3591
814 832
814 877
814 895
814 901
814 909
814 960
814 968
814 1022
814 1023
814 1037
814 1070
814 1075
814 1085
814 1087
814 1104
814 1114
814 1118
814 1149
814 1150
814 1177
814 1195
814 1225
814 1272
814 1276
814 1320
814 1322
814 1334
814 1409
814 1416
814 1417
814 1465
814 1475
814 1582
814 1597
814 1618
814 1687
814 1729
814 1755
814 1761
814 1843
814 1864
814 1902
814 1924
814 1928
814 1964
814 1971
814 2041
814 2064
814 2079
814 2168
814 2174
814 2184
814 2217
814 2225
814 2235
814 2262
814 2316
814 2319
814 2327
814 2358
814 2378
814 2412
814 2430
814 2478
814 2510
814 2551
814 2554
814 2559
814 2607
814 2647
814 2648
814 2710
814 2755
814 2804
814 2837
814 2838
814 2867
814 2895
814 2973
814 3007
814 3021
814 3098
814 3101
814 3118
814 3138
814 3161
814 3220
814 3224
814 3227
814 3235
814 3328
814 3332
814 3370
814 3382
814 3404
814 3465
814 3510
814 3531
814 3585
814 3599
814 3601
814 3609
814 3624
814 3626
814 3659
814 3676
814 3693
814 3717
815 911
815 987
815 1010
815 1169
815 1349
815 1364
815 1383
815 1492
815 1590
815 1653
815 1661
815 1875
815 1897
815 1908
815 1975
815 1996
815 2187
815 2216
815 2282
815 2371
815 2372
815 2520
815 2549
815 2553
815 2596
815 2661
815 2771
815 2844
815 2869
815 2925
815 2988
815 3095
815 3196
815 3227
815 3445
815 3664
815 3673
815 3691
816 899
816 906
816 916
816 988
816 1013
816 1022
816 1039
816 1043
816 1092
816 1157
816 1245
816 1419
816 1501
816 1543
816 1556
816 1710
816 1733
816 1777
816 2042
816 2211
816 2276
816 2416
816 2479
816 2517
816 2528
816 2665
816 2699
816 2845
816 2888
816 2940
816 2956
816 3051
816 3094
816 3322
816 3354
816 3484
816 3578
816 3625
816 3735
817 951
817 998
817 1030
817 1154
817 1699
817 1853
817 1861
817 1931
817 1952
817 2180
817 2319
817 2387
817 2401
817 2534
817 2548
817 2579
817 2613
817 2666
817 3117
817 3141
817 3162
817 3231
817 3518
817 3536
817 3718
818 819
818 858
818 883
818 998
818 1002
818 1050
818 1065
818 1120
818 1141
818 1163
818 1167
818 1357
818 1377
818 1480
818 1554
818 1616
818 1648
818 1667
818 1806
818 1862
818 1898
818 1925
818 2282
818 2378
818 2548
818 2696
818 2744
818 2815
818 2880
818 2973
818 3018
818 3034
818 3055
818 3093
818 3108
818 3110
818 3131
818 3227
818 3306
818 3416
818 3562
818 3564
818 3596
818 3603
818 3687
818 3702
818 3719
818 3737
819 833
819 839
819 858
819 891
819 1008
819 1163
819 1362
819 1364
819 1508
819 1510
819 1946
819 2036
819 2044
819 2189
819 2210
819 2232
819 2429
819 2506
819 2603
819 2639
819 2869
819 2896
819 2925
819 2956
819 3145
819 3172
819 3237
819 3603
819 3682
820 2736
820 2780
820 2942
820 3217
821 837
821 903
821 907
821 912
821 1009
821 1021
821 1028
821 1089
821 1134
821 1151
821 1169
821 1193
821 1218
821 1296
821 1345
821 1368
821 1369
821 1411
821 1428
821 1440
821 1737
821 1754
821 1816
821 1870
821 2002
821 2046
821 2072
821 2170
821 2209
821 2237
821 2356
821 2369
821 2371
821 2372
821 2478
821 2485
821 2507
821 2656
821 2666
821 2680
821 2767
821 2781
821 2822
821 2823
821 2884
821 2888
821 2890
821 2911
821 2956
821 2960
821 2973
821 2975
821 2979
821 3093
821 3098
821 3106
821 3150
821 3278
821 3359
821 3413
821 3437
821 3456
821 3477
821 3603
821 3661
821 3669
821 3695
821 3703
821 3714
822 988
822 1710
822 2626
822 3572
822 3578
823 2032
823 2089
823 2375
823 2695
823 2898
823 3643
824 849
824 916
824 960
824 1023
824 1037
824 1149
824 1314
824 1526
824 1531
824 1568
824 1597
824 1681
824 2001
824 2034
824 2042
824 2064
824 2076
824 2289
824 2369
824 2412
824 2462
824 2521
824 2601
824 2710
824 2804
824 2842
824 3021
824 3094
824 3103
824 3138
824 3183
824 3193
824 3207
824 3224
824 3258
824 3332
824 3450
824 3557
824 3638
824 3672
825 859
825 897
825 981
825 1004
825 1062
825 1156
825 1178
825 1221
825 1228
825 1231
825 1412
825 1469
825 1642
825 1645
825 1648
825 1744
825 1822
825 1873
825 1897
825 1908
825 1996
825 2011
825 2035
825 2046
825 2095
825 2205
825 2372
825 2388
825 2416
825 2503
825 2516
825 2542
825 2605
825 2845
825 2857
825 2878
825 2989
825 3002
825 3004
825 3028
825 3137
825 3249
825 3396
825 3423
825 3507
825 3546
825 3573
825 3589
825 3598
825 3684
825 3736
826 1094
826 1145
826 1227
826 1518
826 1526
826 1644
826 1652
826 1681
826 1723
826 1863
826 1979
826 2071
826 2115
826 2156
826 2777
826 2811
826 2912
826 3073
826 3109
826 3234
826 3412
827 1267
827 1273
827 1600
827 1831
827 2394
827 2728
827 3382
828 3158
829 911
829 932
829 942
829 961
829 1201
829 1398
829 1525
829 2078
829 2217
829 2231
829 2440
829 2657
829 2968
829 3081
829 3197
829 3331
829 3485
829 3602
830 2098
830 2201
830 2868
830 3217
830 3514
831 952
831 1708
831 1815
831 2440
831 3255
831 3500
831 3691
832 912
832 924
832 962
832 1072
832 1075
832 1085
832 1114
832 1234
832 1277
832 1295
832 1337
832 1359
832 1374
832 1402
832 1406
832 1457
832 1458
832 1497
832 1498
832 1559
832 1568
832 1574
832 1577
832 1621
832 1737
832 1751
832 1844
832 1959
832 2031
832 2039
832 2040
832 2057
832 2109
832 2111
832 2125
832 2144
832 2174
832 2190
832 2201
832 2218
832 2219
832 2230
832 2282
832 2290
832 2339
832 2371
832 2392
832 2403
832 2406
832 2507
832 2512
832 2632
832 2635
832 2648
832 2649
832 2657
832 2689
832 2690
832 2703
832 2707
832 2727
832 2755
832 2763
832 2802
832 2812
832 2842
832 2895
832 2908
832 2916
832 2943
832 2961
832 2971
832 2989
832 3069
832 3070
832 3118
832 3131
832 3149
832 3164
832 3205
832 3220
832 3227
832 3274
832 3282
832 3315
832 3354
832 3395
832 3396
832 3404
832 3458
832 3466
832 3496
832 3531
832 3665
832 3718
832 3741
833 866
833 867
833 895
833 1356
833 1397
833 1457
833 1477
833 1606
833 1915
833 1941
833 2044
833 2161
833 2232
833 2251
833 2623
833 2810
833 2851
833 2896
833 2908
833 3110
833 3144
833 3226
833 3237
833 3296
833 3587
833 3603
833 3655
833 3664
833 3711
833 3741
834 874
834 1031
834 1061
834 1343
834 1908
834 2013
834 2310
834 2567
834 2684
834 3111
834 3112
834 3345
835 914
835 998
835 1039
835 1155
835 1457
835 1464
835 1725
835 2001
835 2274
835 2403
835 3034
835 3110
835 3515
835 3536
835 3564
835 3737
836 875
836 965
836 1028
836 1049
836 1050
836 1082
836 1223
836 1323
836 1368
836 1661
836 1737
836 1816
836 1824
836 2002
836 2035
836 2170
836 2370
836 2371
836 2498
836 2522
836 2657
836 2877
836 2888
836 2911
836 2948
836 2956
836 2979
836 2988
836 3234
836 3278
836 3297
836 3456
836 3686
836 3710
836 3746
837 903
837 1024
837 1151
837 1270
837 1323
837 1489
837 1501
837 1505
837 1521
837 1522
837 1552
837 1630
837 1656
837 1734
837 1756
837 1837
837 1863
837 1876
837 1908
837 1970
837 1972
837 1996
837 2003
837 2012
837 2015
837 2357
837 2379
837 2484
837 2544
837 2564
837 2565
837 2578
837 2668
837 2751
837 2889
837 2907
837 2973
837 2989
837 3034
837 3137
837 3145
837 3170
837 3235
837 3302
837 3397
837 3426
837 3428
837 3521
837 3544
837 3564
837 3575
837 3711
838 861
838 1024
838 1050
838 1065
838 1119
838 1121
838 1130
838 1155
838 1186
838 1239
838 1254
838 1286
838 1290
838 1321
838 1333
838 1360
838 1409
838 1416
838 1459
838 1461
838 1471
838 1480
838 1487
838 1501
838 1510
838 1530
838 1557
838 1567
838 1574
838 1588
838 1589
838 1630
838 1703
838 1720
838 1723
838 1761
838 1770
838 1791
838 1821
838 1822
838 1833
838 1845
838 1929
838 1959
838 1971
838 1972
838 1994
838 2046
838 2066
838 2105
838 2125
838 2219
838 2221
838 2236
838 2291
838 2292
838 2316
838 2326
838 2414
838 2418
838 2430
838 2438
838 2460
838 2492
838 2551
838 2604
838 2620
838 2640
838 2664
838 2745
838 2751
838 2787
838 2791
838 2805
838 2849
838 2856
838 2901
838 2944
838 3021
838 3023
838 3029
838 3047
838 3070
838 3075
838 3092
838 3121
838 3139
838 3147
838 3169
838 3180
838 3243
838 3245
838 3253
838 3272
838 3296
838 3349
838 3366
838 3386
838 3395
838 3466
838 3477
838 3534
838 3540
838 3553
838 3558
838 3592
838 3605
838 3611
838 3617
838 3629
838 3635
838 3675
838 3689
839 897
839 912
839 1022
839 1031
839 1127
839 1137
839 1151
839 1169
839 1186
839 1195
839 1299
839 1403
839 1492
839 1501
839 1570
839 1613
839 1618
839 1756
839 1775
839 1863
839 1875
839 1902
839 1992
839 2015
839 2095
839 2146
839 2210
839 2369
839 2461
839 2474
839 2568
839 2680
839 2683
839 2797
839 2808
839 2956
839 2975
839 3121
839 3129
839 3223
839 3278
839 3288
839 3310
839 3317
839 3461
839 3476
839 3521
839 3575
839 3589
839 3603
839 3628
839 3639
839 3675
839 3702
839 3717
839 3737
840 953
840 1043
840 1062
840 1111
840 1186
840 1195
840 1228
840 1267
840 1382
840 1417
840 1453
840 1465
840 1524
840 1559
840 1644
840 1693
840 1885
840 1930
840 1971
840 2031
840 2111
840 2115
840 2168
840 2206
840 2222
840 2251
840 2270
840 2295
840 2358
840 2394
840 2492
840 2493
840 2505
840 2508
840 2547
840 2566
840 2633
840 2649
840 2943
840 2985
840 3013
840 3116
840 3153
840 3227
840 3245
840 3308
840 3382
840 3386
840 3396
840 3462
840 3675
841 894
841 899
841 939
841 953
841 1004
841 1133
841 1152
841 1245
841 1340
841 1425
841 1434
841 1472
841 1489
841 1543
841 1578
841 1641
841 1649
841 1714
841 1733
841 1748
841 1777
841 1852
841 1870
841 1985
841 2115
841 2204
841 2237
841 2272
841 2355
841 2367
841 2395
841 2411
841 2503
841 2515
841 2588
841 2751
841 2766
841 2780
841 2792
841 2855
841 2877
841 2940
841 2948
841 2967
841 2988
841 3091
841 3122
841 3169
841 3257
841 3322
841 3355
841 3371
841 3482
841 3484
841 3504
841 3544
841 3560
841 3583
841 3637
841 3650
841 3671
841 3718
842 901
842 931
842 946
842 965
842 1003
842 1014
842 1036
842 1207
842 1335
842 1389
842 1415
842 1519
842 1664
842 1686
842 1742
842 1837
842 1859
842 1996
842 2015
842 2159
842 2179
842 2197
842 2219
842 2236
842 2282
842 2570
842 2638
842 2749
842 2763
842 2973
842 3115
842 3166
842 3234
842 3408
842 3446
842 3516
842 3601
842 3637
842 3645
842 3668
842 3686
843 849
843 1221
843 1744
843 2791
844 862
844 887
844 916
844 930
844 943
844 970
844 988
844 1022
844 1023
844 1037
844 1054
844 1072
844 1078
844 1087
844 1097
844 1104
844 1150
844 1304
844 1458
844 1475
844 1537
844 1546
844 1597
844 1625
844 1685
844 1688
844 1843
844 1912
844 1956
844 1967
844 2042
844 2064
844 2094
844 2112
844 2114
844 2160
844 2176
844 2225
844 2329
844 2369
844 2390
844 2432
844 2469
844 2495
844 2521
844 2554
844 2601
844 2636
844 2677
844 2710
844 2737
844 2755
844 2810
844 2821
844 2895
844 3000
844 3007
844 3021
844 3086
844 3093
844 3105
844 3129
844 3138
844 3152
844 3178
844 3183
844 3224
844 3248
844 3274
844 3316
844 3332
844 3399
844 3430
844 3450
844 3465
844 3466
844 3597
844 3624
844 3638
844 3640
844 3736
844 3744
845 1228
845 1231
845 1464
845 1670
845 1744
845 2222
845 2460
845 2463
845 2626
845 2734
845 2788
845 2974
845 3249
845 3453
845 3573
845 3680
845 3685
846 1013
846 1076
846 1321
846 1689
846 2579
846 3287
846 3353
846 3374
846 3712
847 899
847 1465
847 2339
847 2517
847 2648
847 2665
847 2699
847 3578
847 3642
848 1034
848 1110
848 1186
848 1288
848 1324
848 1490
848 1665
848 1691
848 1785
848 1857
848 1972
848 2010
848 2240
848 2676
848 2848
848 3261
848 3604
848 3674
849 877
849 881
849 923
849 962
849 967
849 1034
849 1053
849 1125
849 1321
849 1358
849 1377
849 1381
849 1451
849 1497
849 1660
849 1783
849 1801
849 1814
849 1870
849 1890
849 1941
849 2034
849 2130
849 2138
849 2147
849 2299
849 2308
849 2400
849 2416
849 2445
849 2455
849 2474
849 2557
849 2791
849 2809
849 2964
849 3021
849 3136
849 3138
849 3301
849 3309
849 3399
849 3455
849 3575
849 3595
849 3721
849 3734
849 3745
850 906
850 911
850 919
850 1017
850 1108
850 1197
850 1486
850 1674
850 1870
850 1908
850 2002
850 2014
850 2187
850 2238
850 2372
850 2376
850 2549
850 2600
850 2716
850 2967
850 2972
850 3007
850 3626
850 3670
850 3677
851 931
851 1054
851 1604
851 1706
851 1893
851 2687
851 3686
852 1346
853 1421
853 1611
853 1834
853 1837
853 1875
853 1988
853 2015
853 2467
853 2573
853 2760
853 2790
853 2973
854 1413
854 1666
854 1740
854 2440
854 2511
854 3537
854 3709
854 3746
855 1223
855 2370
855 2503
855 2948
855 3500
855 3686
856 1091
856 1327
856 1444
856 1493
856 1544
856 1773
856 1797
856 1837
856 1893
856 2474
856 2680
856 2720
856 2973
856 2987
856 3016
856 3132
856 3303
856 3424
856 3528
856 3586
856 3703
856 3717
857 896
857 915
857 967
857 1168
857 1283
857 1321
857 1333
857 1471
857 1554
857 1912
857 1970
857 1992
857 2003
857 2094
857 2223
857 2324
857 2515
857 2533
857 2745
857 2751
857 2889
857 2908
857 3068
857 3071
857 3136
857 3183
857 3230
857 3259
857 3272
857 3349
857 3430
857 3466
857 3520
858 883
858 947
858 1002
858 1050
858 1065
858 1120
858 1163
858 1167
858 1195
858 1326
858 1377
858 1386
858 1459
858 1465
858 1469
858 1480
858 1485
858 1554
858 1616
858 1654
858 1655
858 1667
858 1699
858 1721
858 1748
858 1750
858 1862
858 1898
858 1925
858 1931
858 1984
858 2075
858 2081
858 2121
858 2186
858 2194
858 2217
858 2378
858 2387
858 2506
858 2520
858 2696
858 2713
858 2805
858 2815
858 2830
858 2880
858 2981
858 3018
858 3029
858 3037
858 3055
858 3070
858 3096
858 3108
858 3110
858 3131
858 3227
858 3234
858 3251
858 3306
858 3416
858 3465
858 3496
858 3562
858 3596
858 3603
858 3718
858 3719
858 3737
859 942
859 965
859 1004
859 1062
859 1156
859 1179
859 1221
859 1262
859 1299
859 1323
859 1339
859 1341
859 1469
859 1482
859 1541
859 1640
859 1648
859 1659
859 1747
859 1845
859 1948
859 1996
859 2035
859 2053
859 2055
859 2074
859 2090
859 2095
859 2129
859 2151
859 2177
859 2299
859 2314
859 2460
859 2509
859 2583
859 2760
859 2787
859 2790
859 2878
859 2969
859 2989
859 3028
859 3059
859 3119
859 3133
859 3234
859 3268
859 3316
859 3359
859 3423
859 3463
859 3499
859 3521
859 3535
859 3573
859 3575
859 3598
859 3630
859 3696
859 3729
860 3137
861 968
861 1116
861 1121
861 1164
861 1250
861 1338
861 1589
861 1833
861 1918
861 1972
861 2125
861 2492
861 2507
861 2640
861 2804
861 2980
861 3047
861 3180
861 3245
861 3312
861 3366
861 3386
861 3466
861 3580
861 3635
862 916
862 930
862 943
862 1051
862 1078
862 1097
862 1330
862 1597
862 1800
862 1998
862 2114
862 2511
862 2601
862 2755
862 2859
862 2986
862 3021
862 3450
862 3597
863 1891
863 2338
864 921
864 1075
864 1129
864 1285
864 1365
864 1366
864 1390
864 1465
864 1517
864 1549
864 1569
864 1681
864 1838
864 1959
864 2102
864 2190
864 2265
864 2287
864 2295
864 2455
864 2514
864 2647
864 2649
864 2906
864 2944
864 3097
864 3121
864 3153
864 3191
864 3210
864 3220
864 3336
864 3395
864 3519
864 3547
864 3675
864 3689
864 3735
865 1222
865 1225
865 1296
865 1339
865 1501
865 1659
865 2141
865 2232
865 2575
865 2743
865 2860
865 3507
865 3729
866 1151
866 1738
866 2232
866 2238
866 2807
866 2810
866 3095
866 3741
867 892
867 987
867 1306
867 1381
867 1661
867 1731
867 2098
867 2201
867 2392
867 2557
867 2631
867 2681
867 2831
867 3144
867 3204
867 3344
867 3385
867 3418
867 3514
868 880
868 1093
868 1681
868 3376
868 3527
868 3678
869 938
869 950
869 1169
869 1236
869 1399
869 1515
869 1820
869 2724
869 2834
869 3081
869 3175
869 3657
870 1585
870 2449
870 2679
870 3524
870 3738
871 1486
871 2014
871 2677
871 3546
872 958
872 1235
872 1259
872 1295
872 1565
872 1692
872 1873
872 1890
872 1893
872 1905
872 2238
872 2396
872 2443
872 2921
872 3044
872 3254
872 3603
873 891
873 902
873 1020
873 1469
873 2098
873 2174
873 2201
873 2293
873 2323
873 2648
873 2650
873 2666
873 2881
873 2902
873 3006
873 3128
873 3265
873 3392
873 3404
873 3640
874 906
874 942
874 1343
874 1373
874 1780
874 1908
874 1923
874 2009
874 2013
874 2045
874 2520
874 2522
874 2567
874 2935
874 3050
874 3181
874 3407
874 3514
874 3670
875 906
875 1171
875 1223
875 1415
875 1543
875 1586
875 1598
875 1617
875 1829
875 1847
875 1884
875 1908
875 1948
875 1996
875 2006
875 2009
875 2013
875 2035
875 2045
875 2165
875 2245
875 2288
875 2406
875 2498
875 2520
875 2522
875 2543
875 2567
875 2640
875 2695
875 2812
875 2831
875 2877
875 2948
875 3087
875 3144
875 3181
875 3279
875 3305
875 3311
875 3358
875 3360
875 3418
875 3442
875 3543
875 3686
875 3739
876 999
876 1158
876 1167
876 1242
876 1401
876 1460
876 1596
876 1695
876 1903
876 2034
876 2113
876 2168
876 2421
876 2819
876 2923
876 2947
876 3010
876 3092
876 3234
876 3240
876 3339
876 3442
876 3601
876 3649
876 3686
876 3716
876 3746
877 887
877 916
877 960
877 980
877 988
877 1020
877 1023
877 1043
877 1051
877 1065
877 1072
877 1098
877 1116
877 1288
877 1321
877 1333
877 1377
877 1458
877 1475
877 1497
877 1501
877 1521
877 1533
877 1537
877 1546
877 1567
877 1571
877 1597
877 1599
877 1674
877 1725
877 1762
877 1784
877 1788
877 1902
877 1912
877 1926
877 1941
877 2064
877 2068
877 2128
877 2138
877 2148
877 2168
877 2218
877 2254
877 2353
877 2397
877 2508
877 2538
877 2601
877 2636
877 2690
877 2698
877 2710
877 2745
877 2755
877 2763
877 2842
877 2866
877 2895
877 3000
877 3021
877 3029
877 3096
877 3138
877 3149
877 3158
877 3161
877 3191
877 3203
877 3224
877 3227
877 3230
877 3240
877 3301
877 3332
877 3349
877 3370
877 3399
877 3430
877 3595
877 3599
877 3630
877 3718
878 1081
878 1209
878 1272
878 1406
878 1481
878 1507
878 1869
878 1931
878 2059
878 2152
878 2299
878 2400
878 2534
878 2581
878 2616
878 2632
878 2877
878 2966
878 3123
878 3160
878 3183
878 3232
878 3330
878 3520
878 3568
878 3655
878 3714
879 908
879 978
879 1037
879 1096
879 1268
879 1360
879 1528
879 1531
879 1585
879 1599
879 1685
879 1814
879 1863
879 1867
879 2034
879 2050
879 2059
879 2128
879 2235
879 2325
879 2330
879 2359
879 2617
879 2697
879 2708
879 2710
879 2752
879 2858
879 3000
879 3115
879 3173
879 3193
879 3203
879 3212
879 3224
879 3277
879 3297
879 3339
879 3373
879 3449
879 3473
879 3595
880 1003
880 1009
880 1093
880 1171
880 1220
880 1372
880 1421
880 1485
880 1509
880 1653
880 1702
880 1744
880 1795
880 2017
880 2048
880 2092
880 2161
880 2252
880 2271
880 2295
880 2456
880 2646
880 2674
880 2725
880 2805
880 2810
880 2835
880 2864
880 2926
880 2934
880 2935
880 3369
880 3375
880 3419
880 3678
881 1355
881 1356
881 1457
881 1606
881 1655
881 2147
881 2809
881 3189
881 3417
881 3594
882 2201
882 2648
883 967
883 1002
883 1050
883 1065
883 1121
883 1129
883 1141
883 1167
883 1321
883 1377
883 1453
883 1465
883 1480
883 1510
883 1567
883 1616
883 1681
883 1723
883 1754
883 1788
883 1896
883 1898
883 1924
883 1929
883 1972
883 2020
883 2125
883 2265
883 2378
883 2397
883 2404
883 2430
883 2512
883 2551
883 2696
883 2730
883 2745
883 2766
883 2791
883 2804
883 2960
883 3029
883 3096
883 3108
883 3131
883 3164
883 3227
883 3306
883 3323
883 3386
883 3466
883 3562
883 3689
883 3717
883 3737
884 885
884 930
884 1057
884 1105
884 1199
884 1294
884 1319
884 1367
884 1484
884 1500
884 1526
884 1576
884 1602
884 1667
884 1706
884 1849
884 1900
884 1961
884 1974
884 2022
884 2076
884 2078
884 2081
884 2114
884 2300
884 2341
884 2354
884 2396
884 2431
884 2452
884 2480
884 2550
884 2709
884 2724
884 2786
884 2789
884 2798
884 2825
884 2899
884 2975
884 3008
884 3021
884 3081
884 3088
884 3093
884 3197
884 3222
884 3248
884 3325
884 3357
884 3388
884 3431
884 3487
884 3562
884 3566
884 3567
884 3597
884 3688
884 3697
884 3731
885 930
885 1134
885 1399
885 1429
885 1468
885 1605
885 1662
885 2110
885 2247
885 2323
885 2341
885 2372
885 2415
885 2433
885 2637
885 3081
885 3082
885 3104
885 3487
885 3633
886 1082
886 1111
886 1198
886 1315
886 1427
886 1459
886 1477
886 1655
886 1773
886 1783
886 1855
886 1868
886 2146
886 2400
886 2507
886 2508
886 2597
886 2814
886 2882
886 2891
886 2962
886 3057
886 3167
886 3194
886 3211
886 3261
886 3528
886 3716
887 916
887 960
887 988
887 1022
887 1023
887 1072
887 1097
887 1098
887 1227
887 1458
887 1475
887 1537
887 1546
887 1568
887 1597
887 1688
887 1729
887 1825
887 1912
887 1956
887 1967
887 2001
887 2034
887 2042
887 2064
887 2068
887 2094
887 2104
887 2112
887 2138
887 2329
887 2369
887 2390
887 2395
887 2423
887 2469
887 2521
887 2601
887 2636
887 2710
887 2755
887 2821
887 2842
887 2859
887 2895
887 2941
887 3007
887 3021
887 3086
887 3129
887 3138
887 3178
887 3183
887 3258
887 3274
887 3316
887 3332
887 3339
887 3399
887 3430
887 3450
887 3465
887 3510
887 3597
887 3638
887 3640
887 3736
888 1725
888 1756
888 2557
889 926
889 1136
889 1180
889 1448
889 1459
889 1903
889 2308
889 2728
889 2944
889 3125
889 3291
889 3433
889 3605
890 944
890 953
890 1129
890 1141
890 1298
890 1352
890 1359
890 1366
890 1450
890 1457
890 1465
890 1549
890 1569
890 1578
890 1596
890 1664
890 1870
890 2024
890 2188
890 2199
890 2271
890 2287
890 2295
890 2452
890 2455
890 2566
890 2608
890 2648
890 2656
890 2780
890 2944
890 3153
890 3301
890 3308
890 3312
890 3325
890 3415
890 3639
890 3689
891 902
891 921
891 929
891 949
891 967
891 1101
891 1102
891 1137
891 1159
891 1285
891 1296
891 1365
891 1465
891 1482
891 1485
891 1509
891 1518
891 1549
891 1565
891 1569
891 1594
891 1626
891 1681
891 1875
891 1892
891 1906
891 1940
891 1987
891 2009
891 2165
891 2250
891 2293
891 2323
891 2422
891 2447
891 2455
891 2482
891 2549
891 2603
891 2605
891 2624
891 2647
891 2649
891 2661
891 2693
891 2817
891 2881
891 2907
891 2935
891 2999
891 3006
891 3065
891 3079
891 3142
891 3151
891 3153
891 3172
891 3184
891 3191
891 3192
891 3336
891 3368
891 3376
891 3392
891 3536
891 3603
891 3669
891 3702
892 940
892 967
892 988
892 1049
892 1082
892 1105
892 1135
892 1228
892 1235
892 1299
892 1356
892 1357
892 1358
892 1368
892 1444
892 1457
892 1567
892 1568
892 1593
892 1606
892 1681
892 1690
892 1701
892 1717
892 1725
892 1744
892 1751
892 1772
892 1811
892 1817
892 1837
892 1869
892 2022
892 2040
892 2137
892 2139
892 2141
892 2152
892 2156
892 2170
892 2174
892 2221
892 2238
892 2253
892 2316
892 2333
892 2356
892 2360
892 2372
892 2392
892 2400
892 2406
892 2408
892 2543
892 2617
892 2656
892 2706
892 2710
892 2771
892 2772
892 2781
892 2809
892 2822
892 2829
892 2830
892 2912
892 2917
892 2966
892 2973
892 2998
892 3012
892 3022
892 3075
892 3084
892 3094
892 3098
892 3110
892 3148
892 3166
892 3167
892 3226
892 3312
892 3320
892 3324
892 3349
892 3359
892 3360
892 3380
892 3413
892 3449
892 3551
892 3696
892 3721
892 3742
892 3746
893 1905
893 3202
893 3696
894 899
894 933
894 937
894 1133
894 1215
894 1355
894 1472
894 1543
894 1649
894 1714
894 1748
894 1786
894 1852
894 1908
894 1966
894 2298
894 2367
894 2388
894 2479
894 2594
894 2792
894 2855
894 2874
894 2958
894 2988
894 3017
894 3072
894 3504
894 3560
894 3578
894 3583
894 3643
894 3649
894 3650
894 3722
895 901
895 1026
895 1075
895 1114
895 1276
895 1322
895 1465
895 1618
895 2201
895 2262
895 2384
895 2412
895 2430
895 2477
895 2554
895 2559
895 2804
895 2867
895 2985
895 3021
895 3110
895 3367
895 3404
895 3531
895 3601
895 3635
895 3659
895 3717
896 934
896 967
896 1020
896 1027
896 1049
896 1057
896 1087
896 1096
896 1130
896 1168
896 1195
896 1225
896 1272
896 1275
896 1281
896 1320
896 1321
896 1331
896 1408
896 1440
896 1471
896 1508
896 1517
896 1522
896 1557
896 1568
896 1598
896 1631
896 1703
896 1879
896 1925
896 1996
896 2034
896 2040
896 2046
896 2113
896 2132
896 2189
896 2219
896 2229
896 2299
896 2300
896 2323
896 2474
896 2522
896 2553
896 2554
896 2570
896 2571
896 2583
896 2620
896 2664
896 2696
896 2703
896 2723
896 2741
896 2745
896 2791
896 2808
896 2830
896 2838
896 2907
896 2908
896 2944
896 2960
896 2981
896 3059
896 3068
896 3075
896 3083
896 3096
896 3098
896 3136
896 3171
896 3183
896 3224
896 3227
896 3242
896 3332
896 3349
896 3364
896 3373
896 3424
896 3445
896 3449
896 3466
896 3478
896 3510
896 3575
896 3578
896 3585
896 3601
896 3611
896 3629
896 3638
896 3687
896 3706
896 3712
896 3721
896 3734
897 955
897 968
897 1003
897 1073
897 1109
897 1120
897 1137
897 1156
897 1224
897 1275
897 1288
897 1296
897 1372
897 1416
897 1469
897 1485
897 1487
897 1489
897 1491
897 1501
897 1505
897 1518
897 1522
897 1523
897 1600
897 1613
897 1648
897 1653
897 1656
897 1674
897 1681
897 1719
897 1734
897 1742
897 1756
897 1795
897 1816
897 1844
897 1854
897 1863
897 1876
897 1916
897 1925
897 1943
897 1972
897 1978
897 1994
897 1996
897 2007
897 2009
897 2012
897 2040
897 2144
897 2206
897 2210
897 2213
897 2252
897 2271
897 2295
897 2337
897 2413
897 2416
897 2445
897 2452
897 2456
897 2474
897 2521
897 2548
897 2564
897 2622
897 2646
897 2683
897 2703
897 2705
897 2725
897 2751
897 2752
897 2756
897 2808
897 2835
897 2848
897 2850
897 2861
897 2878
897 2907
897 2920
897 2935
897 2937
897 2944
897 2956
897 3030
897 3038
897 3046
897 3075
897 3093
897 3101
897 3121
897 3137
897 3145
897 3207
897 3220
897 3242
897 3243
897 3296
897 3364
897 3369
897 3375
897 3426
897 3468
897 3521
897 3536
897 3544
897 3572
897 3584
897 3598
897 3620
897 3639
897 3656
897 3674
897 3675
897 3676
897 3682
897 3688
897 3690
897 3691
897 3721
898 973
898 988
898 1134
898 1198
898 1207
898 1209
898 1288
898 1320
898 1422
898 1450
898 1452
898 1661
898 1687
898 1705
898 1971
898 2025
898 2038
898 2210
898 2236
898 2358
898 2374
898 2455
898 2638
898 2648
898 2763
898 2856
898 2858
898 2877
898 2884
898 2940
898 2962
898 2973
898 2985
898 3002
898 3015
898 3115
898 3234
898 3260
898 3343
898 3585
898 3729
899 906
899 916
899 925
899 955
899 988
899 1022
899 1042
899 1043
899 1153
899 1157
899 1245
899 1340
899 1501
899 1543
899 1714
899 1725
899 1733
899 1761
899 1777
899 1799
899 1819
899 1821
899 1908
899 1955
899 1995
899 2042
899 2052
899 2060
899 2116
899 2211
899 2369
899 2416
899 2424
899 2469
899 2503
899 2517
899 2519
899 2528
899 2626
899 2699
899 2792
899 2845
899 2861
899 2888
899 2940
899 2947
899 2956
899 2999
899 3072
899 3094
899 3178
899 3207
899 3257
899 3264
899 3284
899 3334
899 3339
899 3356
899 3435
899 3466
899 3482
899 3484
899 3504
899 3510
899 3513
899 3517
899 3572
899 3578
899 3642
899 3649
899 3650
899 3709
899 3736
900 1236
900 1756
900 2019
901 902
901 934
901 946
901 951
901 1004
901 1014
901 1045
901 1056
901 1114
901 1138
901 1156
901 1209
901 1229
901 1276
901 1290
901 1321
901 1329
901 1518
901 1619
901 1630
901 1645
901 1651
901 1736
901 1742
901 1756
901 1761
901 1797
901 1870
901 1892
901 1920
901 1940
901 1996
901 2067
901 2090
901 2135
901 2142
901 2144
901 2152
901 2174
901 2197
901 2201
901 2213
901 2242
901 2246
901 2287
901 2323
901 2337
901 2409
901 2474
901 2534
901 2624
901 2625
901 2648
901 2668
901 2688
901 2713
901 2738
901 2749
901 2808
901 2828
901 2867
901 2942
901 2946
901 2978
901 3065
901 3112
901 3160
901 3167
901 3227
901 3228
901 3408
901 3446
901 3531
901 3538
901 3588
901 3601
901 3637
901 3645
901 3654
901 3698
901 3718
902 929
902 949
902 1061
902 1068
902 1162
902 1175
902 1238
902 1351
902 1713
902 1725
902 1892
902 1906
902 1932
902 1940
902 2039
902 2122
902 2204
902 2293
902 2323
902 2447
902 2452
902 2482
902 2542
902 2552
902 2585
902 2614
902 2624
902 2661
902 2712
902 2817
902 2881
902 2902
902 2910
902 3006
902 3142
902 3151
902 3162
902 3192
902 3307
902 3392
902 3396
902 3429
902 3516
902 3530
902 3541
902 3548
902 3569
902 3606
902 3649
902 3697
902 3702
903 965
903 1008
903 1073
903 1100
903 1110
903 1114
903 1116
903 1127
903 1137
903 1174
903 1195
903 1321
903 1322
903 1371
903 1453
903 1565
903 1704
903 1713
903 1848
903 1972
903 2016
903 2133
903 2372
903 2429
903 2501
903 2507
903 2533
903 2553
903 2602
903 2619
903 2622
903 2699
903 2721
903 2745
903 2808
903 2850
903 2869
903 2907
903 2916
903 2944
903 2980
903 3097
903 3101
903 3121
903 3125
903 3259
903 3437
903 3450
903 3476
903 3540
903 3578
903 3603
903 3613
903 3639
903 3675
903 3702
903 3705
904 1543
904 2204
904 2298
904 2612
904 2919
905 1013
905 1019
905 1233
905 1247
905 1476
905 1638
905 1699
905 1974
905 2437
905 2489
905 2572
905 2677
905 2754
905 2825
905 2894
905 3104
905 3233
905 3287
905 3298
905 3391
905 3434
905 3554
906 925
906 933
906 955
906 1017
906 1144
906 1156
906 1228
906 1236
906 1292
906 1340
906 1343
906 1428
906 1465
906 1469
906 1543
906 1565
906 1657
906 1710
906 1714
906 1733
906 1780
906 1810
906 1828
906 1884
906 1908
906 2009
906 2013
906 2035
906 2046
906 2052
906 2197
906 2310
906 2419
906 2424
906 2503
906 2517
906 2520
906 2522
906 2528
906 2567
906 2626
906 2684
906 2699
906 2792
906 2818
906 2845
906 2877
906 2884
906 2956
906 3050
906 3094
906 3107
906 3111
906 3112
906 3117
906 3345
906 3356
906 3407
906 3424
906 3504
906 3514
906 3517
906 3546
906 3572
906 3578
906 3650
906 3709
906 3736
907 1005
907 1021
907 1082
907 1737
907 1816
907 1828
907 1841
907 1893
907 2002
907 2159
907 2574
907 2605
907 2773
907 2781
907 2822
907 2890
907 2911
907 2914
907 2956
907 2957
907 2979
907 3095
907 3120
907 3140
907 3150
907 3278
907 3456
907 3548
907 3710
908 1198
908 1792
908 1922
908 1986
908 2050
908 2240
908 2475
908 2751
908 2919
908 2935
908 2970
908 3219
908 3253
908 3277
908 3310
908 3330
908 3490
908 3625
909 1064
909 1085
909 1118
909 1298
909 1322
909 1417
909 1460
909 1596
909 1902
909 2041
909 2052
909 2111
909 2174
909 2219
909 2235
909 2262
909 2311
909 2319
909 2327
909 2412
909 2688
909 2804
909 3010
909 3066
910 1215
910 1840
910 2088
910 2715
910 3039
911 1056
911 1104
911 1226
911 1479
911 1486
911 1565
911 1779
911 1875
911 1928
911 1969
911 2025
911 2217
911 2440
911 2464
911 2474
911 2549
911 2554
911 2660
911 2737
911 2770
911 2838
911 2981
911 3083
911 3212
911 3461
911 3677
911 3691
912 1009
912 1038
912 1127
912 1134
912 1137
912 1141
912 1206
912 1218
912 1299
912 1350
912 1402
912 1403
912 1428
912 1469
912 1509
912 1543
912 1570
912 1613
912 1634
912 1806
912 1826
912 1850
912 1870
912 2075
912 2129
912 2224
912 2288
912 2320
912 2347
912 2364
912 2408
912 2478
912 2568
912 2570
912 2605
912 2622
912 2653
912 2680
912 2693
912 2749
912 2817
912 2836
912 2869
912 2960
912 2980
912 3000
912 3009
912 3078
912 3098
912 3110
912 3120
912 3223
912 3270
912 3293
912 3296
912 3389
912 3440
912 3456
912 3497
912 3661
912 3669
912 3702
912 3711
913 1247
913 1294
913 1399
913 2082
913 2724
913 3283
913 3326
913 3363
913 3365
913 3686
914 1101
914 1942
914 2051
914 2250
914 2912
914 3536
915 947
915 1283
915 1992
915 2003
915 2223
915 2443
915 2531
915 2908
915 2967
915 2970
916 943
916 960
916 970
916 980
916 988
916 1020
916 1022
916 1023
916 1037
916 1043
916 1051
916 1072
916 1085
916 1087
916 1097
916 1104
916 1117
916 1132
916 1149
916 1157
916 1222
916 1334
916 1341
916 1416
916 1458
916 1475
916 1501
916 1537
916 1565
916 1568
916 1583
916 1597
916 1619
916 1660
916 1688
916 1724
916 1729
916 1768
916 1799
916 1801
916 1805
916 1814
916 1822
916 1825
916 1843
916 1863
916 1864
916 1879
916 1912
916 1956
916 1964
916 1969
916 1971
916 1981
916 2001
916 2014
916 2034
916 2038
916 2052
916 2064
916 2066
916 2068
916 2076
916 2094
916 2104
916 2112
916 2114
916 2168
916 2176
916 2182
916 2225
916 2229
916 2265
916 2289
916 2290
916 2329
916 2345
916 2369
916 2390
916 2423
916 2432
916 2469
916 2474
916 2478
916 2507
916 2510
916 2517
916 2521
916 2528
916 2582
916 2601
916 2617
916 2633
916 2636
916 2659
916 2665
916 2699
916 2710
916 2727
916 2752
916 2755
916 2804
916 2808
916 2821
916 2827
916 2842
916 2845
916 2859
916 2861
916 2895
916 2920
916 2942
916 2956
916 2973
916 2981
916 2986
916 3000
916 3007
916 3021
916 3075
916 3086
916 3094
916 3103
916 3118
916 3120
916 3129
916 3138
916 3145
916 3152
916 3161
916 3178
916 3183
916 3193
916 3207
916 3224
916 3234
916 3244
916 3248
916 3258
916 3272
916 3274
916 3316
916 3323
916 3332
916 3339
916 3370
916 3386
916 3399
916 3417
916 3430
916 3450
916 3465
916 3466
916 3482
916 3510
916 3513
916 3534
916 3578
916 3585
916 3597
916 3624
916 3626
916 3640
916 3641
916 3661
916 3683
916 3736
917 934
917 1002
917 1228
917 1325
917 1360
917 1459
917 1573
917 1588
917 1593
917 1780
917 1908
917 1948
917 2333
917 2381
917 2412
917 2498
917 2513
917 2567
917 2586
917 2648
917 2710
917 2791
917 2818
917 2877
917 3010
917 3087
917 3111
917 3179
917 3514
918 1130
918 1217
918 1547
918 1856
918 1935
918 3176
918 3431
918 3649
919 1017
919 1197
919 1486
919 2014
919 2967
919 3670
920 1491
921 953
921 967
921 1002
921 1062
921 1075
921 1129
921 1285
921 1298
921 1365
921 1390
921 1465
921 1510
921 1517
921 1518
921 1549
921 1569
921 1681
921 1838
921 1886
921 1918
921 1987
921 2080
921 2184
921 2295
921 2326
921 2428
921 2455
921 2559
921 2605
921 2607
921 2620
921 2647
921 2649
921 2741
921 2877
921 2944
921 2947
921 2959
921 2999
921 3059
921 3087
921 3153
921 3191
921 3227
921 3245
921 3336
921 3489
921 3518
921 3547
921 3616
921 3715
921 3735
922 1035
922 1335
922 1347
922 1415
922 1494
922 1530
922 1593
922 1725
922 1901
922 2250
922 2295
922 2325
922 2454
922 2480
922 2515
922 2666
922 2899
922 2949
922 3119
922 3138
922 3168
922 3339
922 3382
922 3406
922 3452
923 933
923 1133
923 1159
923 1372
923 1434
923 1469
923 1472
923 1543
923 1714
923 2024
923 2142
923 2188
923 2243
923 2367
923 2370
923 2438
923 2583
923 2666
923 2717
923 2792
923 2940
923 3089
923 3257
923 3343
923 3385
923 3452
923 3484
923 3522
923 3543
923 3585
923 3649
924 1295
924 1577
924 1682
924 2015
924 2035
924 2084
924 2498
924 2790
924 2812
924 3265
925 1117
925 1139
925 1146
925 1245
925 1260
925 1340
925 1383
925 1444
925 1469
925 1470
925 1543
925 1548
925 1714
925 1733
925 1777
925 1866
925 1897
925 1908
925 1995
925 2052
925 2056
925 2187
925 2372
925 2388
925 2416
925 2424
925 2493
925 2528
925 2626
925 2699
925 2792
925 2940
925 2988
925 3037
925 3055
925 3072
925 3264
925 3329
925 3339
925 3355
925 3356
925 3482
925 3504
925 3513
925 3517
925 3565
925 3598
925 3605
925 3649
925 3650
925 3736
926 976
926 1178
926 1533
926 1691
926 1725
926 1762
926 1768
926 1831
926 1838
926 1918
926 1970
926 2057
926 2138
926 2530
926 2557
926 2677
926 2804
926 3171
926 3272
926 3276
926 3313
926 3433
926 3605
927 1321
927 1925
927 2001
927 2474
927 2677
927 2827
927 2838
927 2973
927 3083
928 950
928 1413
928 1420
928 1628
928 2019
928 2411
928 2472
928 2834
928 2944
928 3537
928 3546
929 944
929 949
929 1141
929 1162
929 1228
929 1325
929 1360
929 1459
929 1573
929 1588
929 1665
929 1892
929 1906
929 1940
929 2323
929 2447
929 2593
929 2648
929 2851
929 2881
929 3151
929 3392
929 3514
930 943
930 1051
930 1054
930 1078
930 1104
930 1236
930 1330
930 1432
930 1582
930 1597
930 1613
930 1622
930 1708
930 1946
930 1967
930 1969
930 1983
930 1998
930 2114
930 2217
930 2270
930 2341
930 2433
930 2440
930 2464
930 2511
930 2539
930 2601
930 2660
930 2731
930 2737
930 2859
930 2875
930 2986
930 3021
930 3031
930 3081
930 3082
930 3129
930 3178
930 3224
930 3248
930 3286
930 3387
930 3450
930 3465
930 3481
930 3561
930 3597
931 965
931 1054
931 1266
931 1519
931 1742
931 1893
931 1992
931 1996
931 2009
931 2159
931 2179
931 2237
931 2356
931 2869
931 2973
931 3166
931 3392
931 3446
931 3637
931 3645
931 3668
931 3683
931 3684
931 3686
931 3710
932 1236
932 1525
932 2231
932 2651
932 2965
933 1372
933 1385
933 1469
933 1714
933 1780
933 1786
933 1908
933 1923
933 2009
933 2013
933 2520
933 2522
933 2693
933 2763
933 3017
933 3111
933 3407
933 3514
934 1228
934 1321
934 1325
934 1326
934 1341
934 1360
934 1459
934 1573
934 1593
934 1625
934 1631
934 1780
934 1797
934 1867
934 1984
934 2151
934 2177
934 2219
934 2313
934 2381
934 2415
934 2421
934 2648
934 2763
934 2791
934 2877
934 3111
934 3234
934 3260
934 3334
934 3514
934 3530
934 3599
935 984
935 988
935 1193
935 1364
935 1485
935 1744
935 1796
935 1816
935 1960
935 2158
935 2166
935 2282
935 2288
935 2368
935 2399
935 2408
935 2424
935 2479
935 2493
935 2522
935 2525
935 2555
935 2615
935 2620
935 2658
935 2687
935 2773
935 2789
935 2809
935 3007
935 3012
935 3095
935 3102
935 3106
935 3110
935 3112
935 3120
935 3234
935 3265
935 3278
935 3510
935 3537
935 3569
935 3682
935 3688
935 3721
935 3746
936 1010
936 1206
936 1284
936 1444
936 1768
936 2104
936 2392
936 2621
936 3073
936 3148
936 3193
936 3196
936 3212
936 3225
936 3316
936 3478
936 3538
936 3705
937 1649
937 1786
937 1887
937 2855
937 2958
937 3017
938 1353
938 1455
938 1456
938 1796
938 1894
938 3657
939 1085
939 1091
939 1141
939 1149
939 1189
939 1235
939 1275
939 1318
939 1404
939 1434
939 1532
939 1797
939 1809
939 1893
939 1959
939 1981
939 1985
939 2004
939 2071
939 2084
939 2148
939 2164
939 2176
939 2189
939 2238
939 2246
939 2308
939 2309
939 2337
939 2389
939 2445
939 2481
939 2495
939 2625
939 2649
939 2808
939 2839
939 3101
939 3107
939 3124
939 3205
939 3364
939 3426
939 3522
939 3535
939 3640
939 3703
940 988
940 1356
940 1606
940 1731
940 1913
940 1914
940 2066
940 2116
940 2140
940 2156
940 2234
940 2360
940 2400
940 2809
940 2912
940 2972
940 3225
940 3226
940 3388
940 3449
940 3594
941 944
941 1062
941 1195
941 1366
941 1571
941 1598
941 1972
941 2287
941 2389
941 2455
941 2478
941 2668
941 2769
941 2775
941 2870
941 3292
941 3424
941 3462
941 3493
941 3518
941 3575
941 3675
941 3695
942 945
942 965
942 995
942 1236
942 1302
942 1323
942 1339
942 1343
942 1541
942 1623
942 1629
942 1640
942 1659
942 1771
942 1845
942 1859
942 1866
942 1894
942 1908
942 1923
942 2009
942 2013
942 2045
942 2151
942 2314
942 2567
942 2583
942 2760
942 2790
942 2823
942 2989
942 3050
942 3119
942 3305
942 3316
942 3318
942 3345
942 3514
942 3565
942 3630
942 3670
942 3696
942 3729
942 3732
943 955
943 988
943 1013
943 1022
943 1078
943 1204
943 1330
943 1546
943 1969
943 2042
943 2076
943 2114
943 2154
943 2217
943 2369
943 2452
943 2489
943 2511
943 2660
943 2731
943 2845
943 2859
943 2875
943 2986
943 3021
943 3086
943 3129
943 3178
943 3207
943 3248
943 3370
943 3470
943 3482
943 3513
943 3554
943 3571
943 3578
943 3597
943 3624
943 3709
944 1062
944 1284
944 1303
944 1366
944 1456
944 1641
944 1684
944 1700
944 1748
944 1793
944 1948
944 1952
944 2109
944 2177
944 2201
944 2222
944 2287
944 2350
944 2458
944 2501
944 2513
944 2593
944 2648
944 2769
944 2802
944 2877
944 2988
944 3006
944 3110
944 3122
944 3124
944 3127
944 3404
944 3435
944 3443
944 3475
944 3563
944 3641
944 3642
944 3685
944 3718
945 1629
945 1771
945 1859
945 2053
945 2314
945 3119
945 3133
945 3316
946 1014
946 1445
946 1756
946 2142
946 2174
946 2197
946 2367
946 3228
946 3645
946 3654
947 1002
947 1077
947 1163
947 1638
947 1667
947 1708
947 1721
947 1750
947 2081
947 2194
947 2217
947 2387
947 2437
947 2444
947 3018
947 3251
947 3287
947 3306
947 3667
948 1063
948 1082
948 1634
948 1662
948 2077
948 2247
948 2415
948 2754
948 3042
948 3062
948 3250
949 1068
949 1106
949 1162
949 1435
949 1614
949 1783
949 1892
949 1906
949 1940
949 1944
949 2132
949 2174
949 2208
949 2323
949 2447
949 2482
949 2497
949 2587
949 2780
949 2782
949 2839
949 2881
949 3010
949 3131
949 3151
949 3279
949 3307
949 3392
949 3404
949 3484
949 3606
949 3613
950 952
950 1063
950 1066
950 1077
950 1079
950 1086
950 1143
950 1233
950 1236
950 1247
950 1252
950 1297
950 1396
950 1431
950 1432
950 1446
950 1602
950 1662
950 1740
950 1820
950 1891
950 1949
950 1974
950 2019
950 2028
950 2053
950 2203
950 2260
950 2263
950 2279
950 2338
950 2341
950 2354
950 2405
950 2409
950 2431
950 2437
950 2440
950 2523
950 2529
950 2541
950 2634
950 2685
950 2709
950 2724
950 2759
950 2776
950 2789
950 3081
950 3088
950 3250
950 3275
950 3298
950 3331
950 3421
950 3464
950 3469
950 3470
950 3546
950 3554
950 3663
950 3697
950 3709
950 3712
951 1014
951 1173
951 1331
951 1357
951 1410
951 1619
951 1630
951 1748
951 1773
951 2135
951 2201
951 2242
951 2323
951 2666
951 2738
951 2749
951 2851
951 2852
951 2946
951 2963
951 3112
951 3376
951 3390
951 3404
951 3438
951 3637
951 3645
951 3718
951 3721
952 1054
952 1068
952 1079
952 1104
952 1236
952 1432
952 1446
952 1708
952 1815
952 1820
952 1949
952 2231
952 2440
952 2486
952 2511
952 2759
952 3081
952 3157
952 3255
952 3374
952 3464
952 3663
953 1062
953 1075
953 1087
953 1129
953 1288
953 1390
953 1417
953 1449
953 1465
953 1501
953 1549
953 1569
953 1693
953 1725
953 1838
953 1925
953 1971
953 1987
953 2119
953 2235
953 2372
953 2421
953 2452
953 2597
953 2649
953 2687
953 2780
953 2838
953 2879
953 2956
953 2999
953 3029
953 3070
953 3137
953 3153
953 3164
953 3171
953 3184
953 3191
953 3336
953 3405
953 3435
953 3534
953 3718
953 3745
954 1222
954 1336
954 1470
954 1526
954 1681
954 1754
954 1785
954 1825
954 1872
954 1961
954 2158
954 2371
954 2615
954 2672
954 2730
954 2767
954 2774
954 2911
954 3096
954 3131
954 3183
954 3220
954 3689
954 3731
955 965
955 988
955 1013
955 1022
955 1340
955 1353
955 1419
955 1469
955 1519
955 1546
955 1710
955 1810
955 1967
955 2042
955 2052
955 2064
955 2179
955 2211
955 2276
955 2319
955 2369
955 2452
955 2469
955 2528
955 2626
955 2633
955 2699
955 2845
955 2888
955 2956
955 3088
955 3138
955 3207
955 3339
955 3482
955 3504
955 3642
955 3709
955 3736
956 1036
956 1049
956 1222
956 1295
956 1577
956 1637
956 1682
956 1893
956 1939
956 2071
956 2084
956 2152
956 2201
956 2250
956 2320
956 2419
956 2575
956 2670
956 2683
956 2723
956 2790
956 2812
956 2954
956 3042
956 3148
956 3265
956 3376
956 3389
956 3478
956 3506
957 1013
957 1063
957 1429
957 1504
957 1677
957 2825
957 3104
957 3249
957 3283
957 3287
957 3298
957 3552
957 3554
957 3701
958 995
958 1156
958 1259
958 1408
958 1515
958 1908
958 2001
958 2250
958 2443
958 2515
958 2973
958 3004
958 3030
958 3044
958 3087
958 3546
959 1491
959 1505
959 1604
959 2029
959 2456
959 2516
959 2584
959 2840
959 2915
959 3218
959 3656
960 1023
960 1037
960 1149
960 1258
960 1314
960 1522
960 1531
960 1568
960 1597
960 1599
960 1681
960 1755
960 1825
960 1863
960 2001
960 2034
960 2064
960 2076
960 2104
960 2158
960 2289
960 2374
960 2412
960 2474
960 2510
960 2521
960 2601
960 2617
960 2710
960 2842
960 2973
960 3000
960 3021
960 3103
960 3138
960 3183
960 3193
960 3207
960 3212
960 3224
960 3332
960 3339
960 3430
960 3450
960 3465
960 3510
960 3599
960 3624
960 3638
960 3641
960 3672
961 1083
961 1233
961 1562
961 2224
961 3233
962 1034
962 2944
962 3595
963 988
963 1139
963 1214
963 1274
963 3012
963 3071
964 1358
964 1664
964 1705
964 1837
964 1925
964 1948
964 2015
964 2205
964 2311
964 2749
964 2922
964 3123
964 3234
964 3296
964 3436
965 1009
965 1266
965 1284
965 1299
965 1312
965 1323
965 1339
965 1343
965 1365
965 1389
965 1400
965 1407
965 1482
965 1519
965 1541
965 1629
965 1640
965 1659
965 1741
965 1742
965 1845
965 1859
965 1908
965 1952
965 1996
965 2002
965 2075
965 2092
965 2151
965 2159
965 2177
965 2179
965 2201
965 2250
965 2271
965 2284
965 2314
965 2406
965 2432
965 2509
965 2515
965 2522
965 2549
965 2556
965 2570
965 2583
965 2648
965 2760
965 2772
965 2790
965 2840
965 2873
965 2877
965 2973
965 3087
965 3119
965 3166
965 3225
965 3234
965 3316
965 3355
965 3408
965 3446
965 3450
965 3457
965 3514
965 3516
965 3572
965 3573
965 3630
965 3637
965 3645
965 3668
965 3683
965 3684
965 3686
965 3696
965 3718
965 3729
966 995
966 1247
966 1820
966 2081
966 2106
966 3283
966 3546
966 3574
966 3701
967 968
967 1020
967 1024
967 1030
967 1050
967 1057
967 1087
967 1100
967 1111
967 1141
967 1150
967 1163
967 1164
967 1167
967 1168
967 1174
967 1186
967 1231
967 1237
967 1286
967 1288
967 1297
967 1298
967 1314
967 1320
967 1321
967 1322
967 1333
967 1336
967 1346
967 1365
967 1366
967 1377
967 1457
967 1465
967 1471
967 1487
967 1489
967 1501
967 1510
967 1526
967 1557
967 1567
967 1583
967 1616
967 1630
967 1631
967 1635
967 1667
967 1673
967 1679
967 1685
967 1687
967 1703
967 1724
967 1725
967 1744
967 1754
967 1770
967 1788
967 1843
967 1848
967 1859
967 1863
967 1876
967 1879
967 1886
967 1893
967 1898
967 1902
967 1929
967 1972
967 1978
967 1981
967 1994
967 2012
967 2024
967 2040
967 2046
967 2060
967 2112
967 2138
967 2147
967 2186
967 2218
967 2219
967 2221
967 2229
967 2236
967 2250
967 2254
967 2262
967 2264
967 2287
967 2291
967 2316
967 2321
967 2324
967 2368
967 2369
967 2378
967 2397
967 2404
967 2408
967 2410
967 2413
967 2414
967 2418
967 2430
967 2513
967 2521
967 2547
967 2551
967 2564
967 2582
967 2588
967 2601
967 2620
967 2636
967 2640
967 2646
967 2648
967 2666
967 2668
967 2687
967 2696
967 2707
967 2725
967 2726
967 2730
967 2734
967 2741
967 2745
967 2751
967 2766
967 2767
967 2772
967 2791
967 2793
967 2809
967 2848
967 2879
967 2882
967 2906
967 2908
967 2944
967 2950
967 2956
967 2959
967 2994
967 3015
967 3021
967 3029
967 3030
967 3054
967 3059
967 3066
967 3068
967 3071
967 3075
967 3093
967 3096
967 3108
967 3131
967 3145
967 3164
967 3211
967 3227
967 3234
967 3253
967 3301
967 3309
967 3317
967 3323
967 3325
967 3337
967 3349
967 3364
967 3430
967 3444
967 3466
967 3477
967 3544
967 3547
967 3558
967 3562
967 3573
967 3575
967 3595
967 3599
967 3629
967 3683
967 3687
967 3689
967 3695
967 3726
967 3734
967 3737
967 3745
968 1033
968 1043
968 1073
968 1110
968 1164
968 1178
968 1186
968 1195
968 1250
968 1275
968 1288
968 1321
968 1334
968 1338
968 1352
968 1402
968 1416
968 1465
968 1471
968 1487
968 1489
968 1501
968 1521
968 1522
968 1567
968 1583
968 1588
968 1618
968 1656
968 1724
968 1734
968 1756
968 1822
968 1844
968 1845
968 1854
968 1863
968 1876
968 1920
968 1921
968 1959
968 1972
968 1981
968 2003
968 2004
968 2012
968 2016
968 2115
968 2125
968 2144
968 2219
968 2229
968 2236
968 2240
968 2337
968 2348
968 2445
968 2478
968 2564
968 2588
968 2703
968 2705
968 2721
968 2745
968 2751
968 2763
968 2766
968 2783
968 2808
968 2848
968 2866
968 2879
968 2889
968 2948
968 2959
968 2962
968 3015
968 3071
968 3101
968 3125
968 3145
968 3211
968 3220
968 3243
968 3288
968 3337
968 3349
968 3410
968 3425
968 3426
968 3444
968 3466
968 3521
968 3534
968 3544
968 3575
968 3623
968 3639
968 3661
968 3674
968 3675
968 3676
968 3687
968 3721
968 3745
969 1179
969 1264
969 1944
969 2212
969 2241
969 2577
969 2720
969 2857
969 2869
969 3234
969 3463
969 3477
969 3598
969 3741
970 1023
970 1078
970 1097
970 1392
970 1597
970 1688
970 1843
970 1956
970 2042
970 2114
970 2160
970 2182
970 2329
970 2425
970 2601
970 2755
970 2859
970 2875
970 2895
970 3021
970 3152
970 3183
970 3224
970 3450
970 3465
970 3597
970 3624
970 3638
971 1341
971 1564
971 1746
971 1867
971 1898
971 2016
971 2435
971 2554
971 2846
971 2923
971 2942
971 3183
971 3630
971 3674
971 3687
971 3725
972 1446
972 1604
972 1708
972 2206
972 2440
972 2834
972 3058
972 3081
972 3104
972 3631
973 1199
973 1516
973 1816
973 1851
973 2066
973 2237
973 2452
973 2634
973 2825
973 2918
973 2944
973 2962
973 3081
973 3109
973 3121
973 3135
973 3298
973 3546
974 1208
974 1588
974 1641
974 1644
974 1823
974 2132
974 2268
974 2435
974 2479
974 2559
974 2562
974 2666
974 2672
974 2730
974 2843
974 2896
974 2919
974 3124
974 3184
974 3408
974 3514
974 3524
974 3540
974 3613
974 3655
974 3718
975 1678
976 1398
976 1725
976 1762
976 1768
976 1831
976 2057
976 2530
976 2804
976 3020
976 3276
976 3313
976 3433
977 1064
977 1468
977 1592
977 1730
977 1766
977 2110
977 2174
977 2287
977 2341
977 2476
977 2540
977 2972
977 3546
978 1096
978 1194
978 1528
978 1585
978 1741
978 1814
978 1973
978 2012
978 2128
978 2146
978 2325
978 2330
978 2682
978 2708
978 2751
978 2814
978 3167
978 3188
978 3212
978 3257
978 3473
978 3695
979 1277
979 1600
979 1745
979 2138
979 2362
979 2642
979 2933
979 2964
979 3167
979 3290
979 3455
979 3581
979 3695
980 1072
980 1097
980 1458
980 1475
980 1537
980 1597
980 1729
980 1912
980 2079
980 2190
980 2218
980 2290
980 2390
980 2601
980 2636
980 2659
980 2710
980 2842
980 2895
980 3021
980 3029
980 3220
980 3274
980 3399
980 3450
980 3638
980 3640
980 3744
981 1101
981 1225
981 1238
981 1253
981 1400
981 1413
981 1519
981 1648
981 1739
981 1775
981 1893
981 1905
981 2115
981 2152
981 2237
981 2238
981 2364
981 2437
981 2514
981 2544
981 2591
981 2605
981 2628
981 2653
981 2687
981 2869
981 2893
981 2916
981 3016
981 3064
981 3109
981 3117
981 3120
981 3209
981 3278
981 3310
981 3407
981 3424
981 3476
981 3537
981 3548
981 3662
981 3682
981 3684
982 3463
983 1041
983 1053
983 1363
983 1439
983 1519
983 1732
983 1741
983 1890
983 1891
983 1925
983 2284
983 2394
983 2589
983 2760
983 2869
983 2975
983 3074
983 3209
983 3252
983 3300
983 3316
983 3382
983 3513
983 3529
983 3684
984 1282
984 1364
984 1663
984 1797
984 1960
984 2166
984 2795
984 3703
985 996
985 1033
985 1349
985 1560
985 1867
985 2076
985 2289
985 2374
985 2596
985 2622
985 2677
985 2840
985 3076
985 3193
986 2542
986 2624
986 2712
987 1018
987 1020
987 1156
987 1169
987 1374
987 1470
987 1590
987 1661
987 1687
987 1731
987 1772
987 1776
987 1875
987 1886
987 1897
987 1908
987 1957
987 1981
987 1996
987 2098
987 2187
987 2282
987 2367
987 2388
987 2420
987 2808
987 2819
987 2838
987 2844
987 2867
987 2881
987 2988
987 3095
987 3131
987 3176
987 3188
987 3314
987 3344
987 3445
987 3514
987 3605
987 3609
987 3628
987 3661
987 3722
988 1013
988 1022
988 1025
988 1043
988 1049
988 1051
988 1072
988 1082
988 1087
988 1097
988 1139
988 1153
988 1157
988 1204
988 1222
988 1227
988 1245
988 1274
988 1356
988 1402
988 1419
988 1444
988 1448
988 1457
988 1475
988 1487
988 1501
988 1521
988 1522
988 1537
988 1546
988 1556
988 1587
988 1597
988 1606
988 1629
988 1651
988 1688
988 1710
988 1721
988 1725
988 1777
988 1837
988 1843
988 1902
988 1912
988 1952
988 1955
988 1956
988 1967
988 1989
988 2001
988 2025
988 2042
988 2052
988 2064
988 2094
988 2112
988 2114
988 2116
988 2139
988 2170
988 2176
988 2182
988 2211
988 2226
988 2276
988 2308
988 2323
988 2329
988 2337
988 2368
988 2369
988 2390
988 2408
988 2416
988 2423
988 2424
988 2425
988 2432
988 2446
988 2455
988 2458
988 2462
988 2469
988 2474
988 2517
988 2525
988 2555
988 2575
988 2590
988 2626
988 2635
988 2636
988 2657
988 2665
988 2686
988 2699
988 2720
988 2721
988 2751
988 2755
988 2788
988 2809
988 2821
988 2845
988 2875
988 2877
988 2888
988 2895
988 2901
988 2912
988 2956
988 2964
988 2973
988 2998
988 3012
988 3015
988 3021
988 3071
988 3077
988 3086
988 3101
988 3102
988 3105
988 3110
988 3120
988 3129
988 3138
988 3152
988 3156
988 3178
988 3207
988 3221
988 3258
988 3274
988 3278
988 3282
988 3284
988 3316
988 3339
988 3370
988 3378
988 3385
988 3388
988 3399
988 3417
988 3450
988 3465
988 3504
988 3513
988 3517
988 3569
988 3572
988 3578
988 3586
988 3597
988 3599
988 3624
988 3640
988 3685
988 3690
988 3709
988 3720
988 3724
989 1699
989 1747
989 1839
989 2055
989 3382
990 2174
990 2287
990 2540
990 3179
990 3404
991 1138
991 1689
991 2181
991 2440
992 3314
992 3574
993 1036
993 1079
993 1094
993 2305
993 2489
993 3280
993 3374
993 3517
994 1214
994 1227
994 1323
994 1363
994 1385
994 1575
994 1681
994 1948
994 2005
994 2156
994 2325
994 2667
994 2777
994 2897
994 3022
994 3080
994 3382
994 3479
994 3498
994 3573
994 3725
995 1013
995 1054
995 1130
995 1217
995 1241
995 1247
995 1504
995 1563
995 1582
995 1609
995 1648
995 1677
995 1708
995 1820
995 1859
995 1879
995 1894
995 1945
995 2037
995 2083
995 2106
995 2118
995 2224
995 2275
995 2311
995 2314
995 2396
995 2420
995 2440
995 2583
995 3031
995 3222
995 3251
995 3275
995 3296
995 3316
995 3318
995 3355
995 3420
995 3500
995 3695
996 1033
996 1096
996 1295
996 1349
996 1383
996 1501
996 1522
996 1528
996 1560
996 1585
996 1674
996 1859
996 1863
996 1867
996 2015
996 2073
996 2076
996 2104
996 2136
996 2201
996 2229
996 2282
996 2289
996 2374
996 2432
996 2622
996 2677
996 2817
996 3076
996 3081
996 3082
996 3098
996 3193
996 3212
996 3288
996 3306
996 3437
996 3465
996 3575
996 3705
996 3728
996 3739
997 1281
997 1293
997 1322
997 1391
997 1543
997 1714
997 2205
997 2298
997 2493
997 2729
997 3722
998 1016
998 1039
998 1163
998 1296
998 1464
998 1518
998 1552
998 1734
998 1744
998 2015
998 2075
998 2274
998 2319
998 2403
998 2444
998 2719
998 2907
998 2951
998 3034
998 3093
998 3110
998 3536
998 3564
998 3702
999 1111
999 1368
999 1644
999 2115
999 2190
999 2359
999 2421
999 2498
999 2689
999 2923
999 2959
999 3191
999 3210
999 3240
999 3431
999 3573
999 3704
1000 1028
1000 1282
1000 1361
1000 1440
1000 1737
1000 1816
1000 2002
1000 2092
1000 2174
1000 2371
1000 2584
1000 2656
1000 2823
1000 2888
1000 2956
1000 3150
1000 3278
1000 3413
1000 3422
1000 3456
1000 3554
1000 3710
1001 1124
1001 1177
1001 1181
1001 1263
1001 1372
1001 1450
1001 1644
1001 1731
1001 1799
1001 1972
1001 2046
1001 2060
1001 2156
1001 2267
1001 2360
1001 2406
1001 2488
1001 2538
1001 2569
1001 2641
1001 2703
1001 2708
1001 2710
1001 2725
1001 2912
1001 2994
1001 3059
1001 3066
1001 3102
1001 3257
1001 3260
1001 3359
1001 3449
1001 3478
1001 3501
1001 3721
1002 1012
1002 1050
1002 1065
1002 1072
1002 1075
1002 1111
1002 1116
1002 1120
1002 1121
1002 1163
1002 1167
1002 1189
1002 1245
1002 1280
1002 1288
1002 1320
1002 1326
1002 1334
1002 1336
1002 1346
1002 1377
1002 1381
1002 1458
1002 1459
1002 1465
1002 1480
1002 1487
1002 1510
1002 1533
1002 1556
1002 1564
1002 1567
1002 1571
1002 1573
1002 1616
1002 1631
1002 1651
1002 1667
1002 1686
1002 1703
1002 1721
1002 1728
1002 1750
1002 1790
1002 1813
1002 1821
1002 1838
1002 1848
1002 1855
1002 1862
1002 1877
1002 1898
1002 1971
1002 1984
1002 2026
1002 2080
1002 2125
1002 2186
1002 2217
1002 2218
1002 2250
1002 2264
1002 2265
1002 2285
1002 2290
1002 2298
1002 2304
1002 2306
1002 2378
1002 2387
1002 2397
1002 2404
1002 2441
1002 2478
1002 2507
1002 2512
1002 2599
1002 2601
1002 2669
1002 2678
1002 2696
1002 2730
1002 2744
1002 2747
1002 2755
1002 2804
1002 2871
1002 2944
1002 2960
1002 2961
1002 2981
1002 2998
1002 3018
1002 3021
1002 3029
1002 3037
1002 3048
1002 3055
1002 3087
1002 3096
1002 3106
1002 3108
1002 3111
1002 3120
1002 3131
1002 3179
1002 3212
1002 3227
1002 3257
1002 3259
1002 3274
1002 3276
1002 3306
1002 3322
1002 3370
1002 3386
1002 3416
1002 3430
1002 3458
1002 3465
1002 3473
1002 3489
1002 3540
1002 3562
1002 3601
1002 3616
1002 3630
1002 3689
1002 3719
1002 3734
1002 3737
1003 1021
1003 1093
1003 1152
1003 1273
1003 1509
1003 1795
1003 1994
1003 2030
1003 2075
1003 2271
1003 2295
1003 2456
1003 2674
1003 2725
1003 2835
1003 2926
1003 3369
1003 3375
1003 3419
1003 3644
1003 3678
1003 3741
1004 1122
1004 1186
1004 1251
1004 1329
1004 1469
1004 1508
1004 1511
1004 1513
1004 1553
1004 1616
1004 1651
1004 1663
1004 1736
1004 1742
1004 1744
1004 1828
1004 1873
1004 2011
1004 2035
1004 2095
1004 2152
1004 2333
1004 2387
1004 2604
1004 2668
1004 2672
1004 2709
1004 2734
1004 2805
1004 2830
1004 2878
1004 2979
1004 3016
1004 3095
1004 3111
1004 3186
1004 3268
1004 3355
1004 3390
1004 3424
1004 3437
1004 3496
1004 3507
1004 3598
1004 3650
1004 3677
1004 3687
1004 3736
1004 3739
1005 1063
1005 1082
1005 1442
1005 1680
1005 1740
1005 2723
1005 2781
1005 2890
1005 2914
1005 3150
1005 3197
1005 3222
1005 3464
1005 3712
1006 1270
1006 2814
1006 3167
1007 1249
1007 1403
1007 1523
1007 1689
1007 1708
1007 2438
1007 2440
1007 2490
1007 2511
1007 3197
1007 3365
1007 3469
1007 3657
1008 1145
1008 1196
1008 1265
1008 1479
1008 1508
1008 1510
1008 1613
1008 1946
1008 2036
1008 2164
1008 2189
1008 2210
1008 2233
1008 2429
1008 2445
1008 2559
1008 2591
1008 2639
1008 2980
1008 3101
1008 3124
1008 3145
1008 3426
1008 3603
1008 3682
1008 3702
1009 1108
1009 1109
1009 1130
1009 1160
1009 1218
1009 1570
1009 1742
1009 1870
1009 1873
1009 1913
1009 2061
1009 2129
1009 2159
1009 2161
1009 2248
1009 2250
1009 2320
1009 2356
1009 2515
1009 2680
1009 2960
1009 2975
1009 2979
1009 3087
1009 3098
1009 3166
1009 3192
1009 3446
1009 3661
1009 3668
1009 3686
1010 1072
1010 1082
1010 1134
1010 1183
1010 1341
1010 1501
1010 1510
1010 1526
1010 1530
1010 1568
1010 1645
1010 1732
1010 1818
1010 2115
1010 2319
1010 2394
1010 2510
1010 2547
1010 2578
1010 2896
1010 2928
1010 2960
1010 3015
1010 3120
1010 3285
1010 3349
1010 3386
1010 3466
1010 3506
1010 3544
1010 3621
1010 3624
1010 3638
1010 3682
1011 1121
1011 1346
1011 1406
1011 1573
1011 1922
1011 2057
1011 2321
1011 2421
1011 3179
1011 3717
1011 3724
1012 1057
1012 1121
1012 1210
1012 1310
1012 1322
1012 1336
1012 1465
1012 1470
1012 1487
1012 1495
1012 1526
1012 1568
1012 1754
1012 1785
1012 1788
1012 1825
1012 1961
1012 2125
1012 2158
1012 2209
1012 2478
1012 2512
1012 2582
1012 2615
1012 2730
1012 2767
1012 2774
1012 2804
1012 2836
1012 2911
1012 2942
1012 2956
1012 3096
1012 3098
1012 3106
1012 3153
1012 3183
1012 3370
1012 3540
1012 3688
1012 3689
1012 3731
1013 1022
1013 1042
1013 1077
1013 1249
1013 1484
1013 1563
1013 1662
1013 1810
1013 1827
1013 1864
1013 2118
1013 2276
1013 2416
1013 2452
1013 2474
1013 2626
1013 2792
1013 2845
1013 3021
1013 3081
1013 3269
1013 3298
1013 3464
1013 3482
1013 3500
1013 3504
1013 3507
1013 3517
1013 3546
1013 3554
1013 3566
1013 3572
1013 3578
1013 3709
1014 1045
1014 1112
1014 1284
1014 1329
1014 1493
1014 1522
1014 1619
1014 1630
1014 1645
1014 1651
1014 1736
1014 1770
1014 1797
1014 2014
1014 2090
1014 2135
1014 2197
1014 2242
1014 2323
1014 2337
1014 2344
1014 2625
1014 2713
1014 2738
1014 2749
1014 2808
1014 2963
1014 3025
1014 3112
1014 3424
1014 3538
1014 3588
1014 3637
1014 3645
1014 3654
1014 3718
1015 1150
1015 1350
1015 1432
1015 1531
1015 1565
1015 1708
1015 1958
1015 2416
1015 2659
1015 2710
1015 2842
1015 2920
1015 3000
1015 3021
1015 3224
1015 3394
1015 3561
1016 1231
1016 1519
1016 1611
1016 1648
1016 1837
1016 1845
1016 1994
1016 2015
1016 2136
1016 2137
1016 2281
1016 2316
1016 2413
1016 2419
1016 2544
1016 2591
1016 2596
1016 2604
1016 2668
1016 2805
1016 2857
1016 2973
1016 3000
1016 3169
1016 3224
1016 3242
1016 3428
1016 3476
1016 3598
1016 3687
1016 3702
1017 1056
1017 1197
1017 1444
1017 1479
1017 1486
1017 1908
1017 2014
1017 2049
1017 2237
1017 2269
1017 2474
1017 2520
1017 2625
1017 2635
1017 2732
1017 2827
1017 2838
1017 2967
1017 3007
1017 3163
1017 3305
1017 3371
1017 3418
1017 3437
1017 3504
1017 3546
1017 3638
1017 3677
1017 3692
1018 1087
1018 1661
1018 1772
1018 1776
1018 1805
1018 1825
1018 1886
1018 2251
1018 2554
1018 2570
1018 2657
1018 2867
1018 3234
1018 3344
1019 3287
1020 1023
1020 1029
1020 1082
1020 1133
1020 1152
1020 1272
1020 1320
1020 1365
1020 1389
1020 1427
1020 1462
1020 1593
1020 1597
1020 1601
1020 1656
1020 1668
1020 1729
1020 1761
1020 1799
1020 1801
1020 1805
1020 1886
1020 1920
1020 1931
1020 1981
1020 2009
1020 2059
1020 2060
1020 2098
1020 2119
1020 2206
1020 2249
1020 2254
1020 2259
1020 2271
1020 2299
1020 2333
1020 2336
1020 2385
1020 2392
1020 2416
1020 2438
1020 2508
1020 2538
1020 2564
1020 2578
1020 2588
1020 2649
1020 2652
1020 2664
1020 2696
1020 2698
1020 2729
1020 2827
1020 2864
1020 2919
1020 2939
1020 2944
1020 2948
1020 3010
1020 3014
1020 3015
1020 3070
1020 3075
1020 3098
1020 3128
1020 3131
1020 3166
1020 3193
1020 3227
1020 3234
1020 3258
1020 3272
1020 3337
1020 3349
1020 3386
1020 3466
1020 3491
1020 3497
1020 3520
1020 3547
1020 3563
1020 3575
1020 3594
1020 3608
1020 3618
1020 3626
1020 3695
1020 3698
1020 3729
1020 3730
1021 1028
1021 1082
1021 1241
1021 1440
1021 1567
1021 1841
1021 1893
1021 2002
1021 2574
1021 2591
1021 2605
1021 2680
1021 2687
1021 2749
1021 2773
1021 2781
1021 2790
1021 2822
1021 2890
1021 2911
1021 2956
1021 2979
1021 3038
1021 3107
1021 3120
1021 3140
1021 3150
1021 3419
1021 3476
1021 3490
1021 3523
1021 3548
1021 3710
1021 3741
1022 1023
1022 1037
1022 1043
1022 1057
1022 1072
1022 1085
1022 1087
1022 1157
1022 1198
1022 1245
1022 1288
1022 1328
1022 1379
1022 1458
1022 1465
1022 1472
1022 1475
1022 1537
1022 1543
1022 1546
1022 1548
1022 1597
1022 1688
1022 1708
1022 1710
1022 1714
1022 1729
1022 1733
1022 1777
1022 1801
1022 1814
1022 1822
1022 1843
1022 1864
1022 1879
1022 1908
1022 1912
1022 1956
1022 2034
1022 2042
1022 2052
1022 2064
1022 2066
1022 2112
1022 2184
1022 2298
1022 2329
1022 2363
1022 2369
1022 2390
1022 2416
1022 2424
1022 2469
1022 2474
1022 2478
1022 2479
1022 2514
1022 2517
1022 2521
1022 2528
1022 2554
1022 2601
1022 2626
1022 2636
1022 2647
1022 2665
1022 2699
1022 2710
1022 2792
1022 2836
1022 2845
1022 2888
1022 2895
1022 2942
1022 2956
1022 2985
1022 3000
1022 3009
1022 3021
1022 3072
1022 3086
1022 3094
1022 3129
1022 3138
1022 3178
1022 3207
1022 3213
1022 3264
1022 3274
1022 3284
1022 3316
1022 3339
1022 3399
1022 3405
1022 3435
1022 3450
1022 3482
1022 3484
1022 3504
1022 3510
1022 3513
1022 3534
1022 3557
1022 3572
1022 3575
1022 3578
1022 3585
1022 3624
1022 3640
1022 3642
1022 3683
1022 3736
1023 1037
1023 1057
1023 1072
1023 1085
1023 1098
1023 1149
1023 1204
1023 1321
1023 1333
1023 1337
1023 1458
1023 1471
1023 1475
1023 1568
1023 1597
1023 1660
1023 1667
1023 1725
1023 1729
1023 1754
1023 1755
1023 1788
1023 1843
1023 1864
1023 1912
1023 1929
1023 1967
1023 1971
1023 1972
1023 2001
1023 2004
1023 2034
1023 2042
1023 2060
1023 2064
1023 2068
1023 2076
1023 2078
1023 2081
1023 2104
1023 2112
1023 2119
1023 2138
1023 2168
1023 2215
1023 2289
1023 2345
1023 2363
1023 2412
1023 2416
1023 2507
1023 2508
1023 2510
1023 2511
1023 2521
1023 2538
1023 2554
1023 2601
1023 2617
1023 2635
1023 2636
1023 2690
1023 2698
1023 2707
1023 2710
1023 2734
1023 2745
1023 2755
1023 2770
1023 2787
1023 2842
1023 2882
1023 2895
1023 2973
1023 3007
1023 3021
1023 3029
1023 3103
1023 3118
1023 3138
1023 3143
1023 3149
1023 3158
1023 3184
1023 3207
1023 3224
1023 3274
1023 3328
1023 3349
1023 3370
1023 3399
1023 3430
1023 3450
1023 3469
1023 3510
1023 3557
1023 3585
1023 3599
1023 3624
1023 3630
1023 3641
1023 3693
1023 3714
1023 3718
1023 3726
1024 1053
1024 1057
1024 1121
1024 1149
1024 1288
1024 1296
1024 1345
1024 1400
1024 1416
1024 1487
1024 1497
1024 1501
1024 1505
1024 1522
1024 1530
1024 1618
1024 1734
1024 1814
1024 1833
1024 1844
1024 1845
1024 1854
1024 1879
1024 1959
1024 1971
1024 2034
1024 2048
1024 2120
1024 2125
1024 2151
1024 2229
1024 2292
1024 2307
1024 2321
1024 2413
1024 2419
1024 2474
1024 2492
1024 2544
1024 2564
1024 2604
1024 2664
1024 2668
1024 2741
1024 2751
1024 2770
1024 2787
1024 2791
1024 2804
1024 2805
1024 2815
1024 2836
1024 2869
1024 2907
1024 2973
1024 3015
1024 3021
1024 3037
1024 3047
1024 3093
1024 3139
1024 3145
1024 3147
1024 3169
1024 3224
1024 3227
1024 3243
1024 3247
1024 3259
1024 3292
1024 3337
1024 3386
1024 3426
1024 3428
1024 3462
1024 3466
1024 3507
1024 3510
1024 3518
1024 3521
1024 3575
1024 3601
1024 3652
1024 3675
1024 3682
1024 3687
1024 3695
1025 1161
1025 1263
1025 1430
1025 1789
1025 2276
1025 2470
1025 2498
1025 2514
1025 2537
1025 2575
1025 3142
1025 3265
1026 1056
1026 1377
1026 1823
1026 1843
1026 1886
1026 2049
1026 2269
1026 2507
1026 2688
1026 2804
1026 2833
1026 2985
1026 3118
1026 3180
1026 3418
1026 3659
1027 1096
1027 1204
1027 1268
1027 1814
1027 1876
1027 2012
1027 2113
1027 2254
1027 2578
1027 2682
1027 2751
1027 3066
1027 3253
1027 3297
1027 3304
1027 3431
1028 1060
1028 1082
1028 1193
1028 1282
1028 1411
1028 1440
1028 1489
1028 1492
1028 1613
1028 1737
1028 1816
1028 1841
1028 1879
1028 1961
1028 2002
1028 2092
1028 2205
1028 2209
1028 2229
1028 2356
1028 2364
1028 2371
1028 2417
1028 2656
1028 2687
1028 2749
1028 2817
1028 2823
1028 2888
1028 2890
1028 2911
1028 2925
1028 2956
1028 2979
1028 3093
1028 3150
1028 3207
1028 3275
1028 3278
1028 3413
1028 3422
1028 3456
1028 3548
1028 3686
1028 3710
1028 3712
1029 1239
1029 1316
1029 1761
1029 1920
1029 2023
1029 2059
1029 2098
1029 2119
1029 2206
1029 2948
1029 2999
1029 3698
1030 1119
1030 1122
1030 1124
1030 1183
1030 1272
1030 1303
1030 1321
1030 1356
1030 1507
1030 1513
1030 1573
1030 1644
1030 1652
1030 1655
1030 1685
1030 1691
1030 1725
1030 1748
1030 1823
1030 1848
1030 1867
1030 1952
1030 2016
1030 2115
1030 2116
1030 2174
1030 2299
1030 2319
1030 2330
1030 2401
1030 2419
1030 2438
1030 2554
1030 2562
1030 2629
1030 2666
1030 2679
1030 2751
1030 2770
1030 2811
1030 2877
1030 2944
1030 3043
1030 3066
1030 3096
1030 3101
1030 3128
1030 3137
1030 3153
1030 3171
1030 3234
1030 3337
1030 3364
1030 3510
1030 3514
1030 3518
1030 3575
1030 3613
1030 3619
1030 3649
1030 3681
1030 3704
1030 3716
1030 3718
1031 1091
1031 1451
1031 1532
1031 1862
1031 2055
1031 2071
1031 2164
1031 2186
1031 2461
1031 3317
1031 3379
1031 3535
1031 3628
1033 1075
1033 1144
1033 1248
1033 1268
1033 1314
1033 1349
1033 1383
1033 1522
1033 1528
1033 1560
1033 1585
1033 1590
1033 1859
1033 1863
1033 1996
1033 2004
1033 2056
1033 2073
1033 2226
1033 2289
1033 2374
1033 2432
1033 2596
1033 2622
1033 2657
1033 2844
1033 3034
1033 3082
1033 3158
1033 3173
1033 3193
1033 3212
1033 3224
1033 3288
1033 3465
1033 3624
1033 3693
1033 3728
1034 1277
1034 1381
1034 1427
1034 1444
1034 1483
1034 1745
1034 1751
1034 1868
1034 2138
1034 2786
1034 2809
1034 2962
1034 2964
1034 3455
1034 3595
1034 3618
1034 3744
1035 1039
1035 1053
1035 1085
1035 1322
1035 1725
1035 1780
1035 1901
1035 2513
1035 2566
1035 3043
1035 3111
1035 3166
1035 3334
1035 3339
1036 1049
1036 1214
1036 1222
1036 1389
1036 1542
1036 1661
1036 1681
1036 1880
1036 2135
1036 2141
1036 2219
1036 2377
1036 2438
1036 2575
1036 2638
1036 2763
1036 3115
1036 3234
1036 3389
1036 3578
1037 1072
1037 1149
1037 1168
1037 1214
1037 1323
1037 1333
1037 1475
1037 1511
1037 1546
1037 1550
1037 1580
1037 1597
1037 1629
1037 1663
1037 1674
1037 1768
1037 1825
1037 1863
1037 1864
1037 1865
1037 1912
1037 1967
1037 2004
1037 2042
1037 2064
1037 2076
1037 2112
1037 2114
1037 2121
1037 2128
1037 2158
1037 2168
1037 2289
1037 2390
1037 2412
1037 2416
1037 2510
1037 2511
1037 2521
1037 2538
1037 2555
1037 2601
1037 2615
1037 2617
1037 2698
1037 2707
1037 2708
1037 2710
1037 2727
1037 2751
1037 2755
1037 2821
1037 2842
1037 2882
1037 2891
1037 2895
1037 2973
1037 2975
1037 3000
1037 3021
1037 3041
1037 3086
1037 3103
1037 3138
1037 3143
1037 3149
1037 3203
1037 3207
1037 3212
1037 3224
1037 3316
1037 3339
1037 3349
1037 3370
1037 3449
1037 3450
1037 3469
1037 3585
1037 3599
1037 3624
1037 3630
1037 3689
1037 3718
1038 1110
1038 1127
1038 1225
1038 1383
1038 1570
1038 2372
1038 2546
1038 2591
1038 2622
1038 2680
1038 2743
1038 2817
1038 2869
1038 2936
1038 2975
1038 3041
1038 3293
1039 1153
1039 1155
1039 1172
1039 1245
1039 1340
1039 1533
1039 1548
1039 1642
1039 1699
1039 1714
1039 1733
1039 1777
1039 1780
1039 1899
1039 2057
1039 2388
1039 2528
1039 2665
1039 2699
1039 2792
1039 2880
1039 2940
1039 2956
1039 3072
1039 3110
1039 3264
1039 3482
1039 3484
1039 3504
1039 3536
1039 3650
1040 1688
1040 2182
1040 2604
1040 3224
1041 1053
1041 1062
1041 1175
1041 1181
1041 1244
1041 1323
1041 1354
1041 1363
1041 1385
1041 1508
1041 1511
1041 1519
1041 1575
1041 1580
1041 1665
1041 1704
1041 1822
1041 1849
1041 1890
1041 1891
1041 1972
1041 2038
1041 2070
1041 2157
1041 2284
1041 2516
1041 2544
1041 2589
1041 2746
1041 2815
1041 3243
1041 3252
1041 3261
1041 3300
1041 3316
1041 3382
1041 3405
1041 3529
1041 3534
1041 3575
1041 3686
1042 1249
1042 2416
1042 2626
1042 3329
1042 3339
1042 3504
1042 3572
1043 1073
1043 1075
1043 1107
1043 1117
1043 1149
1043 1157
1043 1183
1043 1195
1043 1239
1043 1245
1043 1272
1043 1321
1043 1328
1043 1334
1043 1341
1043 1366
1043 1419
1043 1457
1043 1465
1043 1472
1043 1475
1043 1477
1043 1501
1043 1543
1043 1583
1043 1620
1043 1710
1043 1733
1043 1777
1043 1788
1043 1902
1043 1964
1043 1971
1043 2001
1043 2026
1043 2034
1043 2042
1043 2052
1043 2064
1043 2104
1043 2185
1043 2241
1043 2243
1043 2265
1043 2273
1043 2276
1043 2350
1043 2369
1043 2397
1043 2458
1043 2469
1043 2474
1043 2478
1043 2479
1043 2485
1043 2507
1043 2517
1043 2528
1043 2554
1043 2582
1043 2594
1043 2636
1043 2665
1043 2671
1043 2699
1043 2710
1043 2721
1043 2792
1043 2804
1043 2842
1043 2845
1043 2888
1043 2940
1043 2942
1043 2955
1043 2956
1043 2985
1043 2998
1043 3021
1043 3029
1043 3051
1043 3077
1043 3094
1043 3096
1043 3118
1043 3138
1043 3146
1043 3156
1043 3161
1043 3210
1043 3224
1043 3244
1043 3284
1043 3339
1043 3367
1043 3370
1043 3385
1043 3484
1043 3504
1043 3510
1043 3513
1043 3534
1043 3557
1043 3575
1043 3578
1043 3585
1043 3600
1043 3683
1043 3689
1043 3704
1044 1370
1044 1689
1044 1744
1045 1329
1045 1736
1045 2067
1045 2242
1045 2374
1045 2738
1045 2753
1045 3354
1045 3645
1045 3680
1046 1056
1046 1275
1046 1479
1046 1543
1046 2025
1046 2049
1046 2648
1046 2832
1046 2867
1046 2985
1046 3019
1046 3288
1046 3332
1046 3482
1046 3661
1046 3718
1047 1427
1047 1630
1047 1745
1047 1962
1047 2059
1047 2090
1047 2130
1047 2344
1047 2623
1047 2630
1047 2738
1047 2933
1047 3194
1047 3514
1047 3575
1047 3588
1047 3618
1048 1292
1048 1565
1048 1595
1048 1853
1048 1871
1048 1872
1048 2116
1048 2174
1048 2503
1048 2627
1048 2689
1048 2877
1048 2978
1048 3117
1048 3187
1048 3336
1048 3704
1049 1101
1049 1134
1049 1191
1049 1222
1049 1284
1049 1299
1049 1325
1049 1339
1049 1541
1049 1543
1049 1571
1049 1593
1049 1607
1049 1613
1049 1659
1049 1681
1049 1692
1049 1725
1049 1750
1049 1757
1049 1758
1049 1824
1049 1880
1049 1962
1049 2034
1049 2109
1049 2141
1049 2174
1049 2178
1049 2201
1049 2219
1049 2276
1049 2314
1049 2333
1049 2406
1049 2418
1049 2438
1049 2509
1049 2525
1049 2575
1049 2605
1049 2631
1049 2657
1049 2743
1049 2763
1049 2781
1049 2790
1049 2809
1049 2869
1049 2881
1049 2944
1049 2956
1049 2998
1049 3009
1049 3012
1049 3079
1049 3108
1049 3109
1049 3194
1049 3234
1049 3264
1049 3349
1049 3359
1049 3376
1049 3378
1049 3385
1049 3389
1049 3408
1049 3424
1049 3497
1049 3513
1049 3569
1049 3575
1049 3586
1049 3665
1049 3679
1049 3720
1049 3729
1049 3746
1050 1065
1050 1075
1050 1120
1050 1141
1050 1158
1050 1167
1050 1171
1050 1186
1050 1195
1050 1218
1050 1220
1050 1290
1050 1321
1050 1357
1050 1365
1050 1366
1050 1377
1050 1416
1050 1465
1050 1471
1050 1480
1050 1495
1050 1510
1050 1530
1050 1567
1050 1613
1050 1616
1050 1631
1050 1646
1050 1667
1050 1754
1050 1761
1050 1788
1050 1809
1050 1838
1050 1870
1050 1898
1050 1902
1050 1925
1050 1959
1050 1961
1050 2006
1050 2066
1050 2170
1050 2174
1050 2190
1050 2219
1050 2229
1050 2265
1050 2271
1050 2287
1050 2378
1050 2397
1050 2438
1050 2441
1050 2455
1050 2474
1050 2478
1050 2492
1050 2498
1050 2512
1050 2517
1050 2547
1050 2559
1050 2583
1050 2640
1050 2648
1050 2649
1050 2696
1050 2721
1050 2730
1050 2745
1050 2767
1050 2769
1050 2774
1050 2791
1050 2809
1050 2815
1050 2827
1050 2850
1050 2944
1050 2947
1050 2960
1050 2980
1050 3010
1050 3029
1050 3055
1050 3070
1050 3093
1050 3096
1050 3098
1050 3101
1050 3108
1050 3124
1050 3131
1050 3133
1050 3139
1050 3145
1050 3146
1050 3183
1050 3227
1050 3243
1050 3306
1050 3349
1050 3359
1050 3404
1050 3440
1050 3466
1050 3518
1050 3534
1050 3547
1050 3549
1050 3562
1050 3575
1050 3596
1050 3632
1050 3639
1050 3669
1050 3676
1050 3687
1050 3689
1050 3695
1050 3717
1050 3718
1050 3719
1050 3721
1050 3737
1051 1072
1051 1087
1051 1097
1051 1149
1051 1288
1051 1458
1051 1475
1051 1537
1051 1564
1051 1568
1051 1597
1051 1833
1051 1912
1051 1956
1051 2001
1051 2042
1051 2068
1051 2176
1051 2329
1051 2345
1051 2390
1051 2412
1051 2554
1051 2601
1051 2636
1051 2755
1051 2821
1051 2842
1051 2895
1051 2942
1051 3007
1051 3021
1051 3118
1051 3152
1051 3274
1051 3316
1051 3430
1051 3450
1051 3597
1051 3624
1051 3640
1052 1195
1052 1345
1052 1400
1052 1959
1052 2307
1052 2668
1052 2721
1052 2838
1052 3125
1052 3145
1052 3292
1052 3426
1052 3462
1052 3507
1052 3575
1052 3675
1053 1062
1053 1181
1053 1206
1053 1225
1053 1228
1053 1235
1053 1244
1053 1323
1053 1336
1053 1519
1053 1575
1053 1580
1053 1593
1053 1663
1053 1699
1053 1732
1053 1741
1053 1754
1053 1780
1053 1785
1053 1822
1053 1832
1053 2004
1053 2121
1053 2148
1053 2158
1053 2250
1053 2251
1053 2284
1053 2381
1053 2387
1053 2480
1053 2516
1053 2544
1053 2556
1053 2589
1053 2645
1053 2667
1053 2730
1053 2767
1053 2771
1053 2774
1053 2782
1053 2791
1053 2804
1053 2809
1053 2815
1053 2885
1053 2897
1053 2899
1053 2933
1053 2973
1053 3022
1053 3087
1053 3096
1053 3111
1053 3166
1053 3300
1053 3306
1053 3316
1053 3382
1053 3404
1053 3466
1053 3479
1053 3491
1053 3534
1053 3540
1053 3545
1053 3684
1053 3689
1053 3692
1053 3746
1054 1055
1054 1078
1054 1079
1054 1319
1054 1413
1054 1431
1054 1445
1054 1470
1054 1623
1054 1722
1054 1742
1054 1900
1054 1904
1054 2022
1054 2075
1054 2114
1054 2217
1054 2334
1054 2431
1054 2440
1054 2452
1054 2489
1054 2709
1054 2724
1054 2789
1054 2825
1054 2859
1054 3008
1054 3021
1054 3088
1054 3093
1054 3135
1054 3248
1054 3317
1054 3374
1054 3420
1054 3421
1054 3459
1054 3460
1054 3487
1054 3697
1055 1115
1055 1394
1055 1446
1055 1708
1055 1900
1055 2224
1055 2440
1055 2511
1055 3081
1055 3459
1055 3469
1055 3481
1055 3546
1056 1087
1056 1104
1056 1197
1056 1280
1056 1479
1056 1528
1056 1536
1056 1619
1056 1667
1056 1673
1056 1687
1056 1744
1056 1773
1056 1848
1056 1928
1056 2025
1056 2049
1056 2269
1056 2345
1056 2362
1056 2386
1056 2424
1056 2445
1056 2459
1056 2677
1056 2687
1056 2734
1056 2737
1056 2832
1056 2838
1056 3019
1056 3083
1056 3163
1056 3290
1056 3332
1056 3441
1056 3677
1056 3740
1057 1072
1057 1087
1057 1104
1057 1109
1057 1174
1057 1218
1057 1288
1057 1320
1057 1321
1057 1333
1057 1453
1057 1471
1057 1526
1057 1567
1057 1583
1057 1593
1057 1596
1057 1622
1057 1631
1057 1687
1057 1724
1057 1773
1057 1825
1057 1843
1057 1848
1057 1879
1057 1972
1057 1978
1057 2040
1057 2046
1057 2049
1057 2104
1057 2138
1057 2186
1057 2219
1057 2229
1057 2243
1057 2250
1057 2259
1057 2319
1057 2321
1057 2386
1057 2404
1057 2430
1057 2459
1057 2478
1057 2507
1057 2513
1057 2559
1057 2564
1057 2578
1057 2582
1057 2601
1057 2635
1057 2677
1057 2732
1057 2734
1057 2741
1057 2745
1057 2751
1057 2804
1057 2813
1057 2827
1057 2871
1057 2879
1057 2960
1057 2985
1057 3007
1057 3021
1057 3030
1057 3059
1057 3071
1057 3098
1057 3106
1057 3301
1057 3323
1057 3325
1057 3337
1057 3349
1057 3431
1057 3437
1057 3450
1057 3510
1057 3511
1057 3540
1057 3599
1057 3626
1057 3629
1057 3640
1057 3659
1057 3683
1057 3687
1057 3689
1057 3690
1057 3692
1057 3695
1057 3734
1057 3745
1058 1084
1058 1209
1058 1284
1058 1414
1058 1456
1058 1551
1058 1607
1058 1681
1058 1699
1058 1783
1058 1892
1058 2152
1058 2485
1058 2575
1058 2583
1058 2632
1058 2713
1058 2966
1058 3026
1058 3153
1058 3227
1058 3376
1058 3385
1058 3516
1058 3520
1058 3538
1058 3692
1058 3694
1058 3714
1059 1247
1059 1708
1059 2078
1059 2436
1059 2440
1059 3085
1060 1210
1060 1282
1060 1361
1060 1411
1060 1440
1060 1479
1060 1492
1060 1737
1060 1816
1060 1841
1060 1961
1060 1996
1060 2002
1060 2077
1060 2158
1060 2209
1060 2371
1060 2615
1060 2656
1060 2781
1060 2823
1060 2888
1060 2911
1060 2956
1060 3016
1060 3093
1060 3221
1060 3359
1060 3688
1060 3710
1060 3731
1061 1101
1061 1152
1061 1228
1061 1235
1061 1343
1061 1780
1061 1892
1061 1940
1061 2009
1061 2013
1061 2310
1061 2522
1061 3111
1061 3112
1061 3130
1061 3345
1062 1129
1062 1141
1062 1156
1062 1178
1062 1198
1062 1221
1062 1228
1062 1288
1062 1299
1062 1322
1062 1329
1062 1391
1062 1469
1062 1472
1062 1489
1062 1497
1062 1508
1062 1524
1062 1593
1062 1645
1062 1648
1062 1668
1062 1681
1062 1736
1062 1744
1062 1780
1062 1822
1062 1872
1062 1996
1062 2011
1062 2035
1062 2070
1062 2095
1062 2142
1062 2205
1062 2213
1062 2339
1062 2359
1062 2372
1062 2381
1062 2384
1062 2408
1062 2416
1062 2427
1062 2455
1062 2457
1062 2460
1062 2528
1062 2547
1062 2705
1062 2734
1062 2771
1062 2845
1062 2878
1062 2882
1062 2885
1062 2923
1062 2933
1062 2944
1062 2989
1062 2998
1062 3087
1062 3088
1062 3110
1062 3111
1062 3131
1062 3153
1062 3191
1062 3227
1062 3310
1062 3336
1062 3339
1062 3382
1062 3396
1062 3423
1062 3466
1062 3504
1062 3517
1062 3573
1062 3585
1062 3598
1062 3680
1062 3689
1062 3714
1062 3726
1062 3736
1063 1083
1063 1213
1063 1236
1063 1291
1063 1319
1063 1820
1063 2415
1063 2529
1063 2754
1063 2825
1063 2914
1063 2957
1063 2993
1063 3042
1063 3062
1063 3222
1063 3250
1063 3298
1063 3401
1063 3554
1064 1186
1064 1436
1064 1456
1064 1469
1064 1646
1064 1692
1064 1730
1064 1799
1064 1906
1064 2052
1064 2111
1064 2174
1064 2251
1064 2287
1064 2319
1064 2447
1064 2476
1064 2540
1064 2581
1064 2648
1064 2658
1064 2782
1064 2802
1064 2849
1064 2877
1064 3091
1064 3117
1064 3122
1064 3396
1064 3492
1064 3562
1064 3577
1065 1120
1065 1141
1065 1167
1065 1195
1065 1228
1065 1239
1065 1245
1065 1321
1065 1365
1065 1377
1065 1416
1065 1465
1065 1480
1065 1510
1065 1573
1065 1616
1065 1631
1065 1667
1065 1898
1065 2240
1065 2378
1065 2397
1065 2512
1065 2564
1065 2696
1065 2730
1065 2791
1065 3029
1065 3055
1065 3070
1065 3093
1065 3108
1065 3131
1065 3184
1065 3227
1065 3243
1065 3260
1065 3306
1065 3466
1065 3534
1065 3562
1065 3596
1065 3639
1065 3687
1065 3689
1065 3717
1065 3737
1066 1293
1066 1865
1066 2351
1066 2957
1066 3423
1066 3546
1067 1908
1067 2567
1068 1075
1068 1143
1068 1236
1068 1690
1068 2122
1068 2191
1068 2452
1068 2856
1068 2881
1068 3392
1068 3546
1068 3645
1069 3661
1070 1087
1070 1104
1070 1488
1070 1582
1070 1768
1070 1924
1070 1971
1070 1976
1070 1993
1070 2266
1070 2378
1070 2554
1070 2633
1070 2710
1070 2770
1070 3007
1070 3158
1070 3599
1070 3693
1071 1075
1071 1258
1071 1295
1071 1544
1071 1846
1071 2206
1071 2238
1071 2283
1071 2340
1071 2372
1071 2534
1071 2687
1071 2706
1071 2723
1071 2803
1071 2956
1071 2972
1071 3190
1071 3342
1071 3360
1071 3376
1071 3426
1071 3476
1071 3702
1072 1087
1072 1097
1072 1149
1072 1211
1072 1458
1072 1475
1072 1537
1072 1546
1072 1583
1072 1588
1072 1597
1072 1644
1072 1685
1072 1688
1072 1729
1072 1825
1072 1843
1072 1912
1072 1956
1072 2001
1072 2042
1072 2068
1072 2094
1072 2112
1072 2168
1072 2176
1072 2225
1072 2290
1072 2369
1072 2390
1072 2412
1072 2469
1072 2479
1072 2498
1072 2510
1072 2517
1072 2521
1072 2601
1072 2609
1072 2636
1072 2659
1072 2730
1072 2755
1072 2804
1072 2842
1072 2895
1072 2942
1072 3007
1072 3021
1072 3086
1072 3116
1072 3138
1072 3152
1072 3178
1072 3183
1072 3184
1072 3227
1072 3258
1072 3274
1072 3339
1072 3386
1072 3399
1072 3417
1072 3430
1072 3450
1072 3465
1072 3557
1072 3624
1072 3640
1073 1100
1073 1164
1073 1174
1073 1195
1073 1250
1073 1288
1073 1334
1073 1366
1073 1371
1073 1400
1073 1416
1073 1487
1073 1489
1073 1501
1073 1521
1073 1571
1073 1583
1073 1668
1073 1844
1073 1848
1073 1854
1073 1863
1073 1876
1073 1921
1073 1959
1073 1972
1073 2016
1073 2240
1073 2254
1073 2265
1073 2337
1073 2430
1073 2445
1073 2507
1073 2564
1073 2578
1073 2588
1073 2703
1073 2721
1073 2766
1073 2791
1073 2848
1073 2850
1073 3047
1073 3071
1073 3101
1073 3125
1073 3145
1073 3209
1073 3220
1073 3243
1073 3259
1073 3349
1073 3386
1073 3395
1073 3415
1073 3426
1073 3444
1073 3521
1073 3544
1073 3675
1073 3676
1073 3682
1073 3721
1074 1620
1074 2243
1074 2671
1074 3321
1075 1195
1075 1211
1075 1298
1075 1321
1075 1322
1075 1326
1075 1346
1075 1390
1075 1406
1075 1459
1075 1465
1075 1476
1075 1497
1075 1510
1075 1522
1075 1549
1075 1567
1075 1569
1075 1667
1075 1681
1075 1697
1075 1699
1075 1725
1075 1729
1075 1877
1075 1912
1075 1971
1075 1978
1075 1987
1075 2016
1075 2079
1075 2091
1075 2105
1075 2131
1075 2134
1075 2219
1075 2233
1075 2235
1075 2306
1075 2363
1075 2412
1075 2421
1075 2428
1075 2438
1075 2473
1075 2522
1075 2599
1075 2620
1075 2635
1075 2649
1075 2665
1075 2696
1075 2699
1075 2745
1075 2755
1075 2780
1075 2783
1075 2827
1075 2838
1075 2842
1075 2856
1075 2906
1075 2960
1075 2988
1075 3026
1075 3043
1075 3045
1075 3121
1075 3161
1075 3164
1075 3171
1075 3184
1075 3191
1075 3193
1075 3210
1075 3227
1075 3245
1075 3261
1075 3272
1075 3312
1075 3336
1075 3383
1075 3415
1075 3452
1075 3466
1075 3531
1075 3547
1075 3599
1075 3601
1075 3626
1075 3629
1075 3641
1075 3692
1075 3724
1075 3735
1076 1086
1076 1502
1076 2028
1076 2153
1076 2656
1076 2771
1076 3353
1076 3546
1077 1484
1077 2135
1077 2194
1077 2437
1077 2841
1077 3222
1077 3251
1077 3271
1077 3420
1077 3495
1078 1087
1078 1330
1078 1539
1078 1546
1078 1597
1078 1688
1078 1708
1078 1800
1078 1969
1078 2114
1078 2154
1078 2511
1078 2710
1078 2731
1078 2859
1078 2986
1078 3007
1078 3021
1078 3248
1078 3399
1078 3469
1078 3470
1078 3571
1078 3597
1079 1236
1079 1247
1079 1446
1079 1708
1079 1820
1079 2217
1079 2255
1079 2334
1079 2440
1079 2573
1079 2694
1079 2776
1079 2875
1079 3021
1079 3196
1079 3255
1079 3275
1079 3546
1080 1295
1080 1905
1080 3254
1081 1122
1081 1469
1081 1599
1081 1691
1081 1698
1081 1748
1081 1817
1081 1875
1081 2109
1081 2129
1081 2165
1081 2250
1081 2267
1081 2581
1081 2667
1081 2678
1081 2710
1081 2861
1081 2984
1081 2988
1081 3150
1081 3454
1081 3601
1081 3632
1081 3641
1081 3722
1082 1103
1082 1125
1082 1133
1082 1174
1082 1228
1082 1282
1082 1313
1082 1341
1082 1357
1082 1361
1082 1368
1082 1411
1082 1419
1082 1427
1082 1452
1082 1492
1082 1524
1082 1530
1082 1593
1082 1681
1082 1725
1082 1737
1082 1750
1082 1799
1082 1816
1082 1825
1082 1841
1082 1855
1082 1962
1082 1981
1082 2002
1082 2046
1082 2059
1082 2077
1082 2092
1082 2098
1082 2146
1082 2170
1082 2333
1082 2356
1082 2371
1082 2392
1082 2399
1082 2400
1082 2406
1082 2438
1082 2513
1082 2536
1082 2543
1082 2564
1082 2568
1082 2574
1082 2580
1082 2588
1082 2591
1082 2628
1082 2656
1082 2661
1082 2769
1082 2771
1082 2773
1082 2781
1082 2809
1082 2822
1082 2823
1082 2827
1082 2885
1082 2888
1082 2890
1082 2911
1082 2914
1082 2917
1082 2941
1082 2954
1082 2956
1082 2957
1082 2962
1082 2979
1082 2998
1082 3010
1082 3012
1082 3015
1082 3021
1082 3042
1082 3062
1082 3070
1082 3075
1082 3087
1082 3093
1082 3128
1082 3150
1082 3166
1082 3194
1082 3241
1082 3278
1082 3282
1082 3311
1082 3337
1082 3359
1082 3376
1082 3382
1082 3412
1082 3413
1082 3456
1082 3466
1082 3491
1082 3516
1082 3548
1082 3563
1082 3618
1082 3626
1082 3661
1082 3695
1082 3696
1082 3710
1082 3746
1083 2886
1083 2914
1083 2975
1083 3175
1083 3580
1084 1225
1084 1410
1084 1775
1084 2713
1084 3016
1084 3194
1084 3377
1085 1097
1085 1114
1085 1118
1085 1121
1085 1164
1085 1239
1085 1292
1085 1322
1085 1333
1085 1334
1085 1337
1085 1374
1085 1458
1085 1475
1085 1501
1085 1533
1085 1537
1085 1564
1085 1597
1085 1618
1085 1660
1085 1674
1085 1725
1085 1729
1085 1777
1085 1788
1085 1799
1085 1846
1085 1912
1085 1918
1085 1967
1085 2001
1085 2016
1085 2041
1085 2042
1085 2064
1085 2079
1085 2112
1085 2125
1085 2138
1085 2168
1085 2174
1085 2262
1085 2268
1085 2290
1085 2313
1085 2319
1085 2327
1085 2358
1085 2369
1085 2390
1085 2412
1085 2423
1085 2469
1085 2474
1085 2478
1085 2503
1085 2507
1085 2510
1085 2535
1085 2538
1085 2556
1085 2636
1085 2710
1085 2755
1085 2804
1085 2842
1085 2850
1085 2895
1085 2940
1085 2978
1085 3000
1085 3021
1085 3029
1085 3086
1085 3107
1085 3116
1085 3129
1085 3138
1085 3161
1085 3171
1085 3180
1085 3220
1085 3301
1085 3328
1085 3339
1085 3349
1085 3370
1085 3404
1085 3415
1085 3450
1085 3531
1085 3557
1085 3599
1085 3630
1085 3640
1085 3659
1086 1236
1086 1983
1086 2028
1086 2153
1086 2771
1086 3298
1086 3374
1086 3413
1087 1097
1087 1098
1087 1174
1087 1320
1087 1488
1087 1514
1087 1526
1087 1537
1087 1578
1087 1582
1087 1583
1087 1597
1087 1622
1087 1624
1087 1631
1087 1687
1087 1724
1087 1725
1087 1768
1087 1813
1087 1843
1087 1848
1087 1863
1087 1879
1087 1912
1087 1924
1087 1971
1087 1972
1087 1976
1087 1978
1087 2004
1087 2016
1087 2025
1087 2040
1087 2049
1087 2078
1087 2160
1087 2186
1087 2188
1087 2217
1087 2229
1087 2243
1087 2250
1087 2251
1087 2321
1087 2378
1087 2404
1087 2410
1087 2459
1087 2469
1087 2513
1087 2521
1087 2554
1087 2569
1087 2582
1087 2601
1087 2666
1087 2703
1087 2741
1087 2763
1087 2782
1087 2796
1087 2797
1087 2813
1087 2821
1087 2867
1087 2895
1087 2956
1087 3007
1087 3012
1087 3021
1087 3030
1087 3059
1087 3071
1087 3086
1087 3098
1087 3138
1087 3257
1087 3297
1087 3301
1087 3309
1087 3332
1087 3337
1087 3349
1087 3399
1087 3415
1087 3417
1087 3431
1087 3433
1087 3450
1087 3465
1087 3510
1087 3511
1087 3683
1087 3687
1087 3693
1087 3726
1087 3734
1087 3745
1088 1717
1088 2161
1088 2598
1088 3120
1088 3414
1088 3464
1089 1225
1089 1383
1089 1440
1089 1544
1089 1775
1089 1837
1089 1879
1089 1946
1089 2003
1089 2110
1089 2341
1089 2413
1089 2578
1089 2585
1089 2683
1089 2751
1089 2817
1089 2884
1089 2891
1089 2907
1089 2921
1089 2925
1089 2956
1089 2973
1089 2985
1089 3016
1089 3209
1089 3293
1089 3312
1089 3345
1089 3437
1089 3476
1089 3616
1089 3736
1090 2629
1091 1235
1091 1318
1091 1357
1091 1532
1091 1577
1091 1661
1091 1682
1091 1797
1091 1893
1091 2034
1091 2071
1091 2084
1091 2238
1091 2245
1091 2309
1091 2461
1091 2573
1091 2625
1091 2627
1091 2790
1091 2808
1091 2812
1091 2865
1091 3265
1091 3335
1091 3364
1091 3426
1091 3478
1091 3535
1091 3544
1091 3562
1091 3575
1091 3594
1092 1710
1092 2287
1092 2517
1092 2699
1092 2956
1092 3094
1092 3437
1092 3482
1092 3578
1092 3642
1093 1171
1093 1372
1093 1509
1093 1653
1093 2017
1093 2030
1093 2161
1093 2271
1093 2646
1093 2674
1093 2926
1093 2935
1093 3375
1093 3419
1093 3658
1093 3678
1094 1178
1094 1222
1094 1430
1094 1972
1094 2046
1094 2071
1094 2139
1094 2300
1094 2406
1094 2514
1094 2543
1094 2605
1094 2777
1094 2795
1094 2808
1094 2819
1094 2973
1094 2979
1094 3021
1094 3230
1094 3296
1094 3385
1094 3412
1094 3478
1094 3486
1094 3575
1094 3704
1095 1104
1095 1206
1095 1275
1095 1360
1095 1401
1095 1479
1095 1660
1095 1673
1095 1687
1095 2215
1095 2386
1095 2445
1095 2625
1095 2732
1095 2813
1095 2867
1095 3007
1095 3158
1095 3191
1095 3332
1095 3441
1095 3626
1095 3661
1096 1111
1096 1194
1096 1288
1096 1346
1096 1360
1096 1528
1096 1585
1096 1686
1096 1814
1096 1863
1096 1867
1096 2004
1096 2012
1096 2025
1096 2128
1096 2254
1096 2325
1096 2330
1096 2564
1096 2578
1096 2583
1096 2622
1096 2666
1096 2708
1096 2751
1096 2997
1096 3145
1096 3193
1096 3212
1096 3227
1096 3297
1096 3364
1096 3430
1096 3466
1096 3473
1096 3585
1096 3695
1096 3696
1096 3705
1097 1256
1097 1268
1097 1458
1097 1475
1097 1526
1097 1537
1097 1546
1097 1568
1097 1597
1097 1685
1097 1688
1097 1805
1097 1822
1097 1843
1097 1912
1097 1956
1097 1967
1097 2034
1097 2042
1097 2059
1097 2068
1097 2094
1097 2104
1097 2112
1097 2158
1097 2160
1097 2176
1097 2225
1097 2329
1097 2369
1097 2390
1097 2490
1097 2601
1097 2677
1097 2746
1097 2755
1097 2821
1097 2895
1097 2941
1097 3007
1097 3021
1097 3086
1097 3129
1097 3152
1097 3182
1097 3183
1097 3258
1097 3274
1097 3316
1097 3364
1097 3393
1097 3399
1097 3430
1097 3450
1097 3510
1097 3597
1097 3638
1097 3639
1097 3640
1097 3641
1097 3744
1098 1444
1098 1483
1098 1600
1098 1784
1098 1825
1098 1856
1098 2104
1098 2148
1098 2163
1098 2353
1098 2553
1098 2727
1098 2770
1098 2782
1098 2804
1098 2866
1098 3021
1098 3161
1098 3203
1098 3332
1098 3466
1098 3692
1098 3693
1099 1263
1099 1544
1099 1661
1099 2009
1099 2019
1099 2098
1099 2300
1099 2801
1099 3359
1099 3514
1099 3678
1100 1290
1100 1321
1100 1334
1100 1365
1100 1371
1100 1465
1100 1471
1100 1557
1100 1567
1100 1583
1100 1618
1100 1724
1100 1929
1100 1930
1100 1959
1100 1972
1100 2133
1100 2174
1100 2219
1100 2533
1100 2571
1100 2620
1100 2622
1100 2664
1100 2721
1100 2745
1100 2869
1100 2907
1100 2944
1100 2960
1100 2995
1100 3075
1100 3097
1100 3121
1100 3227
1100 3259
1100 3349
1100 3373
1100 3386
1100 3395
1100 3415
1100 3440
1100 3547
1100 3603
1100 3675
1100 3702
1100 3734
1101 1102
1101 1191
1101 1238
1101 1296
1101 1410
1101 1469
1101 1516
1101 1580
1101 1681
1101 1764
1101 1797
1101 1942
1101 1962
1101 2013
1101 2080
1101 2122
1101 2179
1101 2237
1101 2250
1101 2337
1101 2406
1101 2460
1101 2502
1101 2527
1101 2648
1101 2689
1101 2693
1101 2706
1101 2822
1101 3006
1101 3059
1101 3066
1101 3148
1101 3151
1101 3246
1101 3359
1101 3392
1101 3424
1101 3528
1101 3538
1101 3544
1101 3637
1101 3662
1101 3664
1101 3695
1101 3696
1102 1170
1102 1220
1102 1679
1102 2689
1102 3128
1102 3148
1102 3382
1102 3704
1103 1163
1103 1565
1103 1634
1103 1893
1103 1908
1103 2226
1103 2591
1103 2795
1103 2956
1103 2973
1103 2979
1103 3117
1103 3150
1103 3187
1103 3251
1103 3278
1103 3456
1103 3548
1103 3664
1104 1150
1104 1217
1104 1258
1104 1372
1104 1444
1104 1547
1104 1582
1104 1597
1104 1603
1104 1673
1104 1687
1104 1717
1104 1811
1104 1843
1104 1856
1104 1867
1104 1928
1104 1969
1104 2049
1104 2083
1104 2114
1104 2138
1104 2160
1104 2184
1104 2263
1104 2269
1104 2341
1104 2386
1104 2396
1104 2431
1104 2452
1104 2459
1104 2464
1104 2473
1104 2554
1104 2601
1104 2625
1104 2660
1104 2677
1104 2687
1104 2707
1104 2737
1104 2755
1104 2789
1104 2825
1104 2840
1104 2986
1104 3007
1104 3021
1104 3081
1104 3098
1104 3135
1104 3163
1104 3176
1104 3248
1104 3262
1104 3317
1104 3441
1104 3465
1104 3481
1104 3510
1104 3546
1104 3677
1105 1135
1105 1811
1105 2022
1105 2419
1105 2511
1105 2915
1105 3031
1105 3420
1106 1228
1106 1315
1106 1324
1106 2010
1106 2243
1106 2606
1106 2676
1106 2782
1106 3261
1106 3291
1106 3634
1107 1157
1107 1267
1107 1321
1107 1359
1107 1477
1107 1585
1107 1641
1107 1724
1107 1745
1107 1822
1107 1917
1107 2188
1107 2235
1107 2271
1107 2400
1107 2485
1107 2665
1107 2933
1107 3041
1107 3094
1107 3503
1107 3745
1108 2212
1108 2372
1108 2422
1108 2861
1108 3431
1108 3500
1108 3509
1109 1134
1109 1191
1109 1439
1109 1446
1109 1452
1109 1491
1109 1505
1109 1522
1109 1689
1109 1734
1109 1814
1109 1837
1109 1875
1109 1911
1109 1925
1109 2029
1109 2212
1109 2323
1109 2372
1109 2419
1109 2473
1109 2544
1109 2548
1109 2552
1109 2700
1109 2840
1109 2907
1109 2915
1109 2973
1109 3075
1109 3120
1109 3218
1109 3224
1109 3242
1109 3364
1109 3510
1109 3536
1109 3575
1109 3656
1110 1127
1110 1164
1110 1195
1110 1277
1110 1465
1110 1570
1110 1848
1110 1972
1110 2016
1110 2075
1110 2133
1110 2240
1110 2401
1110 2430
1110 2546
1110 2608
1110 2721
1110 2745
1110 2817
1110 2848
1110 2936
1110 3259
1110 3293
1110 3444
1110 3619
1110 3674
1111 1125
1111 1161
1111 1198
1111 1299
1111 1314
1111 1322
1111 1352
1111 1382
1111 1451
1111 1497
1111 1578
1111 1598
1111 1631
1111 1801
1111 1855
1111 1868
1111 1954
1111 2146
1111 2298
1111 2308
1111 2400
1111 2423
1111 2508
1111 2564
1111 2601
1111 2666
1111 2959
1111 2962
1111 2998
1111 3143
1111 3211
1111 3339
1111 3439
1111 3466
1111 3585
1111 3640
1111 3654
1111 3716
1112 2763
1112 2908
1112 3148
1112 3179
1112 3538
1113 1184
1113 1346
1113 1671
1113 1679
1113 1725
1113 1848
1113 2162
1113 2949
1113 3171
1113 3177
1113 3276
1113 3412
1113 3433
1113 3724
1114 1245
1114 1316
1114 1322
1114 1334
1114 1389
1114 1402
1114 1406
1114 1465
1114 1498
1114 1549
1114 1574
1114 1618
1114 1621
1114 1639
1114 1724
1114 1761
1114 1775
1114 1954
1114 2079
1114 2111
1114 2174
1114 2201
1114 2235
1114 2262
1114 2276
1114 2319
1114 2327
1114 2412
1114 2430
1114 2501
1114 2512
1114 2528
1114 2551
1114 2559
1114 2619
1114 2648
1114 2655
1114 2688
1114 2804
1114 2838
1114 2916
1114 2944
1114 2985
1114 3040
1114 3045
1114 3068
1114 3101
1114 3113
1114 3164
1114 3220
1114 3227
1114 3245
1114 3396
1114 3404
1114 3514
1114 3531
1114 3599
1114 3601
1114 3659
1114 3717
1114 3718
1114 3734
1115 1394
1115 1683
1115 1900
1115 2382
1115 3088
1115 3459
1115 3507
1116 1121
1116 1141
1116 1186
1116 1195
1116 1210
1116 1321
1116 1334
1116 1336
1116 1377
1116 1471
1116 1495
1116 1526
1116 1589
1116 1728
1116 1754
1116 1785
1116 1788
1116 1825
1116 1848
1116 1918
1116 1924
1116 1961
1116 2016
1116 2026
1116 2041
1116 2125
1116 2158
1116 2256
1116 2378
1116 2445
1116 2478
1116 2512
1116 2703
1116 2730
1116 2767
1116 2774
1116 2791
1116 2804
1116 2808
1116 2871
1116 2911
1116 2961
1116 3015
1116 3096
1116 3183
1116 3386
1116 3415
1116 3426
1116 3466
1116 3540
1116 3575
1116 3689
1116 3731
1117 1153
1117 1157
1117 1245
1117 1340
1117 1372
1117 1417
1117 1543
1117 1548
1117 1691
1117 1714
1117 1725
1117 1733
1117 1827
1117 2042
1117 2243
1117 2298
1117 2388
1117 2416
1117 2424
1117 2479
1117 2485
1117 2507
1117 2517
1117 2594
1117 2636
1117 2665
1117 2699
1117 2792
1117 2861
1117 2940
1117 2985
1117 3021
1117 3072
1117 3094
1117 3213
1117 3244
1117 3264
1117 3356
1117 3484
1117 3504
1117 3513
1117 3517
1117 3557
1117 3572
1117 3578
1117 3601
1117 3650
1118 1208
1118 1334
1118 1374
1118 1799
1118 1823
1118 1902
1118 2041
1118 2079
1118 2111
1118 2262
1118 2319
1118 2327
1118 2688
1118 2749
1118 2843
1118 3066
1118 3220
1118 3408
1118 3415
1118 3645
1118 3659
1119 1158
1119 1490
1119 1507
1119 1526
1119 1644
1119 1685
1119 1695
1119 1818
1119 1867
1119 1894
1119 2115
1119 2233
1119 2319
1119 2337
1119 2359
1119 2401
1119 2554
1119 2594
1119 3072
1119 3181
1119 3210
1119 3231
1119 3240
1119 3364
1119 3412
1119 3449
1119 3518
1119 3538
1119 3562
1119 3613
1119 3619
1119 3704
1119 3715
1120 1141
1120 1163
1120 1167
1120 1357
1120 1377
1120 1613
1120 1631
1120 1667
1120 1797
1120 1845
1120 1898
1120 1925
1120 2217
1120 2246
1120 2696
1120 2815
1120 2884
1120 2967
1120 2973
1120 2981
1120 3018
1120 3037
1120 3055
1120 3093
1120 3108
1120 3131
1120 3132
1120 3227
1120 3242
1120 3306
1120 3323
1120 3538
1120 3562
1120 3596
1120 3687
1120 3695
1120 3703
1120 3719
1120 3737
1121 1164
1121 1174
1121 1178
1121 1195
1121 1211
1121 1239
1121 1254
1121 1265
1121 1290
1121 1314
1121 1320
1121 1321
1121 1333
1121 1334
1121 1336
1121 1338
1121 1346
1121 1377
1121 1390
1121 1416
1121 1458
1121 1465
1121 1471
1121 1487
1121 1495
1121 1497
1121 1530
1121 1533
1121 1549
1121 1557
1121 1567
1121 1583
1121 1589
1121 1703
1121 1720
1121 1728
1121 1761
1121 1788
1121 1813
1121 1822
1121 1833
1121 1838
1121 1848
1121 1853
1121 1867
1121 1911
1121 1929
1121 1971
1121 1972
1121 1993
1121 2004
1121 2016
1121 2026
1121 2040
1121 2068
1121 2087
1121 2104
1121 2105
1121 2125
1121 2218
1121 2219
1121 2225
1121 2235
1121 2292
1121 2308
1121 2321
1121 2324
1121 2358
1121 2359
1121 2378
1121 2404
1121 2424
1121 2478
1121 2492
1121 2507
1121 2551
1121 2582
1121 2640
1121 2664
1121 2745
1121 2755
1121 2766
1121 2787
1121 2791
1121 2804
1121 2819
1121 2856
1121 2858
1121 2871
1121 2879
1121 2944
1121 2980
1121 2998
1121 3021
1121 3029
1121 3047
1121 3068
1121 3070
1121 3075
1121 3096
1121 3098
1121 3116
1121 3136
1121 3139
1121 3147
1121 3180
1121 3245
1121 3259
1121 3272
1121 3325
1121 3339
1121 3349
1121 3366
1121 3386
1121 3415
1121 3449
1121 3458
1121 3466
1121 3477
1121 3478
1121 3510
1121 3518
1121 3534
1121 3540
1121 3549
1121 3592
1121 3599
1121 3619
1121 3635
1121 3648
1121 3689
1121 3734
1121 3735
1122 1513
1122 1518
1122 1681
1122 1817
1122 1875
1122 1922
1122 2035
1122 2280
1122 2498
1122 2675
1122 2984
1122 3263
1122 3320
1122 3704
1123 1234
1123 1337
1123 2004
1123 2690
1123 2707
1123 2727
1123 2755
1123 2770
1123 2867
1123 3149
1123 3274
1123 3315
1124 1194
1124 1372
1124 1644
1124 2060
1124 2115
1124 2332
1124 2488
1124 2526
1124 2569
1124 2725
1124 2752
1124 3066
1124 3128
1124 3257
1124 3260
1124 3326
1124 3339
1124 3473
1125 1235
1125 1307
1125 1469
1125 1477
1125 1505
1125 1544
1125 1773
1125 1855
1125 1893
1125 1954
1125 2046
1125 2138
1125 2146
1125 2238
1125 2320
1125 2337
1125 2355
1125 2400
1125 2882
1125 2956
1125 2962
1125 3128
1125 3211
1125 3528
1125 3594
1125 3639
1125 3716
1126 1667
1126 2217
1126 2790
1126 3667
1127 1225
1127 1383
1127 1570
1127 1996
1127 2442
1127 2546
1127 2553
1127 2622
1127 2656
1127 2680
1127 2817
1127 2869
1127 2907
1127 2936
1127 2956
1127 2975
1127 3206
1127 3293
1129 1186
1129 1285
1129 1298
1129 1365
1129 1390
1129 1419
1129 1457
1129 1465
1129 1510
1129 1518
1129 1549
1129 1557
1129 1578
1129 1670
1129 1681
1129 1723
1129 1761
1129 1838
1129 1918
1129 1972
1129 1987
1129 2008
1129 2295
1129 2316
1129 2325
1129 2349
1129 2414
1129 2455
1129 2605
1129 2607
1129 2620
1129 2647
1129 2649
1129 2666
1129 2766
1129 2783
1129 2843
1129 2944
1129 2971
1129 2999
1129 3153
1129 3191
1129 3264
1129 3301
1129 3336
1129 3339
1129 3437
1129 3466
1129 3562
1129 3630
1129 3735
1130 1198
1130 1204
1130 1239
1130 1241
1130 1321
1130 1505
1130 1530
1130 1627
1130 1687
1130 1812
1130 1822
1130 1890
1130 1928
1130 1971
1130 2014
1130 2158
1130 2212
1130 2270
1130 2346
1130 2357
1130 2423
1130 2430
1130 2452
1130 2492
1130 2550
1130 2640
1130 2664
1130 2709
1130 2751
1130 2787
1130 2791
1130 2825
1130 2845
1130 2856
1130 2944
1130 2962
1130 2967
1130 3015
1130 3047
1130 3066
1130 3070
1130 3139
1130 3147
1130 3176
1130 3199
1130 3257
1130 3272
1130 3296
1130 3366
1130 3431
1130 3441
1130 3466
1130 3499
1130 3534
1130 3585
1130 3609
1130 3635
1130 3714
1130 3718
1131 1235
1131 1244
1131 1312
1131 1580
1131 1849
1131 2121
1131 2238
1131 2516
1131 2544
1131 2556
1131 2815
1131 2861
1131 3306
1131 3382
1131 3687
1132 1183
1132 1456
1132 1477
1132 1687
1132 1853
1132 1931
1132 2034
1132 2090
1132 2299
1132 2485
1132 2665
1132 2666
1132 2769
1132 2852
1132 2978
1132 3071
1132 3075
1132 3107
1132 3204
1132 3397
1132 3641
1132 3695
1133 1340
1133 1391
1133 1472
1133 1543
1133 1585
1133 1675
1133 1700
1133 1710
1133 1714
1133 1733
1133 1799
1133 1822
1133 1941
1133 1950
1133 1981
1133 2008
1133 2052
1133 2059
1133 2098
1133 2116
1133 2142
1133 2201
1133 2325
1133 2367
1133 2416
1133 2438
1133 2460
1133 2564
1133 2665
1133 2708
1133 2734
1133 2792
1133 2827
1133 2933
1133 2940
1133 2974
1133 3010
1133 3015
1133 3070
1133 3075
1133 3094
1133 3128
1133 3264
1133 3337
1133 3348
1133 3466
1133 3484
1133 3491
1133 3572
1133 3578
1133 3642
1133 3649
1133 3650
1133 3680
1133 3695
1133 3745
1134 1141
1134 1218
1134 1321
1134 1369
1134 1419
1134 1429
1134 1495
1134 1501
1134 1526
1134 1557
1134 1568
1134 1578
1134 1613
1134 1667
1134 1689
1134 1754
1134 1870
1134 2024
1134 2158
1134 2188
1134 2219
1134 2320
1134 2408
1134 2438
1134 2478
1134 2615
1134 2640
1134 2648
1134 2655
1134 2703
1134 2808
1134 2960
1134 2980
1134 3015
1134 3021
1134 3073
1134 3075
1134 3098
1134 3175
1134 3234
1134 3239
1134 3349
1134 3389
1134 3485
1134 3497
1134 3562
1134 3578
1134 3633
1134 3639
1134 3649
1134 3661
1134 3669
1134 3689
1134 3695
1135 1303
1135 1444
1135 2022
1135 2137
1135 2238
1135 2350
1135 2356
1135 2541
1135 2665
1135 2706
1135 2772
1135 2829
1135 2915
1135 3216
1135 3413
1136 1180
1136 1448
1136 1741
1136 1954
1136 1997
1136 2530
1136 2589
1136 2962
1136 3252
1136 3553
1136 3684
1136 3716
1137 1156
1137 1225
1137 1230
1137 1403
1137 1476
1137 1632
1137 1648
1137 1677
1137 1939
1137 2052
1137 2095
1137 2133
1137 2210
1137 2323
1137 2447
1137 2542
1137 2544
1137 2605
1137 2622
1137 2624
1137 2680
1137 2807
1137 2817
1137 2869
1137 2907
1137 2911
1137 2956
1137 2975
1137 3121
1137 3128
1137 3151
1137 3372
1137 3384
1137 3461
1137 3603
1137 3636
1137 3682
1137 3702
1137 3742
1138 1662
1138 1689
1138 1740
1138 2181
1138 2203
1138 2334
1138 2440
1138 2776
1138 3031
1138 3487
1139 1274
1139 2300
1139 2809
1139 3012
1139 3071
1140 1293
1140 1596
1140 1913
1140 2729
1140 3545
1141 1167
1141 1195
1141 1218
1141 1273
1141 1285
1141 1290
1141 1305
1141 1321
1141 1359
1141 1366
1141 1369
1141 1377
1141 1402
1141 1425
1141 1471
1141 1480
1141 1487
1141 1495
1141 1501
1141 1567
1141 1578
1141 1631
1141 1667
1141 1703
1141 1723
1141 1788
1141 1809
1141 1870
1141 1898
1141 1918
1141 1924
1141 1941
1141 1959
1141 1972
1141 2016
1141 2024
1141 2033
1141 2087
1141 2125
1141 2129
1141 2134
1141 2188
1141 2190
1141 2218
1141 2264
1141 2287
1141 2290
1141 2295
1141 2320
1141 2326
1141 2352
1141 2378
1141 2430
1141 2438
1141 2455
1141 2478
1141 2497
1141 2507
1141 2508
1141 2512
1141 2513
1141 2533
1141 2564
1141 2593
1141 2644
1141 2649
1141 2655
1141 2696
1141 2703
1141 2745
1141 2791
1141 2808
1141 2906
1141 2923
1141 2944
1141 2960
1141 2980
1141 2995
1141 3075
1141 3091
1141 3098
1141 3106
1141 3131
1141 3139
1141 3164
1141 3245
1141 3259
1141 3312
1141 3335
1141 3349
1141 3359
1141 3373
1141 3386
1141 3440
1141 3477
1141 3478
1141 3497
1141 3520
1141 3547
1141 3562
1141 3613
1141 3630
1141 3648
1141 3661
1141 3666
1141 3669
1141 3685
1141 3689
1141 3695
1142 1298
1142 1359
1142 1606
1142 2140
1142 2400
1142 2608
1142 3312
1142 3720
1143 1236
1143 1820
1143 2279
1143 2328
1143 3081
1144 1152
1144 1296
1144 1373
1144 1444
1144 1483
1144 1719
1144 1866
1144 1908
1144 1923
1144 2009
1144 2013
1144 2045
1144 2069
1144 2163
1144 2246
1144 2353
1144 2520
1144 2567
1144 2604
1144 2693
1144 2805
1144 2864
1144 2866
1144 3037
1144 3111
1144 3181
1144 3203
1144 3305
1144 3345
1144 3358
1144 3407
1144 3546
1145 1482
1145 1644
1145 1652
1145 1863
1145 1979
1145 2115
1145 2811
1145 3412
1146 1346
1146 3482
1147 2300
1147 2317
1147 3266
1147 3712
1148 1526
1148 1624
1148 2703
1148 2808
1148 3309
1148 3511
1149 1568
1149 1597
1149 1660
1149 1729
1149 1754
1149 1788
1149 1864
1149 1959
1149 1972
1149 2001
1149 2033
1149 2064
1149 2138
1149 2168
1149 2264
1149 2289
1149 2295
1149 2345
1149 2412
1149 2455
1149 2510
1149 2511
1149 2521
1149 2528
1149 2538
1149 2617
1149 2730
1149 2791
1149 2842
1149 2866
1149 2882
1149 2906
1149 2919
1149 2940
1149 2973
1149 2975
1149 3000
1149 3015
1149 3021
1149 3097
1149 3138
1149 3143
1149 3203
1149 3207
1149 3224
1149 3349
1149 3469
1149 3522
1149 3547
1149 3557
1149 3599
1149 3624
1149 3630
1149 3666
1149 3689
1150 1308
1150 1432
1150 1503
1150 1597
1150 1660
1150 1799
1150 1843
1150 1924
1150 1928
1150 1958
1150 2104
1150 2269
1150 2386
1150 2554
1150 2601
1150 2659
1150 2677
1150 2690
1150 2707
1150 2727
1150 2737
1150 2755
1150 2770
1150 2842
1150 2867
1150 3007
1150 3021
1150 3098
1150 3149
1150 3274
1150 3332
1150 3510
1150 3514
1150 3561
1150 3624
1150 3626
1150 3692
1151 1299
1151 1402
1151 1403
1151 1412
1151 1613
1151 1706
1151 1773
1151 1845
1151 1879
1151 1916
1151 2034
1151 2209
1151 2210
1151 2212
1151 2232
1151 2310
1151 2364
1151 2443
1151 2471
1151 2474
1151 2531
1151 2544
1151 2597
1151 2604
1151 2605
1151 2710
1151 2791
1151 2807
1151 2808
1151 2810
1151 2956
1151 2967
1151 3027
1151 3207
1151 3237
1151 3278
1151 3456
1151 3575
1151 3628
1151 3664
1151 3686
1151 3687
1151 3702
1151 3711
1151 3741
1152 1888
1152 1908
1152 1923
1152 2009
1152 2030
1152 2045
1152 2520
1152 2567
1152 2570
1152 3305
1152 3345
1153 1245
1153 1340
1153 1366
1153 1419
1153 1501
1153 1543
1153 1548
1153 1710
1153 1733
1153 1777
1153 1827
1153 2004
1153 2052
1153 2265
1153 2276
1153 2388
1153 2397
1153 2416
1153 2469
1153 2479
1153 2517
1153 2528
1153 2547
1153 2594
1153 2612
1153 2649
1153 2665
1153 2699
1153 2845
1153 2852
1153 2861
1153 2940
1153 2944
1153 2956
1153 3072
1153 3094
1153 3213
1153 3264
1153 3284
1153 3322
1153 3336
1153 3339
1153 3482
1153 3484
1153 3504
1153 3513
1153 3572
1153 3575
1153 3578
1153 3650
1154 2534
1155 1168
1155 1198
1155 1223
1155 1286
1155 1321
1155 1365
1155 1409
1155 1416
1155 1465
1155 1471
1155 1497
1155 1510
1155 1530
1155 1549
1155 1567
1155 1569
1155 1630
1155 1761
1155 1770
1155 1814
1155 1929
1155 1948
1155 1994
1155 2001
1155 2059
1155 2219
1155 2221
1155 2236
1155 2291
1155 2308
1155 2316
1155 2326
1155 2336
1155 2365
1155 2403
1155 2414
1155 2418
1155 2430
1155 2455
1155 2551
1155 2620
1155 2640
1155 2745
1155 2783
1155 2791
1155 2810
1155 2849
1155 2879
1155 2956
1155 3008
1155 3015
1155 3023
1155 3070
1155 3139
1155 3153
1155 3169
1155 3191
1155 3227
1155 3253
1155 3260
1155 3272
1155 3366
1155 3386
1155 3466
1155 3477
1155 3515
1155 3553
1155 3558
1155 3562
1155 3575
1155 3601
1155 3611
1155 3617
1155 3629
1155 3711
1155 3721
1155 3737
1156 1178
1156 1179
1156 1200
1156 1221
1156 1228
1156 1231
1156 1235
1156 1247
1156 1259
1156 1335
1156 1383
1156 1415
1156 1469
1156 1477
1156 1590
1156 1604
1156 1607
1156 1645
1156 1648
1156 1674
1156 1744
1156 1780
1156 1822
1156 1873
1156 1897
1156 1908
1156 1996
1156 2011
1156 2028
1156 2035
1156 2042
1156 2054
1156 2095
1156 2187
1156 2205
1156 2212
1156 2222
1156 2238
1156 2284
1156 2372
1156 2374
1156 2388
1156 2424
1156 2442
1156 2493
1156 2514
1156 2522
1156 2542
1156 2596
1156 2626
1156 2628
1156 2687
1156 2732
1156 2748
1156 2776
1156 2826
1156 2844
1156 2845
1156 2857
1156 2869
1156 2878
1156 2982
1156 2989
1156 3002
1156 3004
1156 3011
1156 3028
1156 3058
1156 3090
1156 3112
1156 3137
1156 3142
1156 3249
1156 3296
1156 3342
1156 3355
1156 3358
1156 3389
1156 3396
1156 3413
1156 3423
1156 3426
1156 3453
1156 3496
1156 3507
1156 3536
1156 3573
1156 3578
1156 3589
1156 3598
1156 3736
1157 1710
1157 1920
1157 2016
1157 2034
1157 2042
1157 2052
1157 2276
1157 2369
1157 2469
1157 2479
1157 2485
1157 2507
1157 2517
1157 2528
1157 2636
1157 2665
1157 2699
1157 2792
1157 2845
1157 2956
1157 3077
1157 3094
1157 3161
1157 3244
1157 3444
1157 3482
1157 3513
1157 3578
1157 3736
1158 1507
1158 1644
1158 1695
1158 1725
1158 1748
1158 1867
1158 1966
1158 2115
1158 2455
1158 2483
1158 2498
1158 2583
1158 2629
1158 2902
1158 2947
1158 3010
1158 3092
1158 3184
1158 3518
1158 3613
1158 3619
1158 3716
1158 3718
1159 1391
1159 1566
1159 1822
1159 1837
1159 2009
1159 2046
1159 2113
1159 2165
1159 2178
1159 2188
1159 2373
1159 2416
1159 2460
1159 2463
1159 2583
1159 2682
1159 2777
1159 2907
1159 2985
1159 3257
1159 3304
1159 3376
1159 3466
1159 3585
1159 3683
1160 1443
1160 1609
1160 1894
1160 2019
1160 2248
1160 2453
1160 2754
1160 3609
1161 1200
1161 1522
1161 1793
1161 2107
1161 2390
1161 2877
1161 3608
1162 1316
1162 1830
1162 2032
1162 2122
1162 2293
1162 2323
1162 2460
1162 2514
1162 2593
1162 2689
1162 2851
1162 2881
1162 3006
1162 3479
1163 1326
1163 1459
1163 1470
1163 1654
1163 1667
1163 1721
1163 1750
1163 1854
1163 1862
1163 1877
1163 1893
1163 1984
1163 2066
1163 2081
1163 2186
1163 2194
1163 2205
1163 2217
1163 2387
1163 2444
1163 2790
1163 2884
1163 2907
1163 2973
1163 3018
1163 3034
1163 3037
1163 3055
1163 3074
1163 3096
1163 3110
1163 3228
1163 3251
1163 3288
1163 3306
1163 3416
1163 3465
1163 3564
1163 3667
1163 3719
1164 1186
1164 1195
1164 1250
1164 1288
1164 1321
1164 1334
1164 1338
1164 1360
1164 1416
1164 1487
1164 1489
1164 1501
1164 1521
1164 1522
1164 1589
1164 1656
1164 1668
1164 1686
1164 1703
1164 1854
1164 1863
1164 1876
1164 1921
1164 1929
1164 1972
1164 1992
1164 2003
1164 2004
1164 2012
1164 2016
1164 2024
1164 2125
1164 2133
1164 2144
1164 2229
1164 2240
1164 2254
1164 2265
1164 2276
1164 2321
1164 2323
1164 2337
1164 2445
1164 2473
1164 2507
1164 2512
1164 2564
1164 2578
1164 2588
1164 2608
1164 2703
1164 2705
1164 2721
1164 2741
1164 2745
1164 2751
1164 2766
1164 2804
1164 2808
1164 2848
1164 2850
1164 2869
1164 2889
1164 2959
1164 2963
1164 2980
1164 3020
1164 3047
1164 3071
1164 3098
1164 3101
1164 3116
1164 3125
1164 3145
1164 3209
1164 3220
1164 3243
1164 3259
1164 3288
1164 3297
1164 3310
1164 3330
1164 3337
1164 3386
1164 3410
1164 3426
1164 3521
1164 3544
1164 3575
1164 3623
1164 3639
1164 3674
1164 3675
1164 3676
1164 3682
1164 3721
1165 2203
1165 2567
1165 3333
1166 1809
1166 1920
1166 2144
1166 2600
1166 2948
1166 3045
1166 3619
1167 1357
1167 1377
1167 1480
1167 1510
1167 1616
1167 1667
1167 1822
1167 1898
1167 2066
1167 2378
1167 2441
1167 2588
1167 2696
1167 2744
1167 2774
1167 2791
1167 2815
1167 3010
1167 3029
1167 3055
1167 3070
1167 3108
1167 3131
1167 3227
1167 3306
1167 3319
1167 3562
1167 3596
1167 3719
1167 3737
1168 1195
1168 1321
1168 1331
1168 1333
1168 1416
1168 1471
1168 1487
1168 1557
1168 1601
1168 1613
1168 1622
1168 1630
1168 1663
1168 1667
1168 1680
1168 1681
1168 1703
1168 1734
1168 1863
1168 1929
1168 2034
1168 2035
1168 2138
1168 2219
1168 2221
1168 2229
1168 2245
1168 2324
1168 2368
1168 2409
1168 2418
1168 2438
1168 2533
1168 2553
1168 2555
1168 2571
1168 2615
1168 2617
1168 2620
1168 2703
1168 2719
1168 2745
1168 2787
1168 2791
1168 2907
1168 3068
1168 3075
1168 3102
1168 3136
1168 3185
1168 3234
1168 3242
1168 3259
1168 3349
1168 3373
1168 3445
1168 3449
1168 3466
1168 3534
1168 3575
1168 3617
1168 3712
1168 3721
1168 3734
1169 1345
1169 1386
1169 1515
1169 1661
1169 1670
1169 1758
1169 1808
1169 1867
1169 1875
1169 1897
1169 1908
1169 1919
1169 1996
1169 2135
1169 2161
1169 2187
1169 2219
1169 2282
1169 2299
1169 2347
1169 2356
1169 2406
1169 2419
1169 2438
1169 2461
1169 2467
1169 2474
1169 2568
1169 2795
1169 2819
1169 2956
1169 2988
1169 3018
1169 3075
1169 3076
1169 3078
1169 3095
1169 3098
1169 3234
1169 3249
1169 3389
1169 3628
1169 3664
1169 3675
1170 1173
1170 2370
1170 2567
1170 2777
1170 3148
1171 1220
1171 1223
1171 1244
1171 1259
1171 1293
1171 1642
1171 1853
1171 2035
1171 2496
1171 2498
1171 2522
1171 2835
1171 2852
1171 2877
1171 2948
1171 3397
1171 3456
1171 3741
1172 1220
1172 2025
1172 2792
1172 3059
1172 3482
1172 3504
1172 3650
1173 1256
1173 1357
1173 2323
1173 2473
1173 2571
1173 2907
1173 2960
1173 3182
1173 3438
1173 3716
1174 1288
1174 1293
1174 1321
1174 1416
1174 1427
1174 1450
1174 1487
1174 1510
1174 1526
1174 1567
1174 1568
1174 1593
1174 1631
1174 1667
1174 1724
1174 1805
1174 1825
1174 1848
1174 1879
1174 1898
1174 1972
1174 1978
1174 1981
1174 2016
1174 2040
1174 2186
1174 2229
1174 2249
1174 2250
1174 2251
1174 2299
1174 2321
1174 2404
1174 2508
1174 2513
1174 2515
1174 2582
1174 2703
1174 2721
1174 2729
1174 2741
1174 2751
1174 2804
1174 2848
1174 3030
1174 3125
1174 3150
1174 3161
1174 3183
1174 3323
1174 3325
1174 3337
1174 3349
1174 3415
1174 3444
1174 3450
1174 3518
1174 3618
1174 3683
1174 3687
1174 3721
1174 3737
1174 3745
1175 1704
1175 2038
1175 2230
1175 3234
1175 3405
1175 3516
1176 3518
1177 1263
1177 1350
1177 1439
1177 1518
1177 1544
1177 1565
1177 1651
1177 1789
1177 1997
1177 2090
1177 2116
1177 2149
1177 2171
1177 2271
1177 2337
1177 2416
1177 2607
1177 2609
1177 2630
1177 2646
1177 2710
1177 2752
1177 2861
1177 2907
1177 2981
1177 2994
1177 3007
1177 3057
1177 3066
1177 3118
1177 3249
1177 3382
1177 3501
1178 1200
1178 1275
1178 1401
1178 1450
1178 1458
1178 1465
1178 1469
1178 1497
1178 1533
1178 1598
1178 1648
1178 1687
1178 1734
1178 1762
1178 1773
1178 1814
1178 1838
1178 1896
1178 2025
1178 2068
1178 2079
1178 2162
1178 2250
1178 2350
1178 2363
1178 2412
1178 2441
1178 2455
1178 2474
1178 2492
1178 2512
1178 2513
1178 2514
1178 2515
1178 2522
1178 2698
1178 2763
1178 2804
1178 2808
1178 2842
1178 3007
1178 3015
1178 3059
1178 3101
1178 3118
1178 3153
1178 3161
1178 3168
1178 3261
1178 3276
1178 3296
1178 3313
1178 3404
1178 3426
1178 3431
1178 3466
1178 3521
1178 3528
1178 3547
1178 3598
1178 3661
1178 3687
1179 1280
1179 1391
1179 1460
1179 1469
1179 1614
1179 1648
1179 1747
1179 1885
1179 1934
1179 2035
1179 2055
1179 2090
1179 2150
1179 2395
1179 2564
1179 2566
1179 2878
1179 2969
1179 2989
1179 3002
1179 3013
1179 3268
1179 3281
1179 3463
1179 3535
1179 3539
1179 3573
1179 3598
1179 3610
1179 3612
1180 1360
1180 1448
1180 1564
1180 1640
1180 1732
1180 1801
1180 1903
1180 2004
1180 2308
1180 2538
1180 2589
1180 2667
1180 2728
1180 2944
1180 3171
1180 3252
1180 3276
1180 3338
1180 3382
1180 3433
1180 3550
1180 3553
1180 3690
1181 1244
1181 1323
1181 1363
1181 1431
1181 1575
1181 1640
1181 1732
1181 1837
1181 2126
1181 2139
1181 2284
1181 2387
1181 2516
1181 2520
1181 2522
1181 2667
1181 2806
1181 2815
1181 2897
1181 2941
1181 2973
1181 3022
1181 3080
1181 3136
1181 3181
1181 3382
1182 1763
1182 2181
1182 2263
1182 2338
1183 1292
1183 1401
1183 1477
1183 1565
1183 1619
1183 1725
1183 1853
1183 1879
1183 1914
1183 1931
1183 1934
1183 2034
1183 2035
1183 2219
1183 2333
1183 2387
1183 2485
1183 2522
1183 2534
1183 2625
1183 2665
1183 2666
1183 2750
1183 2769
1183 2808
1183 2827
1183 2852
1183 2978
1183 3098
1183 3107
1183 3140
1183 3163
1183 3169
1183 3194
1183 3390
1183 3397
1183 3510
1183 3575
1183 3585
1183 3600
1183 3692
1183 3695
1184 1679
1184 1920
1184 3466
1184 3612
1185 1225
1185 1277
1185 1661
1185 1681
1185 1948
1185 2069
1185 2528
1185 2567
1185 2613
1185 2678
1185 2684
1185 2818
1185 2944
1185 2988
1185 3103
1185 3147
1185 3167
1185 3169
1185 3247
1185 3514
1185 3573
1185 3581
1185 3586
1185 3641
1186 1195
1186 1227
1186 1286
1186 1288
1186 1321
1186 1377
1186 1416
1186 1419
1186 1471
1186 1489
1186 1501
1186 1510
1186 1522
1186 1526
1186 1557
1186 1567
1186 1618
1186 1723
1186 1725
1186 1754
1186 1791
1186 1809
1186 1824
1186 1828
1186 1848
1186 1855
1186 1863
1186 1876
1186 1898
1186 1902
1186 1918
1186 1959
1186 1972
1186 2012
1186 2014
1186 2170
1186 2210
1186 2219
1186 2221
1186 2240
1186 2250
1186 2282
1186 2287
1186 2337
1186 2445
1186 2460
1186 2474
1186 2508
1186 2553
1186 2564
1186 2578
1186 2588
1186 2631
1186 2668
1186 2683
1186 2703
1186 2745
1186 2751
1186 2766
1186 2772
1186 2791
1186 2804
1186 2808
1186 2848
1186 2912
1186 2944
1186 2962
1186 2964
1186 2971
1186 3021
1186 3029
1186 3047
1186 3068
1186 3071
1186 3125
1186 3145
1186 3153
1186 3158
1186 3247
1186 3253
1186 3259
1186 3272
1186 3292
1186 3349
1186 3359
1186 3370
1186 3462
1186 3476
1186 3521
1186 3534
1186 3544
1186 3549
1186 3562
1186 3573
1186 3575
1186 3623
1186 3639
1186 3675
1186 3689
1186 3696
1186 3717
1186 3734
1187 1613
1187 1646
1187 2233
1187 2559
1187 3124
1188 1983
1188 2061
1188 2642
1188 3031
1188 3271
1188 3421
1188 3746
1189 1251
1189 1366
1189 1534
1189 1549
1189 1646
1189 1858
1189 2080
1189 2265
1189 2295
1189 2397
1189 2419
1189 2559
1189 2771
1189 2990
1189 3124
1189 3146
1189 3336
1189 3347
1189 3575
1190 1944
1190 2474
1190 2838
1190 2981
1191 1325
1191 1522
1191 1777
1191 1942
1191 2178
1191 2250
1191 2333
1191 2372
1191 2631
1191 2696
1191 2792
1191 3108
1191 3595
1191 3664
1191 3665
1192 2206
1192 2303
1192 2452
1192 3201
1192 3460
1193 1210
1193 1336
1193 1369
1193 1737
1193 1841
1193 1961
1193 2371
1193 2595
1193 2656
1193 2730
1193 2749
1193 2767
1193 2823
1193 2888
1193 2911
1193 2956
1193 3093
1193 3150
1193 3278
1193 3689
1193 3731
1194 1288
1194 1389
1194 1460
1194 1585
1194 1631
1194 1973
1194 2060
1194 2128
1194 2176
1194 2325
1194 2330
1194 2438
1194 2526
1194 2612
1194 2666
1194 2751
1194 2852
1194 2858
1194 3010
1194 3128
1194 3257
1194 3339
1194 3700
1195 1250
1195 1254
1195 1286
1195 1288
1195 1290
1195 1321
1195 1333
1195 1346
1195 1365
1195 1377
1195 1400
1195 1406
1195 1465
1195 1471
1195 1480
1195 1489
1195 1501
1195 1510
1195 1521
1195 1567
1195 1616
1195 1618
1195 1656
1195 1667
1195 1668
1195 1703
1195 1725
1195 1728
1195 1754
1195 1761
1195 1788
1195 1809
1195 1848
1195 1863
1195 1876
1195 1902
1195 1918
1195 1929
1195 1930
1195 1959
1195 1972
1195 2012
1195 2048
1195 2144
1195 2204
1195 2210
1195 2219
1195 2236
1195 2249
1195 2254
1195 2264
1195 2287
1195 2307
1195 2321
1195 2324
1195 2397
1195 2414
1195 2455
1195 2473
1195 2474
1195 2507
1195 2533
1195 2564
1195 2571
1195 2578
1195 2588
1195 2594
1195 2620
1195 2655
1195 2668
1195 2683
1195 2696
1195 2703
1195 2705
1195 2721
1195 2730
1195 2745
1195 2751
1195 2766
1195 2791
1195 2804
1195 2808
1195 2815
1195 2848
1195 2850
1195 2879
1195 2944
1195 2959
1195 2980
1195 3029
1195 3068
1195 3071
1195 3075
1195 3086
1195 3125
1195 3136
1195 3145
1195 3164
1195 3211
1195 3227
1195 3259
1195 3292
1195 3301
1195 3349
1195 3395
1195 3410
1195 3462
1195 3477
1195 3521
1195 3531
1195 3544
1195 3557
1195 3562
1195 3575
1195 3639
1195 3675
1195 3687
1195 3689
1195 3717
1195 3718
1195 3724
1196 1508
1196 1510
1196 2176
1196 2189
1196 2233
1196 2559
1196 2639
1196 3145
1196 3603
1197 1289
1197 1444
1197 1479
1197 1486
1197 1487
1197 1522
1197 1568
1197 1593
1197 1625
1197 1698
1197 1705
1197 1805
1197 1817
1197 1958
1197 2014
1197 2165
1197 2282
1197 2369
1197 2374
1197 2424
1197 2549
1197 2635
1197 2675
1197 2723
1197 2771
1197 2827
1197 2883
1197 2884
1197 2911
1197 2967
1197 3016
1197 3021
1197 3371
1197 3418
1197 3433
1197 3437
1197 3578
1197 3586
1197 3626
1197 3638
1197 3670
1197 3684
1197 3687
1197 3713
1197 3721
1198 1209
1198 1237
1198 1288
1198 1317
1198 1320
1198 1391
1198 1450
1198 1467
1198 1473
1198 1490
1198 1497
1198 1514
1198 1520
1198 1578
1198 1595
1198 1687
1198 1725
1198 1748
1198 1772
1198 1783
1198 1792
1198 1822
1198 1934
1198 1941
1198 1954
1198 1971
1198 2020
1198 2053
1198 2059
1198 2094
1198 2146
1198 2147
1198 2234
1198 2282
1198 2304
1198 2308
1198 2336
1198 2410
1198 2423
1198 2475
1198 2508
1198 2528
1198 2597
1198 2625
1198 2666
1198 2698
1198 2751
1198 2796
1198 2809
1198 2843
1198 2856
1198 2882
1198 2903
1198 2905
1198 2935
1198 2942
1198 2962
1198 2970
1198 3023
1198 3045
1198 3061
1198 3143
1198 3199
1198 3211
1198 3219
1198 3226
1198 3230
1198 3257
1198 3260
1198 3310
1198 3330
1198 3466
1198 3520
1198 3528
1198 3585
1198 3640
1198 3716
1198 3721
1199 1305
1199 1401
1199 1516
1199 1615
1199 1677
1199 1708
1199 2224
1199 2365
1199 2366
1199 2419
1199 2510
1199 2559
1199 2703
1199 2724
1199 3008
1199 3070
1199 3210
1199 3253
1199 3278
1199 3500
1199 3611
1199 3617
1199 3641
1199 3704
1199 3721
1200 1206
1200 1235
1200 1295
1200 1509
1200 1543
1200 1667
1200 1695
1200 1745
1200 1890
1200 1893
1200 2092
1200 2238
1200 2390
1200 2531
1200 2802
1200 2923
1200 3004
1200 3224
1200 3273
1200 3278
1200 3296
1200 3404
1200 3422
1200 3426
1200 3435
1200 3456
1200 3548
1200 3552
1200 3677
1200 3680
1200 3684
1201 1241
1201 1683
1201 1908
1201 1970
1201 2392
1201 2440
1201 2522
1201 2567
1201 3112
1201 3181
1201 3345
1201 3358
1201 3391
1201 3407
1201 3565
1201 3580
1202 2779
1203 1244
1203 1683
1203 1881
1203 2065
1203 2567
1203 2735
1203 2825
1203 3088
1203 3269
1204 1247
1204 1275
1204 1341
1204 1403
1204 1446
1204 1484
1204 1546
1204 1681
1204 1708
1204 1747
1204 1825
1204 1879
1204 1928
1204 1971
1204 2042
1204 2068
1204 2114
1204 2311
1204 2324
1204 2374
1204 2432
1204 2440
1204 2464
1204 2474
1204 2489
1204 2511
1204 2629
1204 2683
1204 2710
1204 2836
1204 2842
1204 2942
1204 2973
1204 3007
1204 3081
1204 3086
1204 3242
1204 3339
1204 3482
1204 3561
1204 3565
1204 3677
1206 1225
1206 1268
1206 1360
1206 1405
1206 1414
1206 1526
1206 1566
1206 1569
1206 1668
1206 1691
1206 1801
1206 1814
1206 1901
1206 1915
1206 1991
1206 2046
1206 2059
1206 2067
1206 2113
1206 2142
1206 2210
1206 2316
1206 2374
1206 2520
1206 2636
1206 2891
1206 2971
1206 3093
1206 3183
1206 3304
1206 3311
1206 3346
1206 3661
1206 3681
1207 1389
1207 1686
1207 1743
1207 1837
1207 1882
1207 2015
1207 2080
1207 2141
1207 2219
1207 2236
1207 2311
1207 2527
1207 2575
1207 2638
1207 2763
1207 2771
1207 2919
1207 2973
1207 3115
1207 3124
1207 3234
1208 1697
1208 1823
1208 2337
1208 2389
1208 2391
1208 2449
1208 2559
1208 2562
1208 2609
1208 2749
1208 2843
1208 2896
1208 3108
1208 3184
1208 3408
1208 3514
1208 3524
1208 3613
1208 3645
1209 1389
1209 1481
1209 1920
1209 2122
1209 2152
1209 2236
1209 2319
1209 2583
1209 2616
1209 2632
1209 2851
1209 2877
1209 2966
1209 3026
1209 3123
1209 3183
1209 3376
1209 3385
1209 3479
1209 3516
1209 3520
1209 3655
1209 3694
1209 3714
1210 1296
1210 1310
1210 1336
1210 1369
1210 1440
1210 1470
1210 1550
1210 1560
1210 1728
1210 1754
1210 1785
1210 1788
1210 1825
1210 1841
1210 1849
1210 1961
1210 2158
1210 2209
1210 2371
1210 2507
1210 2595
1210 2615
1210 2730
1210 2767
1210 2774
1210 2911
1210 2956
1210 3093
1210 3096
1210 3106
1210 3150
1210 3183
1210 3370
1210 3540
1210 3688
1210 3689
1210 3731
1211 1465
1211 1497
1211 1551
1211 1567
1211 1588
1211 1877
1211 2359
1211 2455
1211 2505
1211 2601
1211 2649
1211 2755
1211 2763
1211 2783
1211 2858
1211 2868
1211 2882
1211 3040
1211 3096
1211 3179
1211 3184
1211 3227
1211 3395
1211 3724
1212 2105
1212 2218
1212 3661
1214 1274
1214 1323
1214 1363
1214 1575
1214 1948
1214 2005
1214 2575
1214 2741
1214 2777
1214 2897
1214 3022
1214 3080
1214 3083
1214 3234
1214 3382
1214 3479
1214 3498
1214 3725
1215 1840
1215 1908
1215 2088
1215 2715
1215 2874
1215 3039
1215 3504
1215 3560
1216 1428
1216 1576
1216 1908
1216 1917
1216 2317
1216 2333
1216 2462
1216 2656
1216 2814
1216 2861
1216 2900
1216 2956
1216 3110
1216 3317
1216 3407
1216 3600
1216 3746
1217 1247
1217 1299
1217 1482
1217 1547
1217 1565
1217 1603
1217 1856
1217 1894
1217 1958
1217 2151
1217 2314
1217 2660
1217 2677
1217 2737
1217 3119
1217 3176
1217 3234
1217 3314
1217 3457
1217 3469
1217 3500
1218 1298
1218 1359
1218 1475
1218 1543
1218 1578
1218 1596
1218 1853
1218 1870
1218 1914
1218 1941
1218 1978
1218 1987
1218 2024
1218 2129
1218 2188
1218 2229
1218 2270
1218 2320
1218 2378
1218 2485
1218 2512
1218 2564
1218 2655
1218 2680
1218 2699
1218 2703
1218 2741
1218 2791
1218 2808
1218 2944
1218 2960
1218 2980
1218 2999
1218 3047
1218 3059
1218 3098
1218 3264
1218 3359
1218 3440
1218 3497
1218 3521
1218 3639
1218 3661
1218 3669
1218 3695
1218 3721
1219 2025
1219 2096
1219 2927
1220 1223
1220 1485
1220 1516
1220 1664
1220 1940
1220 1952
1220 2035
1220 2370
1220 2392
1220 2498
1220 2624
1220 2835
1220 2877
1220 2948
1220 2972
1220 3176
1220 3376
1220 3431
1220 3678
1220 3704
1221 1228
1221 1231
1221 1236
1221 1296
1221 1421
1221 1464
1221 1469
1221 1648
1221 1674
1221 1744
1221 1873
1221 1897
1221 1908
1221 1925
1221 1996
1221 2011
1221 2028
1221 2035
1221 2054
1221 2095
1221 2205
1221 2222
1221 2372
1221 2493
1221 2542
1221 2819
1221 2826
1221 2844
1221 2878
1221 2944
1221 2970
1221 2982
1221 2989
1221 3004
1221 3037
1221 3090
1221 3112
1221 3137
1221 3249
1221 3423
1221 3496
1221 3573
1221 3598
1221 3736
1222 1225
1222 1339
1222 1358
1222 1469
1222 1518
1222 1543
1222 1571
1222 1607
1222 1624
1222 1659
1222 1681
1222 1725
1222 1748
1222 1872
1222 1880
1222 1913
1222 2034
1222 2052
1222 2066
1222 2084
1222 2141
1222 2179
1222 2221
1222 2575
1222 2581
1222 2723
1222 2743
1222 2752
1222 2763
1222 2908
1222 2912
1222 2941
1222 2998
1222 3108
1222 3128
1222 3138
1222 3152
1222 3159
1222 3230
1222 3234
1222 3376
1222 3389
1222 3424
1222 3510
1222 3513
1222 3586
1222 3596
1222 3600
1222 3632
1222 3718
1222 3729
1223 1228
1223 1312
1223 1543
1223 1655
1223 1799
1223 1884
1223 1948
1223 1985
1223 1996
1223 2008
1223 2035
1223 2141
1223 2370
1223 2424
1223 2471
1223 2498
1223 2522
1223 2640
1223 2648
1223 2810
1223 2877
1223 2948
1223 3087
1223 3111
1223 3240
1223 3311
1223 3578
1223 3686
1223 3704
1223 3711
1223 3715
1224 1419
1224 1513
1224 1824
1224 1853
1224 1994
1224 2456
1224 2674
1224 2878
1224 2934
1224 3598
1225 1288
1225 1339
1225 1344
1225 1358
1225 1366
1225 1383
1225 1400
1225 1489
1225 1494
1225 1522
1225 1545
1225 1551
1225 1570
1225 1588
1225 1659
1225 1681
1225 1747
1225 1770
1225 1775
1225 1797
1225 1863
1225 1879
1225 2004
1225 2012
1225 2016
1225 2034
1225 2038
1225 2141
1225 2152
1225 2210
1225 2229
1225 2236
1225 2297
1225 2360
1225 2418
1225 2480
1225 2567
1225 2575
1225 2622
1225 2696
1225 2741
1225 2743
1225 2801
1225 2817
1225 2830
1225 2869
1225 2884
1225 2907
1225 2908
1225 2946
1225 2975
1225 3061
1225 3083
1225 3159
1225 3183
1225 3209
1225 3212
1225 3359
1225 3377
1225 3382
1225 3405
1225 3513
1225 3573
1225 3596
1225 3598
1225 3687
1225 3729
1226 1928
1226 1969
1226 2283
1226 2386
1226 2474
1226 2514
1226 2660
1226 2696
1226 2838
1226 2981
1226 3007
1226 3224
1226 3624
1227 1315
1227 1356
1227 1457
1227 1526
1227 1587
1227 1597
1227 1681
1227 1948
1227 2066
1227 2147
1227 2156
1227 2166
1227 2178
1227 2276
1227 2325
1227 2360
1227 2368
1227 2371
1227 2469
1227 2555
1227 2631
1227 2657
1227 2703
1227 2767
1227 2788
1227 2809
1227 2901
1227 2912
1227 2998
1227 3012
1227 3021
1227 3080
1227 3102
1227 3296
1227 3359
1227 3378
1227 3388
1227 3449
1227 3465
1227 3470
1227 3620
1227 3720
1228 1231
1228 1262
1228 1298
1228 1316
1228 1322
1228 1325
1228 1360
1228 1368
1228 1459
1228 1469
1228 1489
1228 1543
1228 1567
1228 1573
1228 1588
1228 1593
1228 1648
1228 1670
1228 1680
1228 1693
1228 1699
1228 1725
1228 1744
1228 1780
1228 1822
1228 1908
1228 1948
1228 1996
1228 2009
1228 2013
1228 2014
1228 2035
1228 2054
1228 2069
1228 2144
1228 2170
1228 2174
1228 2201
1228 2211
1228 2216
1228 2219
1228 2222
1228 2250
1228 2298
1228 2313
1228 2333
1228 2378
1228 2381
1228 2400
1228 2408
1228 2463
1228 2493
1228 2498
1228 2513
1228 2520
1228 2522
1228 2566
1228 2567
1228 2586
1228 2593
1228 2613
1228 2626
1228 2648
1228 2658
1228 2763
1228 2771
1228 2781
1228 2791
1228 2809
1228 2818
1228 2822
1228 2877
1228 2878
1228 2944
1228 2951
1228 3022
1228 3075
1228 3087
1228 3098
1228 3111
1228 3147
1228 3148
1228 3166
1228 3171
1228 3227
1228 3260
1228 3311
1228 3312
1228 3329
1228 3349
1228 3382
1228 3383
1228 3412
1228 3504
1228 3514
1228 3518
1228 3573
1228 3598
1228 3629
1228 3642
1228 3704
1228 3715
1228 3727
1228 3736
1228 3746
1229 1357
1229 1651
1229 1756
1229 2181
1229 2263
1229 2371
1229 2695
1229 2700
1229 3065
1231 1296
1231 1464
1231 1648
1231 1670
1231 1674
1231 1689
1231 1734
1231 1744
1231 1816
1231 1842
1231 1925
1231 1996
1231 2028
1231 2034
1231 2054
1231 2137
1231 2222
1231 2403
1231 2463
1231 2474
1231 2493
1231 2542
1231 2771
1231 2791
1231 2819
1231 2878
1231 2907
1231 2973
1231 3090
1231 3112
1231 3249
1231 3386
1231 3536
1231 3564
1231 3573
1231 3598
1231 3638
1231 3641
1231 3685
1232 1541
1232 1848
1232 2086
1232 2256
1232 3010
1232 3122
1232 3376
1232 3437
1232 3491
1232 3494
1233 1236
1233 1241
1233 1445
1233 1820
1233 1836
1233 1851
1233 2108
1233 2174
1233 2437
1233 2634
1233 3005
1233 3287
1233 3431
1233 3546
1233 3566
1234 1341
1234 1568
1234 1918
1234 2034
1234 2392
1234 2554
1234 2770
1234 2808
1234 3118
1234 3149
1234 3183
1234 3575
1234 3638
1235 1244
1235 1312
1235 1323
1235 1536
1235 1580
1235 1727
1235 1832
1235 1849
1235 1890
1235 1893
1235 2009
1235 2071
1235 2121
1235 2146
1235 2238
1235 2251
1235 2300
1235 2516
1235 2544
1235 2556
1235 2815
1235 2882
1235 2908
1235 2921
1235 2956
1235 2962
1235 2998
1235 3004
1235 3296
1235 3306
1235 3346
1235 3348
1235 3382
1235 3684
1235 3687
1236 1247
1236 1252
1236 1256
1236 1297
1236 1312
1236 1396
1236 1431
1236 1432
1236 1445
1236 1446
1236 1484
1236 1485
1236 1602
1236 1767
1236 1820
1236 1864
1236 1881
1236 1891
1236 1900
1236 1949
1236 1951
1236 1974
1236 2019
1236 2028
1236 2037
1236 2045
1236 2114
1236 2167
1236 2195
1236 2203
1236 2217
1236 2260
1236 2263
1236 2279
1236 2338
1236 2354
1236 2405
1236 2409
1236 2415
1236 2431
1236 2434
1236 2440
1236 2452
1236 2523
1236 2541
1236 2544
1236 2567
1236 2574
1236 2634
1236 2709
1236 2724
1236 2735
1236 2759
1236 2789
1236 2816
1236 2834
1236 2841
1236 2880
1236 3044
1236 3081
1236 3088
1236 3197
1236 3229
1236 3239
1236 3248
1236 3250
1236 3251
1236 3256
1236 3271
1236 3275
1236 3298
1236 3331
1236 3357
1236 3374
1236 3407
1236 3420
1236 3421
1236 3460
1236 3464
1236 3470
1236 3487
1236 3533
1236 3554
1236 3609
1236 3663
1236 3697
1236 3712
1237 1822
1237 2014
1237 2025
1237 2308
1237 2404
1237 2906
1237 3015
1237 3585
1237 3616
1237 3640
1238 1648
1238 1684
1238 2122
1238 2174
1238 2191
1238 2237
1238 2460
1238 2689
1238 2974
1238 3006
1238 3392
1239 1254
1239 1321
1239 1365
1239 1377
1239 1475
1239 1524
1239 1530
1239 1533
1239 1567
1239 1589
1239 1673
1239 1687
1239 1720
1239 1788
1239 1822
1239 1833
1239 1859
1239 1971
1239 1981
1239 2066
1239 2119
1239 2125
1239 2218
1239 2235
1239 2262
1239 2319
1239 2404
1239 2492
1239 2507
1239 2508
1239 2640
1239 2664
1239 2755
1239 2787
1239 2791
1239 2804
1239 2827
1239 2856
1239 2960
1239 3023
1239 3029
1239 3047
1239 3070
1239 3075
1239 3096
1239 3139
1239 3147
1239 3180
1239 3184
1239 3245
1239 3247
1239 3272
1239 3349
1239 3366
1239 3386
1239 3425
1239 3430
1239 3466
1239 3477
1239 3534
1239 3575
1239 3635
1239 3689
1239 3745
1240 1286
1240 1321
1240 1356
1240 2219
1240 2414
1240 2418
1240 2551
1240 2569
1240 2620
1240 2783
1240 2849
1240 2975
1240 3021
1240 3253
1240 3477
1240 3558
1240 3592
1240 3629
1241 1319
1241 2135
1241 2237
1241 2437
1241 2452
1241 2709
1241 2845
1241 2892
1241 3081
1241 3431
1241 3546
1241 3566
1242 1633
1242 1673
1242 2603
1242 3150
1242 3456
1242 3537
1243 1817
1243 1836
1243 1897
1243 2663
1244 1323
1244 1363
1244 1575
1244 1580
1244 1626
1244 1640
1244 1642
1244 1683
1244 1732
1244 1736
1244 1832
1244 1849
1244 1864
1244 1908
1244 2005
1244 2056
1244 2121
1244 2126
1244 2205
1244 2238
1244 2284
1244 2387
1244 2504
1244 2516
1244 2520
1244 2544
1244 2556
1244 2667
1244 2735
1244 2815
1244 2897
1244 2973
1244 3022
1244 3037
1244 3252
1244 3300
1244 3306
1244 3316
1244 3338
1244 3346
1244 3382
1244 3529
1244 3684
1245 1340
1245 1469
1245 1472
1245 1480
1245 1496
1245 1501
1245 1543
1245 1548
1245 1564
1245 1612
1245 1710
1245 1714
1245 1725
1245 1777
1245 1827
1245 1902
1245 1924
1245 1975
1245 1987
1245 2040
1245 2116
1245 2298
1245 2373
1245 2388
1245 2397
1245 2416
1245 2424
1245 2458
1245 2479
1245 2517
1245 2594
1245 2626
1245 2665
1245 2699
1245 2710
1245 2792
1245 2804
1245 2845
1245 2861
1245 2879
1245 2920
1245 2939
1245 2940
1245 2956
1245 3021
1245 3043
1245 3072
1245 3077
1245 3094
1245 3138
1245 3171
1245 3227
1245 3244
1245 3264
1245 3272
1245 3336
1245 3349
1245 3356
1245 3433
1245 3482
1245 3484
1245 3504
1245 3517
1245 3557
1245 3572
1245 3575
1245 3578
1245 3585
1245 3650
1245 3734
1245 3736
1246 2169
1246 2651
1246 3361
1246 3372
1246 3686
1246 3703
1247 1294
1247 1443
1247 1610
1247 1615
1247 1717
1247 1820
1247 1866
1247 2055
1247 2081
1247 2114
1247 2124
1247 2167
1247 2212
1247 2217
1247 2275
1247 2341
1247 2387
1247 2396
1247 2431
1247 2436
1247 2452
1247 2488
1247 2529
1247 2634
1247 2660
1247 2687
1247 2709
1247 2724
1247 2790
1247 2825
1247 2840
1247 2845
1247 2878
1247 2912
1247 3018
1247 3021
1247 3081
1247 3088
1247 3135
1247 3242
1247 3251
1247 3262
1247 3298
1247 3316
1247 3317
1247 3318
1247 3326
1247 3431
1247 3459
1247 3485
1247 3487
1247 3546
1247 3597
1247 3598
1247 3658
1247 3667
1248 1270
1248 1983
1248 2565
1248 2814
1248 2900
1248 3110
1248 3167
1248 3235
1249 1563
1249 1827
1249 2276
1249 2328
1249 2416
1249 2626
1249 3401
1249 3504
1249 3517
1249 3546
1249 3713
1250 1288
1250 1321
1250 1333
1250 1334
1250 1338
1250 1416
1250 1471
1250 1487
1250 1489
1250 1501
1250 1521
1250 1522
1250 1656
1250 1668
1250 1703
1250 1724
1250 1854
1250 1863
1250 1876
1250 1921
1250 1959
1250 1972
1250 2004
1250 2012
1250 2105
1250 2144
1250 2218
1250 2229
1250 2240
1250 2254
1250 2333
1250 2395
1250 2492
1250 2564
1250 2578
1250 2588
1250 2594
1250 2664
1250 2703
1250 2721
1250 2745
1250 2751
1250 2766
1250 2804
1250 2848
1250 2850
1250 2884
1250 2889
1250 2959
1250 2980
1250 3071
1250 3101
1250 3125
1250 3145
1250 3209
1250 3219
1250 3220
1250 3259
1250 3395
1250 3410
1250 3426
1250 3521
1250 3544
1250 3575
1250 3661
1250 3674
1250 3721
1251 2201
1251 2397
1251 2419
1251 2604
1251 2668
1251 2687
1251 2790
1251 2800
1251 2956
1251 3024
1251 3038
1251 3124
1251 3407
1252 1485
1252 1820
1252 2019
1252 2414
1252 2523
1252 2685
1252 3375
1252 3593
1253 1374
1253 1400
1253 1498
1253 1559
1253 1571
1253 1621
1253 1853
1253 1861
1253 1885
1253 2053
1253 2230
1253 2237
1253 2352
1253 2359
1253 2370
1253 2877
1253 2916
1253 3376
1253 3392
1253 3662
1254 1265
1254 1364
1254 1391
1254 1510
1254 1589
1254 2125
1254 2321
1254 2639
1254 2665
1254 2791
1254 3245
1254 3466
1254 3547
1255 1722
1255 2914
1255 2963
1255 3371
1255 3580
1256 2089
1256 2191
1256 2256
1256 2293
1256 2323
1256 2444
1256 2452
1256 2541
1256 2575
1256 2719
1256 3024
1256 3192
1256 3397
1256 3461
1256 3489
1256 3589
1257 1590
1257 1741
1257 1808
1257 1816
1257 1875
1257 1909
1257 2844
1257 3078
1257 3110
1257 3673
1258 1522
1258 1597
1258 1791
1258 1846
1258 1863
1258 2004
1258 2079
1258 2283
1258 2369
1258 2386
1258 2390
1258 2416
1258 2474
1258 2521
1258 2677
1258 2687
1258 2710
1258 2956
1258 3007
1258 3021
1258 3193
1258 3224
1258 3342
1258 3677
1258 3736
1259 1293
1259 1592
1259 1853
1259 2424
1259 2443
1259 2852
1259 3044
1259 3254
1259 3390
1259 3659
1259 3741
1260 1444
1260 1548
1260 1673
1260 1725
1260 2460
1260 2467
1260 3437
1261 1490
1261 1517
1261 2191
1261 2359
1262 2074
1262 3111
1263 1284
1263 1350
1263 1439
1263 1485
1263 1489
1263 1518
1263 1544
1263 1565
1263 1789
1263 1997
1263 2149
1263 2171
1263 2242
1263 2271
1263 2337
1263 2416
1263 2523
1263 2609
1263 2710
1263 2752
1263 2861
1263 2994
1263 3057
1263 3066
1263 3249
1263 3284
1263 3412
1263 3425
1263 3448
1264 2656
1264 2869
1264 3278
1264 3456
1264 3622
1265 1510
1265 1589
1265 1610
1265 1720
1265 1972
1265 2036
1265 2125
1265 2639
1265 2721
1265 3029
1265 3245
1265 3603
1266 1292
1266 1329
1266 1454
1266 1519
1266 1742
1266 2116
1266 2159
1266 2179
1266 2807
1266 2873
1266 2978
1266 3107
1266 3117
1266 3166
1266 3446
1266 3668
1266 3686
1267 1467
1267 1507
1267 1986
1267 2060
1267 2299
1267 2394
1267 2569
1267 3260
1267 3382
1267 3462
1268 1360
1268 1405
1268 1408
1268 1731
1268 1801
1268 1814
1268 1863
1268 1927
1268 2012
1268 2046
1268 2113
1268 2158
1268 2209
1268 2330
1268 2569
1268 2570
1268 2682
1268 2708
1268 2751
1268 2770
1268 3193
1268 3257
1268 3297
1268 3304
1268 3364
1268 3681
1269 1591
1269 1672
1269 3472
1269 3660
1270 1304
1270 1505
1270 1552
1270 1709
1270 1737
1270 1897
1270 2347
1270 2565
1270 2581
1270 2814
1270 2900
1270 3095
1270 3110
1270 3167
1270 3235
1270 3302
1270 3305
1271 1740
1271 2203
1271 3467
1272 1427
1272 1452
1272 1507
1272 1675
1272 1805
1272 1863
1272 1912
1272 1964
1272 1981
1272 2059
1272 2098
1272 2119
1272 2299
1272 2400
1272 2416
1272 2551
1272 2554
1272 2630
1272 2710
1272 2827
1272 2861
1272 2907
1272 3014
1272 3193
1272 3212
1272 3575
1272 3601
1272 3608
1272 3618
1272 3626
1273 1335
1273 1408
1273 1489
1273 1574
1273 1600
1273 1664
1273 1719
1273 2150
1273 2320
1273 2463
1273 2515
1273 2695
1273 2734
1273 2808
1273 3167
1273 3335
1273 3408
1273 3741
1274 1356
1274 1690
1274 1785
1274 2095
1274 2139
1274 2229
1274 2276
1274 2371
1274 2392
1274 2485
1274 2546
1274 2622
1274 2741
1274 2793
1274 2809
1274 2901
1274 3012
1274 3071
1274 3109
1274 3293
1274 3423
1274 3569
1274 3706
1275 1288
1275 1318
1275 1401
1275 1404
1275 1416
1275 1479
1275 1489
1275 1501
1275 1510
1275 1522
1275 1570
1275 1687
1275 1716
1275 1792
1275 1825
1275 1876
1275 1879
1275 1918
1275 1972
1275 2014
1275 2049
1275 2119
1275 2158
1275 2176
1275 2219
1275 2237
1275 2269
1275 2309
1275 2372
1275 2420
1275 2445
1275 2464
1275 2474
1275 2495
1275 2507
1275 2564
1275 2570
1275 2677
1275 2705
1275 2721
1275 2808
1275 2827
1275 2838
1275 2899
1275 3016
1275 3101
1275 3137
1275 3145
1275 3191
1275 3209
1275 3243
1275 3259
1275 3288
1275 3426
1275 3466
1275 3544
1275 3603
1275 3629
1275 3640
1275 3675
1275 3689
1275 3706
1276 1465
1276 1549
1276 2148
1276 2243
1276 2493
1276 2605
1276 2867
1276 3354
1276 3389
1276 3531
1276 3659
1277 1530
1277 1533
1277 1625
1277 1632
1277 1723
1277 1743
1277 1745
1277 1757
1277 1848
1277 2130
1277 2138
1277 2362
1277 2440
1277 2455
1277 2933
1277 3003
1277 3167
1277 3299
1277 3433
1277 3455
1277 3466
1277 3553
1277 3581
1277 3595
1277 3618
1277 3651
1278 1356
1278 1358
1278 1425
1278 1557
1278 1606
1278 1700
1278 1775
1278 1783
1278 1941
1278 2057
1278 2066
1278 2122
1278 2142
1278 2177
1278 2202
1278 2234
1278 2373
1278 2418
1278 2652
1278 2778
1278 2792
1278 2809
1278 2828
1278 2865
1278 2964
1278 2990
1278 3061
1278 3136
1278 3160
1278 3205
1278 3226
1278 3243
1278 3376
1278 3466
1278 3526
1278 3534
1278 3559
1278 3594
1278 3606
1278 3617
1278 3695
1279 2417
1279 2817
1279 3429
1280 1400
1280 1501
1280 1568
1280 1599
1280 1926
1280 1985
1280 2435
1280 2564
1280 2643
1280 2678
1280 2860
1280 2877
1280 3082
1280 3183
1280 3212
1280 3283
1280 3296
1280 3365
1280 3462
1280 3562
1280 3615
1280 3616
1280 3638
1280 3699
1281 1322
1281 1543
1281 1646
1281 2553
1281 2571
1281 2664
1281 2745
1281 2750
1281 2874
1281 3072
1281 3083
1282 1411
1282 1440
1282 1613
1282 1663
1282 1737
1282 1816
1282 2002
1282 2092
1282 2166
1282 2170
1282 2356
1282 2371
1282 2555
1282 2656
1282 2749
1282 2823
1282 2888
1282 2956
1282 3150
1282 3278
1282 3422
1282 3456
1282 3548
1282 3710
1282 3746
1283 2003
1283 2223
1283 2889
1283 2908
1284 1303
1284 1375
1284 1414
1284 1456
1284 1644
1284 1700
1284 1745
1284 1768
1284 1793
1284 1948
1284 1959
1284 1986
1284 2115
1284 2177
1284 2222
1284 2256
1284 2271
1284 2350
1284 2493
1284 2513
1284 2593
1284 2877
1284 2882
1284 2933
1284 3043
1284 3110
1284 3148
1284 3265
1284 3443
1284 3478
1284 3538
1284 3641
1284 3681
1284 3685
1285 1298
1285 1365
1285 1465
1285 1517
1285 1549
1285 1567
1285 1569
1285 1681
1285 1725
1285 1838
1285 1987
1285 2219
1285 2236
1285 2319
1285 2363
1285 2455
1285 2492
1285 2547
1285 2583
1285 2605
1285 2638
1285 2647
1285 2766
1285 2788
1285 2849
1285 2999
1285 3119
1285 3133
1285 3153
1285 3171
1285 3191
1285 3234
1285 3336
1285 3458
1285 3477
1285 3573
1286 1321
1286 1365
1286 1465
1286 1471
1286 1567
1286 1630
1286 1631
1286 1681
1286 1747
1286 1754
1286 1761
1286 1770
1286 1902
1286 1929
1286 1947
1286 1972
1286 1994
1286 2004
1286 2015
1286 2040
1286 2219
1286 2221
1286 2236
1286 2287
1286 2291
1286 2326
1286 2365
1286 2414
1286 2418
1286 2430
1286 2492
1286 2551
1286 2620
1286 2724
1286 2745
1286 2791
1286 2808
1286 2849
1286 2879
1286 2901
1286 2956
1286 3008
1286 3070
1286 3137
1286 3191
1286 3227
1286 3253
1286 3272
1286 3277
1286 3466
1286 3477
1286 3553
1286 3558
1286 3575
1286 3599
1286 3601
1286 3611
1286 3617
1286 3629
1286 3639
1286 3687
1286 3695
1287 2466
1288 1321
1288 1343
1288 1416
1288 1450
1288 1471
1288 1487
1288 1489
1288 1501
1288 1521
1288 1522
1288 1526
1288 1533
1288 1618
1288 1631
1288 1656
1288 1668
1288 1704
1288 1721
1288 1724
1288 1754
1288 1756
1288 1761
1288 1814
1288 1822
1288 1844
1288 1848
1288 1854
1288 1855
1288 1863
1288 1876
1288 1902
1288 1918
1288 1921
1288 1959
1288 1978
1288 2003
1288 2004
1288 2012
1288 2014
1288 2016
1288 2038
1288 2040
1288 2042
1288 2057
1288 2066
1288 2125
1288 2157
1288 2186
1288 2219
1288 2229
1288 2236
1288 2240
1288 2291
1288 2306
1288 2319
1288 2337
1288 2395
1288 2404
1288 2430
1288 2445
1288 2513
1288 2555
1288 2564
1288 2588
1288 2647
1288 2648
1288 2665
1288 2703
1288 2705
1288 2721
1288 2741
1288 2745
1288 2751
1288 2766
1288 2774
1288 2791
1288 2797
1288 2808
1288 2839
1288 2848
1288 2849
1288 2866
1288 2940
1288 2962
1288 3021
1288 3047
1288 3071
1288 3075
1288 3086
1288 3098
1288 3101
1288 3125
1288 3138
1288 3145
1288 3153
1288 3164
1288 3169
1288 3183
1288 3209
1288 3243
1288 3259
1288 3297
1288 3337
1288 3343
1288 3370
1288 3396
1288 3405
1288 3410
1288 3417
1288 3424
1288 3426
1288 3435
1288 3440
1288 3466
1288 3514
1288 3521
1288 3544
1288 3575
1288 3618
1288 3623
1288 3639
1288 3661
1288 3674
1288 3675
1288 3676
1288 3683
1288 3687
1288 3695
1288 3714
1288 3721
1288 3745
1289 2025
1289 2034
1289 3159
1289 3234
1289 3510
1290 1321
1290 1333
1290 1334
1290 1365
1290 1366
1290 1406
1290 1416
1290 1465
1290 1471
1290 1487
1290 1567
1290 1613
1290 1646
1290 1667
1290 1670
1290 1758
1290 1809
1290 1950
1290 1959
1290 2033
1290 2134
1290 2141
1290 2174
1290 2219
1290 2264
1290 2265
1290 2287
1290 2295
1290 2363
1290 2406
1290 2438
1290 2445
1290 2455
1290 2497
1290 2515
1290 2540
1290 2559
1290 2575
1290 2620
1290 2640
1290 2647
1290 2664
1290 2665
1290 2696
1290 2703
1290 2733
1290 2791
1290 2827
1290 2906
1290 2908
1290 2944
1290 2961
1290 2988
1290 3004
1290 3070
1290 3075
1290 3096
1290 3134
1290 3139
1290 3145
1290 3164
1290 3191
1290 3220
1290 3227
1290 3245
1290 3248
1290 3337
1290 3349
1290 3389
1290 3396
1290 3404
1290 3415
1290 3435
1290 3452
1290 3497
1290 3547
1290 3562
1290 3575
1290 3578
1290 3585
1290 3649
1290 3666
1290 3689
1291 1302
1291 1545
1291 1715
1291 1722
1291 1763
1291 2028
1291 2405
1291 2525
1291 2640
1291 2739
1291 2834
1291 3283
1291 3365
1291 3375
1291 3390
1291 3546
1291 3697
1292 1294
1292 1322
1292 1438
1292 1454
1292 1602
1292 1696
1292 1853
1292 1893
1292 1959
1292 2116
1292 2238
1292 2389
1292 2503
1292 2627
1292 2723
1292 2734
1292 2816
1292 2852
1292 2971
1292 2978
1292 3107
1292 3187
1292 3390
1292 3470
1292 3514
1292 3523
1292 3586
1292 3704
1293 1592
1293 1853
1293 2095
1293 2140
1293 2496
1293 2688
1293 2729
1293 2852
1293 3014
1293 3263
1293 3400
1293 3423
1293 3442
1293 3543
1293 3545
1293 3659
1293 3741
1294 1547
1294 1570
1294 1615
1294 1667
1294 1685
1294 1696
1294 1705
1294 1738
1294 2125
1294 2299
1294 2440
1294 2731
1294 2785
1294 3120
1294 3197
1294 3326
1294 3357
1294 3363
1294 3364
1294 3466
1294 3516
1294 3546
1294 3591
1294 3712
1295 1455
1295 1577
1295 1682
1295 1939
1295 1949
1295 2015
1295 2030
1295 2084
1295 2136
1295 2174
1295 2179
1295 2201
1295 2346
1295 2443
1295 2642
1295 2654
1295 2700
1295 2706
1295 2790
1295 2807
1295 2812
1295 2972
1295 3201
1295 3254
1295 3265
1295 3419
1295 3739
1296 1345
1296 1419
1296 1440
1296 1464
1296 1470
1296 1514
1296 1516
1296 1518
1296 1552
1296 1630
1296 1640
1296 1667
1296 1674
1296 1734
1296 1744
1296 1788
1296 1816
1296 1824
1296 1834
1296 1841
1296 1863
1296 1879
1296 1897
1296 1908
1296 1957
1296 1961
1296 2048
1296 2054
1296 2120
1296 2147
1296 2158
1296 2190
1296 2205
1296 2209
1296 2307
1296 2323
1296 2357
1296 2371
1296 2374
1296 2416
1296 2430
1296 2474
1296 2514
1296 2544
1296 2588
1296 2596
1296 2604
1296 2668
1296 2687
1296 2689
1296 2725
1296 2751
1296 2752
1296 2815
1296 2819
1296 2845
1296 2861
1296 2881
1296 2907
1296 2911
1296 2954
1296 2956
1296 2988
1296 2994
1296 3000
1296 3021
1296 3093
1296 3108
1296 3158
1296 3214
1296 3227
1296 3249
1296 3296
1296 3317
1296 3349
1296 3431
1296 3437
1296 3490
1296 3507
1296 3536
1296 3575
1296 3598
1296 3641
1296 3652
1296 3687
1296 3688
1296 3691
1296 3704
1296 3714
1296 3726
1296 3731
1297 1320
1297 1431
1297 1526
1297 1560
1297 1820
1297 2076
1297 2217
1297 2440
1297 2596
1297 3193
1297 3197
1297 3251
1297 3325
1297 3466
1297 3687
1298 1334
1298 1359
1298 1365
1298 1390
1298 1416
1298 1457
1298 1465
1298 1466
1298 1487
1298 1510
1298 1549
1298 1569
1298 1578
1298 1596
1298 1664
1298 1724
1298 1918
1298 1987
1298 2024
1298 2188
1298 2224
1298 2259
1298 2271
1298 2291
1298 2400
1298 2430
1298 2455
1298 2478
1298 2513
1298 2608
1298 2647
1298 2649
1298 2664
1298 2698
1298 2791
1298 2794
1298 2826
1298 2944
1298 3041
1298 3047
1298 3153
1298 3301
1298 3312
1298 3336
1298 3415
1298 3466
1298 3518
1298 3639
1298 3735
1299 1323
1299 1339
1299 1365
1299 1403
1299 1492
1299 1543
1299 1565
1299 1567
1299 1593
1299 1645
1299 1648
1299 1659
1299 1725
1299 1739
1299 1775
1299 1782
1299 1795
1299 1845
1299 1879
1299 1880
1299 1905
1299 1970
1299 1989
1299 1992
1299 1996
1299 2015
1299 2071
1299 2077
1299 2095
1299 2110
1299 2129
1299 2151
1299 2174
1299 2201
1299 2212
1299 2226
1299 2298
1299 2314
1299 2316
1299 2372
1299 2406
1299 2408
1299 2416
1299 2461
1299 2544
1299 2556
1299 2583
1299 2605
1299 2683
1299 2687
1299 2689
1299 2720
1299 2760
1299 2790
1299 2807
1299 2809
1299 2825
1299 2869
1299 2878
1299 2888
1299 2904
1299 2956
1299 2970
1299 2973
1299 2994
1299 3103
1299 3110
1299 3190
1299 3192
1299 3223
1299 3288
1299 3310
1299 3320
1299 3349
1299 3413
1299 3423
1299 3474
1299 3506
1299 3551
1299 3568
1299 3569
1299 3573
1299 3575
1299 3578
1299 3589
1299 3598
1299 3609
1299 3629
1299 3630
1299 3682
1299 3683
1299 3702
1299 3729
1299 3742
1300 3054
1301 1362
1301 1869
1301 2036
1301 2129
1301 3359
1302 1443
1302 1609
1302 1820
1302 1894
1302 2078
1302 2217
1302 2236
1302 2430
1302 2436
1302 2453
1302 3234
1302 3283
1302 3374
1303 1456
1303 1745
1303 1793
1303 1979
1303 2148
1303 2177
1303 2222
1303 2256
1303 2331
1303 2333
1303 2350
1303 2401
1303 2458
1303 2508
1303 2513
1303 2593
1303 2607
1303 2665
1303 2675
1303 2877
1303 2933
1303 3110
1303 3156
1303 3367
1303 3404
1303 3443
1303 3563
1303 3665
1304 1688
1304 1816
1304 1837
1304 1845
1304 1970
1304 2160
1304 2178
1304 2209
1304 2710
1304 2770
1304 2875
1304 2899
1304 2911
1304 2971
1304 2973
1304 3105
1304 3129
1304 3207
1304 3386
1304 3465
1304 3638
1304 3656
1305 1344
1306 1381
1306 1444
1306 1783
1306 1855
1306 1931
1306 2060
1306 2066
1306 2138
1306 2392
1306 2423
1306 2557
1306 2681
1306 2752
1306 2831
1306 3021
1306 3109
1306 3337
1306 3385
1306 3424
1306 3640
1307 1444
1307 1451
1307 1483
1307 1719
1307 1797
1307 1856
1307 1928
1307 1954
1307 2146
1307 2234
1307 2246
1307 2353
1307 2400
1307 2553
1307 2630
1307 2962
1307 3007
1307 3021
1307 3102
1307 3183
1307 3203
1307 3230
1307 3510
1307 3630
1307 3677
1307 3716
1308 1788
1308 2068
1308 2079
1308 2412
1308 2594
1308 2804
1308 3343
1310 1369
1310 1440
1310 1470
1310 1550
1310 1754
1310 1785
1310 1961
1310 2067
1310 2154
1310 2158
1310 2209
1310 2615
1310 2730
1310 2767
1310 2795
1310 2911
1310 2956
1310 3096
1310 3106
1310 3540
1310 3688
1310 3689
1310 3731
1311 2015
1311 2161
1311 2419
1311 2461
1311 2565
1311 2668
1311 2800
1311 2924
1311 3184
1311 3317
1311 3691
1312 1323
1312 1575
1312 1580
1312 1832
1312 1849
1312 2055
1312 2121
1312 2238
1312 2411
1312 2516
1312 2522
1312 2544
1312 2556
1312 2570
1312 2723
1312 2781
1312 2810
1312 2815
1312 2956
1312 2973
1312 3148
1312 3306
1312 3382
1312 3506
1312 3507
1312 3686
1312 3687
1312 3691
1313 1851
1313 2103
1313 2415
1313 2482
1313 3062
1313 3222
1313 3250
1313 3570
1314 1346
1314 1408
1314 1489
1314 1560
1314 1585
1314 1631
1314 1681
1314 1863
1314 1992
1314 2034
1314 2052
1314 2064
1314 2104
1314 2229
1314 2289
1314 2321
1314 2374
1314 2710
1314 2741
1314 2804
1314 2959
1314 3103
1314 3138
1314 3145
1314 3193
1314 3207
1314 3211
1314 3212
1314 3224
1314 3465
1314 3510
1315 1324
1315 1980
1315 2779
1315 3092
1315 3291
1315 3349
1315 3466
1315 3470
1315 3605
1315 3674
1316 1687
1316 1761
1316 1852
1316 2035
1316 2119
1316 2363
1316 2496
1316 2522
1316 2540
1316 2887
1316 2948
1316 3010
1316 3698
1317 1353
1317 1455
1317 1456
1317 1595
1317 1655
1317 1670
1317 1725
1317 1741
1317 2933
1317 2948
1317 3026
1317 3204
1317 3716
1318 1404
1318 1566
1318 1673
1318 1687
1318 1797
1318 1937
1318 2071
1318 2156
1318 2237
1318 2262
1318 2309
1318 2445
1318 2467
1318 2625
1318 2655
1318 2793
1318 2808
1318 2904
1318 3045
1318 3247
1318 3265
1318 3364
1318 3412
1318 3426
1318 3444
1318 3674
1319 1399
1319 1623
1319 1628
1319 1708
1319 1865
1319 1904
1319 2061
1319 2097
1319 2196
1319 2275
1319 2338
1319 2396
1319 2440
1319 2776
1319 3255
1319 3269
1319 3283
1319 3391
1319 3463
1319 3485
1319 3532
1319 3546
1320 1321
1320 1471
1320 1526
1320 1557
1320 1593
1320 1631
1320 1667
1320 1681
1320 1724
1320 1799
1320 1929
1320 1971
1320 1978
1320 2026
1320 2040
1320 2042
1320 2116
1320 2219
1320 2229
1320 2321
1320 2325
1320 2404
1320 2416
1320 2438
1320 2596
1320 2741
1320 2745
1320 2805
1320 2827
1320 2960
1320 3015
1320 3021
1320 3029
1320 3030
1320 3131
1320 3199
1320 3212
1320 3253
1320 3325
1320 3337
1320 3466
1320 3473
1320 3522
1320 3562
1320 3611
1320 3616
1320 3687
1320 3692
1321 1331
1321 1333
1321 1338
1321 1346
1321 1365
1321 1377
1321 1400
1321 1416
1321 1427
1321 1465
1321 1471
1321 1477
1321 1487
1321 1489
1321 1495
1321 1501
1321 1510
1321 1522
1321 1533
1321 1550
1321 1557
1321 1567
1321 1583
1321 1588
1321 1596
1321 1597
1321 1613
1321 1616
1321 1618
1321 1622
1321 1630
1321 1631
1321 1667
1321 1674
1321 1681
1321 1703
1321 1723
1321 1725
1321 1729
1321 1761
1321 1762
1321 1788
1321 1814
1321 1818
1321 1831
1321 1838
1321 1848
1321 1863
1321 1867
1321 1870
1321 1876
1321 1902
1321 1929
1321 1930
1321 1941
1321 1971
1321 1972
1321 1981
1321 1987
1321 2024
1321 2034
1321 2040
1321 2057
1321 2086
1321 2087
1321 2125
1321 2138
1321 2218
1321 2219
1321 2221
1321 2229
1321 2254
1321 2291
1321 2299
1321 2313
1321 2314
1321 2324
1321 2337
1321 2350
1321 2378
1321 2397
1321 2408
1321 2412
1321 2414
1321 2418
1321 2430
1321 2438
1321 2445
1321 2454
1321 2455
1321 2478
1321 2485
1321 2492
1321 2497
1321 2533
1321 2551
1321 2553
1321 2554
1321 2559
1321 2564
1321 2571
1321 2578
1321 2590
1321 2601
1321 2620
1321 2630
1321 2640
1321 2649
1321 2655
1321 2658
1321 2664
1321 2665
1321 2666
1321 2668
1321 2690
1321 2696
1321 2703
1321 2719
1321 2745
1321 2751
1321 2755
1321 2767
1321 2791
1321 2804
1321 2808
1321 2827
1321 2848
1321 2849
1321 2850
1321 2879
1321 2907
1321 2944
1321 2960
1321 2995
1321 3021
1321 3030
1321 3054
1321 3068
1321 3070
1321 3075
1321 3094
1321 3096
1321 3101
1321 3106
1321 3136
1321 3139
1321 3145
1321 3153
1321 3164
1321 3169
1321 3180
1321 3185
1321 3204
1321 3227
1321 3234
1321 3242
1321 3259
1321 3272
1321 3274
1321 3349
1321 3373
1321 3386
1321 3426
1321 3440
1321 3445
1321 3449
1321 3458
1321 3462
1321 3466
1321 3477
1321 3547
1321 3562
1321 3575
1321 3578
1321 3592
1321 3595
1321 3599
1321 3601
1321 3611
1321 3613
1321 3629
1321 3630
1321 3639
1321 3661
1321 3674
1321 3675
1321 3687
1321 3689
1321 3695
1321 3712
1321 3717
1321 3721
1321 3734
1322 1391
1322 1475
1322 1487
1322 1497
1322 1557
1322 1561
1322 1618
1322 1667
1322 1713
1322 1714
1322 1725
1322 1875
1322 1885
1322 1972
1322 1975
1322 2008
1322 2057
1322 2079
1322 2133
1322 2174
1322 2201
1322 2216
1322 2222
1322 2235
1322 2262
1322 2313
1322 2319
1322 2327
1322 2358
1322 2412
1322 2416
1322 2430
1322 2460
1322 2493
1322 2499
1322 2530
1322 2717
1322 2850
1322 2867
1322 2942
1322 2944
1322 2985
1322 3097
1322 3196
1322 3211
1322 3220
1322 3243
1322 3259
1322 3276
1322 3404
1322 3437
1322 3517
1322 3522
1322 3573
1322 3599
1322 3603
1322 3609
1322 3650
1322 3724
1323 1363
1323 1455
1323 1482
1323 1541
1323 1575
1323 1580
1323 1629
1323 1640
1323 1832
1323 1837
1323 1845
1323 1849
1323 1859
1323 1890
1323 1932
1323 2121
1323 2126
1323 2151
1323 2238
1323 2251
1323 2284
1323 2314
1323 2504
1323 2509
1323 2516
1323 2544
1323 2554
1323 2556
1323 2583
1323 2589
1323 2777
1323 2790
1323 2815
1323 2840
1323 2973
1323 3022
1323 3080
1323 3118
1323 3119
1323 3252
1323 3306
1323 3316
1323 3338
1323 3346
1323 3382
1323 3457
1323 3479
1323 3626
1323 3683
1323 3687
1323 3696
1324 1371
1324 1667
1324 1703
1324 1980
1324 2010
1324 2498
1324 2676
1324 2879
1324 3092
1324 3124
1324 3261
1324 3291
1324 3605
1325 1326
1325 1360
1325 1459
1325 1526
1325 1573
1325 1588
1325 1593
1325 1655
1325 1681
1325 1699
1325 1723
1325 1802
1325 1948
1325 2009
1325 2013
1325 2109
1325 2147
1325 2178
1325 2250
1325 2333
1325 2381
1325 2513
1325 2520
1325 2567
1325 2593
1325 2599
1325 2631
1325 2648
1325 2818
1325 2912
1325 2964
1325 3108
1325 3111
1325 3181
1325 3358
1325 3449
1325 3514
1325 3665
1325 3729
1326 1360
1326 1415
1326 1459
1326 1465
1326 1573
1326 1588
1326 1651
1326 1750
1326 1948
1326 2060
1326 2186
1326 2304
1326 2381
1326 2599
1326 2638
1326 2648
1326 2858
1326 2899
1326 2988
1326 3018
1326 3021
1326 3087
1326 3111
1326 3120
1326 3227
1326 3514
1326 3641
1326 3716
1326 3726
1327 1493
1327 1797
1327 2013
1327 2166
1327 3132
1327 3703
1328 1372
1328 1620
1328 2185
1328 2243
1328 2273
1328 2671
1328 2955
1328 3088
1328 3321
1328 3411
1328 3431
1328 3482
1328 3713
1329 1469
1329 1508
1329 1645
1329 1670
1329 1736
1329 1822
1329 1952
1329 2035
1329 2095
1329 2205
1329 2337
1329 2355
1329 2738
1329 2807
1329 2878
1329 3010
1329 3153
1329 3186
1329 3354
1329 3376
1329 3390
1329 3598
1329 3645
1329 3680
1330 1550
1330 1688
1330 1754
1330 1825
1330 1938
1330 1969
1330 1998
1330 2114
1330 2433
1330 2511
1330 2601
1330 2604
1330 2859
1330 2986
1330 3021
1330 3248
1330 3469
1330 3470
1330 3546
1330 3597
1331 1357
1331 1383
1331 1469
1331 1471
1331 1518
1331 1557
1331 1681
1331 1703
1331 1734
1331 1987
1331 1996
1331 2323
1331 2324
1331 2533
1331 2553
1331 2571
1331 2744
1331 2745
1331 2907
1331 2960
1331 3095
1331 3136
1331 3242
1331 3259
1331 3349
1331 3386
1331 3438
1331 3445
1331 3453
1331 3508
1331 3712
1333 1334
1333 1336
1333 1338
1333 1416
1333 1465
1333 1471
1333 1557
1333 1567
1333 1589
1333 1703
1333 1729
1333 1788
1333 1833
1333 1848
1333 1929
1333 1972
1333 2087
1333 2125
1333 2168
1333 2218
1333 2219
1333 2321
1333 2324
1333 2412
1333 2507
1333 2533
1333 2551
1333 2553
1333 2571
1333 2582
1333 2703
1333 2721
1333 2730
1333 2745
1333 2791
1333 2804
1333 2808
1333 2879
1333 2907
1333 2944
1333 2960
1333 2995
1333 3015
1333 3068
1333 3096
1333 3125
1333 3136
1333 3180
1333 3259
1333 3272
1333 3301
1333 3328
1333 3349
1333 3386
1333 3395
1333 3445
1333 3466
1333 3575
1333 3599
1333 3605
1333 3639
1333 3682
1333 3734
1334 1336
1334 1416
1334 1465
1334 1487
1334 1533
1334 1652
1334 1728
1334 1734
1334 1754
1334 1756
1334 1788
1334 1799
1334 1844
1334 1848
1334 1854
1334 1867
1334 1921
1334 1972
1334 2016
1334 2041
1334 2079
1334 2125
1334 2240
1334 2262
1334 2268
1334 2313
1334 2319
1334 2333
1334 2337
1334 2412
1334 2445
1334 2507
1334 2582
1334 2594
1334 2601
1334 2636
1334 2703
1334 2721
1334 2730
1334 2745
1334 2755
1334 2766
1334 2804
1334 2848
1334 2850
1334 2871
1334 2916
1334 2940
1334 2978
1334 3021
1334 3029
1334 3068
1334 3096
1334 3097
1334 3101
1334 3106
1334 3125
1334 3220
1334 3227
1334 3259
1334 3301
1334 3332
1334 3349
1334 3370
1334 3415
1334 3426
1334 3452
1334 3521
1334 3540
1334 3557
1334 3599
1334 3659
1334 3676
1334 3682
1334 3689
1334 3721
1335 1415
1335 1469
1335 1574
1335 1600
1335 1641
1335 1664
1335 1901
1335 1996
1335 2075
1335 2150
1335 2449
1335 2515
1335 2568
1335 2581
1335 2675
1335 2695
1335 2882
1335 3040
1335 3167
1335 3246
1335 3408
1335 3575
1335 3659
1336 1390
1336 1440
1336 1470
1336 1495
1336 1497
1336 1526
1336 1550
1336 1568
1336 1569
1336 1571
1336 1621
1336 1728
1336 1754
1336 1785
1336 1788
1336 1825
1336 1848
1336 1961
1336 2041
1336 2125
1336 2158
1336 2174
1336 2209
1336 2256
1336 2478
1336 2507
1336 2512
1336 2582
1336 2595
1336 2615
1336 2689
1336 2730
1336 2767
1336 2774
1336 2804
1336 2811
1336 2871
1336 2911
1336 2916
1336 2956
1336 2961
1336 3096
1336 3106
1336 3183
1336 3336
1336 3370
1336 3458
1336 3478
1336 3540
1336 3688
1336 3689
1336 3731
1337 1427
1337 1495
1337 1597
1337 1660
1337 1833
1337 1981
1337 2014
1337 2034
1337 2130
1337 2179
1337 2392
1337 2412
1337 2478
1337 2508
1337 2554
1337 2690
1337 2707
1337 2710
1337 2734
1337 2755
1337 2770
1337 2808
1337 2842
1337 2867
1337 3007
1337 3015
1337 3021
1337 3118
1337 3138
1337 3149
1337 3183
1337 3274
1337 3315
1337 3466
1337 3510
1337 3618
1338 1471
1338 1489
1338 1501
1338 1521
1338 1863
1338 1972
1338 2105
1338 2125
1338 2218
1338 2721
1338 2745
1338 3047
1338 3386
1338 3410
1338 3623
1339 1541
1339 1629
1339 1659
1339 1845
1339 1859
1339 2034
1339 2141
1339 2151
1339 2177
1339 2314
1339 2392
1339 2575
1339 2583
1339 2743
1339 2760
1339 2763
1339 2790
1339 3119
1339 3133
1339 3234
1339 3275
1339 3316
1339 3376
1339 3513
1339 3630
1339 3696
1339 3729
1340 1383
1340 1470
1340 1472
1340 1543
1340 1548
1340 1563
1340 1714
1340 1733
1340 1777
1340 1827
1340 1880
1340 1897
1340 1908
1340 2025
1340 2034
1340 2052
1340 2367
1340 2369
1340 2388
1340 2416
1340 2424
1340 2460
1340 2517
1340 2528
1340 2553
1340 2626
1340 2699
1340 2792
1340 2861
1340 2940
1340 2956
1340 2988
1340 3021
1340 3072
1340 3213
1340 3264
1340 3322
1340 3482
1340 3484
1340 3504
1340 3513
1340 3517
1340 3578
1340 3642
1340 3650
1340 3736
1341 1427
1341 1479
1341 1546
1341 1652
1341 1667
1341 1725
1341 1857
1341 1867
1341 1990
1341 1996
1341 1997
1341 2001
1341 2016
1341 2078
1341 2087
1341 2237
1341 2259
1341 2273
1341 2285
1341 2304
1341 2333
1341 2396
1341 2401
1341 2435
1341 2469
1341 2538
1341 2609
1341 2698
1341 2743
1341 2846
1341 2942
1341 3018
1341 3217
1341 3274
1341 3349
1341 3573
1341 3630
1341 3641
1341 3724
1341 3734
1342 2638
1342 3171
1343 1373
1343 1780
1343 1866
1343 1908
1343 1923
1343 2009
1343 2013
1343 2310
1343 2413
1343 2520
1343 2567
1343 2634
1343 2684
1343 2693
1343 2864
1343 2956
1343 3037
1343 3050
1343 3071
1343 3088
1343 3111
1343 3112
1343 3141
1343 3147
1343 3181
1343 3305
1343 3345
1343 3358
1343 3407
1343 3408
1343 3440
1343 3514
1343 3670
1343 3686
1344 1358
1344 1544
1344 1681
1344 1686
1344 1705
1344 1797
1344 1925
1344 2015
1344 2311
1344 2591
1344 2743
1344 3159
1344 3234
1344 3296
1344 3596
1345 1400
1345 1464
1345 1552
1345 1618
1345 1778
1345 1867
1345 1897
1345 1930
1345 1959
1345 2016
1345 2048
1345 2120
1345 2151
1345 2161
1345 2300
1345 2307
1345 2357
1345 2403
1345 2544
1345 2596
1345 2604
1345 2668
1345 2815
1345 2819
1345 2857
1345 2907
1345 3034
1345 3076
1345 3093
1345 3098
1345 3145
1345 3181
1345 3292
1345 3364
1345 3426
1345 3428
1345 3462
1345 3507
1345 3564
1345 3575
1345 3652
1345 3675
1346 1406
1346 1465
1346 1471
1346 1487
1346 1497
1346 1567
1346 1583
1346 1589
1346 1618
1346 1725
1346 1867
1346 1931
1346 1971
1346 1993
1346 2004
1346 2060
1346 2104
1346 2125
1346 2134
1346 2162
1346 2243
1346 2308
1346 2321
1346 2404
1346 2473
1346 2483
1346 2491
1346 2512
1346 2533
1346 2582
1346 2635
1346 2638
1346 2664
1346 2665
1346 2804
1346 2942
1346 3029
1346 3143
1346 3171
1346 3183
1346 3212
1346 3227
1346 3386
1346 3452
1346 3466
1346 3473
1346 3616
1346 3661
1346 3724
1346 3735
1347 1599
1347 1863
1347 1901
1347 1997
1347 2034
1347 2055
1347 2250
1347 2515
1347 2752
1347 2889
1347 2994
1347 3030
1347 3316
1347 3406
1348 2303
1348 2452
1348 2710
1349 1383
1349 1421
1349 1560
1349 1590
1349 1657
1349 1875
1349 1897
1349 1908
1349 2056
1349 2136
1349 2282
1349 2374
1349 3076
1349 3093
1349 3110
1350 1439
1350 1531
1350 1543
1350 1544
1350 1565
1350 1687
1350 1789
1350 1913
1350 1935
1350 1997
1350 2034
1350 2146
1350 2149
1350 2171
1350 2337
1350 2408
1350 2609
1350 2710
1350 2752
1350 2836
1350 2877
1350 2882
1350 2994
1350 3000
1350 3029
1350 3057
1350 3066
1350 3108
1350 3249
1350 3320
1350 3561
1351 1492
1351 1739
1351 1932
1351 1940
1351 2560
1351 3192
1351 3446
1352 1679
1352 1855
1352 1920
1352 1954
1352 2468
1352 2962
1352 3045
1352 3196
1352 3405
1352 3525
1352 3716
1353 1455
1353 1456
1353 1655
1353 1862
1353 1894
1353 1981
1353 2072
1353 2549
1353 2589
1353 3026
1353 3153
1353 3204
1353 3563
1353 3598
1353 3657
1353 3686
1354 1891
1354 3150
1354 3296
1354 3300
1355 1356
1355 1606
1355 2116
1355 2147
1355 2809
1355 3010
1355 3417
1355 3594
1356 1401
1356 1457
1356 1606
1356 1644
1356 1683
1356 1687
1356 1718
1356 1772
1356 1914
1356 2066
1356 2099
1356 2115
1356 2116
1356 2139
1356 2147
1356 2156
1356 2221
1356 2234
1356 2276
1356 2319
1356 2360
1356 2368
1356 2555
1356 2657
1356 2788
1356 2809
1356 2853
1356 2899
1356 2912
1356 3012
1356 3102
1356 3221
1356 3226
1356 3378
1356 3408
1356 3421
1356 3449
1356 3569
1356 3586
1356 3594
1356 3696
1356 3706
1356 3718
1356 3746
1357 1361
1357 1492
1357 1538
1357 1544
1357 1567
1357 1737
1357 1748
1357 1816
1357 1893
1357 1925
1357 2077
1357 2159
1357 2356
1357 2371
1357 2536
1357 2581
1357 2628
1357 2661
1357 2692
1357 2696
1357 2700
1357 2723
1357 2744
1357 2781
1357 2810
1357 2888
1357 2956
1357 2970
1357 3055
1357 3108
1357 3131
1357 3376
1357 3438
1357 3537
1357 3551
1357 3558
1357 3687
1357 3719
1357 3742
1358 1425
1358 1444
1358 1544
1358 1557
1358 1659
1358 1681
1358 1700
1358 1705
1358 1751
1358 1783
1358 1817
1358 1925
1358 1941
1358 2001
1358 2034
1358 2057
1358 2122
1358 2141
1358 2205
1358 2311
1358 2508
1358 2513
1358 2575
1358 2710
1358 2741
1358 2743
1358 2752
1358 2778
1358 2861
1358 2964
1358 3016
1358 3061
1358 3138
1358 3159
1358 3234
1358 3296
1358 3596
1358 3695
1358 3714
1359 1457
1359 1587
1359 1596
1359 1664
1359 1754
1359 1785
1359 1918
1359 2188
1359 2201
1359 2271
1359 2400
1359 2430
1359 2730
1359 2808
1359 3041
1359 3301
1359 3312
1359 3503
1359 3575
1359 3639
1359 3720
1360 1386
1360 1459
1360 1460
1360 1501
1360 1528
1360 1537
1360 1573
1360 1588
1360 1657
1360 1679
1360 1780
1360 1801
1360 1814
1360 1863
1360 1883
1360 2013
1360 2025
1360 2046
1360 2079
1360 2113
1360 2126
1360 2128
1360 2133
1360 2319
1360 2330
1360 2381
1360 2401
1360 2473
1360 2479
1360 2513
1360 2520
1360 2586
1360 2593
1360 2599
1360 2648
1360 2667
1360 2682
1360 2698
1360 2708
1360 2721
1360 2728
1360 2806
1360 2944
1360 2999
1360 3014
1360 3022
1360 3045
1360 3111
1360 3120
1360 3193
1360 3196
1360 3212
1360 3227
1360 3231
1360 3252
1360 3304
1360 3342
1360 3514
1360 3573
1360 3626
1361 1492
1361 1737
1361 1750
1361 1816
1361 2002
1361 2077
1361 2092
1361 2110
1361 2191
1361 2288
1361 2356
1361 2399
1361 2628
1361 2661
1361 2807
1361 2911
1361 2954
1361 3376
1361 3506
1361 3548
1361 3718
1362 1508
1362 1510
1362 1869
1362 1957
1362 2036
1362 2129
1362 2137
1362 2297
1362 2429
1362 2639
1362 2863
1362 2941
1362 2973
1362 3145
1362 3359
1362 3405
1362 3603
1363 1455
1363 1519
1363 1575
1363 1606
1363 1607
1363 1732
1363 1741
1363 1747
1363 1849
1363 1908
1363 1932
1363 2005
1363 2055
1363 2121
1363 2183
1363 2256
1363 2284
1363 2418
1363 2503
1363 2504
1363 2516
1363 2589
1363 2667
1363 2777
1363 2801
1363 2897
1363 2909
1363 2956
1363 3022
1363 3080
1363 3252
1363 3300
1363 3372
1363 3382
1363 3384
1363 3390
1363 3463
1363 3477
1363 3479
1363 3528
1363 3529
1363 3617
1363 3684
1363 3725
1364 1416
1364 1479
1364 1508
1364 1510
1364 1522
1364 1610
1364 1663
1364 1734
1364 1797
1364 1854
1364 1960
1364 2166
1364 2189
1364 2210
1364 2217
1364 2223
1364 2368
1364 2555
1364 2620
1364 2757
1364 2789
1364 2869
1364 2907
1364 2925
1364 2963
1364 3016
1364 3102
1364 3145
1364 3603
1364 3682
1364 3687
1365 1377
1365 1390
1365 1409
1365 1416
1365 1457
1365 1465
1365 1480
1365 1482
1365 1497
1365 1510
1365 1517
1365 1518
1365 1549
1365 1557
1365 1567
1365 1569
1365 1613
1365 1630
1365 1639
1365 1646
1365 1667
1365 1670
1365 1681
1365 1691
1365 1703
1365 1725
1365 1758
1365 1761
1365 1838
1365 1848
1365 1918
1365 1959
1365 1987
1365 2075
1365 2131
1365 2141
1365 2151
1365 2174
1365 2219
1365 2221
1365 2236
1365 2243
1365 2287
1365 2291
1365 2295
1365 2314
1365 2319
1365 2337
1365 2363
1365 2406
1365 2414
1365 2417
1365 2430
1365 2438
1365 2455
1365 2497
1365 2498
1365 2509
1365 2547
1365 2551
1365 2570
1365 2575
1365 2583
1365 2605
1365 2607
1365 2620
1365 2640
1365 2647
1365 2649
1365 2696
1365 2745
1365 2766
1365 2783
1365 2791
1365 2849
1365 2879
1365 2881
1365 2944
1365 2960
1365 2999
1365 3002
1365 3068
1365 3075
1365 3119
1365 3133
1365 3147
1365 3153
1365 3171
1365 3177
1365 3191
1365 3227
1365 3234
1365 3240
1365 3307
1365 3312
1365 3316
1365 3336
1365 3349
1365 3389
1365 3458
1365 3466
1365 3477
1365 3497
1365 3547
1365 3558
1365 3575
1365 3578
1365 3601
1365 3611
1365 3629
1365 3630
1365 3649
1365 3666
1365 3675
1365 3689
1365 3735
1366 1377
1366 1416
1366 1417
1366 1453
1366 1487
1366 1495
1366 1534
1366 1549
1366 1567
1366 1613
1366 1646
1366 1705
1366 1724
1366 1758
1366 1845
1366 1921
1366 1959
1366 1964
1366 1972
1366 1978
1366 1981
1366 2009
1366 2033
1366 2066
1366 2102
1366 2134
1366 2170
1366 2219
1366 2257
1366 2264
1366 2265
1366 2287
1366 2295
1366 2326
1366 2337
1366 2397
1366 2416
1366 2438
1366 2445
1366 2469
1366 2476
1366 2478
1366 2505
1366 2515
1366 2559
1366 2636
1366 2649
1366 2664
1366 2721
1366 2733
1366 2769
1366 2791
1366 2906
1366 2944
1366 3010
1366 3069
1366 3075
1366 3097
1366 3101
1366 3124
1366 3139
1366 3145
1366 3146
1366 3194
1366 3220
1366 3243
1366 3245
1366 3386
1366 3493
1366 3547
1366 3575
1366 3666
1366 3675
1366 3689
1366 3714
1366 3721
1366 3745
1367 1500
1367 1576
1367 2952
1367 3282
1367 3296
1368 1410
1368 1427
1368 1551
1368 1737
1368 1764
1368 1825
1368 1841
1368 1962
1368 2137
1368 2139
1368 2152
1368 2170
1368 2337
1368 2371
1368 2392
1368 2419
1368 2522
1368 2657
1368 2706
1368 2772
1368 2781
1368 2809
1368 2822
1368 2827
1368 2912
1368 2998
1368 3010
1368 3022
1368 3148
1368 3150
1368 3194
1368 3265
1368 3278
1368 3297
1368 3359
1368 3360
1368 3377
1368 3575
1368 3621
1368 3696
1368 3721
1368 3746
1369 1444
1369 1483
1369 1526
1369 1754
1369 1870
1369 1961
1369 2158
1369 2553
1369 2615
1369 2703
1369 2730
1369 2767
1369 2774
1369 2808
1369 2911
1369 3183
1369 3639
1369 3688
1369 3689
1369 3695
1369 3731
1370 1689
1370 1744
1371 1489
1371 1510
1371 1667
1371 1668
1371 1848
1371 1972
1371 2016
1371 2218
1371 2321
1371 2404
1371 2564
1371 2622
1371 2721
1371 2741
1371 2808
1371 3021
1371 3125
1371 3325
1371 3415
1371 3466
1371 3603
1372 1450
1372 1472
1372 1518
1372 1543
1372 1565
1372 1603
1372 1612
1372 1631
1372 1644
1372 1649
1372 1653
1372 1687
1372 1714
1372 1727
1372 1795
1372 1922
1372 2060
1372 2185
1372 2243
1372 2252
1372 2271
1372 2298
1372 2337
1372 2408
1372 2416
1372 2456
1372 2473
1372 2526
1372 2532
1372 2569
1372 2575
1372 2646
1372 2710
1372 2717
1372 2725
1372 2824
1372 2855
1372 2926
1372 2934
1372 2935
1372 2955
1372 2985
1372 3043
1372 3051
1372 3089
1372 3100
1372 3193
1372 3257
1372 3260
1372 3343
1372 3364
1372 3616
1372 3681
1372 3722
1373 1828
1373 1866
1373 1897
1373 1908
1373 1923
1373 1996
1373 2009
1373 2013
1373 2045
1373 2520
1373 2522
1373 2567
1373 2684
1373 2693
1373 3037
1373 3050
1373 3181
1373 3305
1373 3358
1373 3407
1373 3641
1374 1438
1374 1470
1374 1661
1374 1853
1374 1897
1374 2319
1374 2412
1374 2933
1374 2988
1374 3220
1374 3659
1375 1598
1375 1713
1375 1959
1375 1986
1375 2008
1375 2271
1375 2576
1375 2775
1375 2870
1375 2942
1375 3541
1376 1603
1376 1652
1376 1887
1376 2049
1376 2474
1376 2763
1376 2813
1376 2871
1376 2891
1376 2899
1376 3332
1376 3450
1377 1416
1377 1465
1377 1471
1377 1480
1377 1510
1377 1530
1377 1567
1377 1589
1377 1616
1377 1631
1377 1660
1377 1667
1377 1673
1377 1724
1377 1728
1377 1886
1377 1898
1377 1929
1377 1944
1377 1971
1377 2020
1377 2026
1377 2031
1377 2040
1377 2066
1377 2068
1377 2111
1377 2125
1377 2265
1377 2363
1377 2378
1377 2397
1377 2404
1377 2412
1377 2438
1377 2474
1377 2507
1377 2512
1377 2551
1377 2582
1377 2620
1377 2664
1377 2696
1377 2703
1377 2730
1377 2745
1377 2791
1377 2804
1377 2838
1377 2849
1377 2879
1377 2944
1377 3029
1377 3070
1377 3096
1377 3108
1377 3131
1377 3136
1377 3145
1377 3153
1377 3163
1377 3183
1377 3184
1377 3191
1377 3227
1377 3306
1377 3323
1377 3325
1377 3336
1377 3349
1377 3386
1377 3466
1377 3521
1377 3557
1377 3562
1377 3575
1377 3639
1377 3689
1377 3737
1378 1905
1379 1456
1379 1880
1379 2537
1379 2627
1379 2962
1379 3234
1379 3594
1380 2171
1380 2356
1380 2749
1380 3192
1380 3446
1380 3637
1380 3686
1381 1444
1381 1593
1381 2008
1381 2066
1381 2138
1381 2392
1381 2543
1381 2557
1381 2607
1381 2681
1381 2831
1381 2962
1381 3144
1381 3385
1381 3418
1381 3595
1382 1417
1382 1598
1382 1695
1382 1801
1382 2944
1382 3473
1382 3514
1382 3616
1383 1548
1383 1590
1383 1648
1383 1714
1383 1747
1383 1875
1383 1897
1383 1996
1383 2187
1383 2340
1383 2573
1383 2622
1383 2757
1383 2817
1383 2844
1383 2869
1383 2907
1383 3095
1383 3137
1383 3340
1383 3342
1383 3504
1383 3568
1383 3636
1384 1598
1384 1617
1384 1725
1384 1746
1384 2315
1384 2775
1384 2870
1384 3360
1384 3543
1385 1575
1385 1665
1385 2236
1385 2284
1385 2408
1385 2567
1385 2589
1385 2648
1385 2791
1385 3295
1385 3382
1385 3479
1385 3514
1385 3725
1386 1801
1386 2504
1386 2596
1386 2880
1386 3154
1387 1772
1387 1776
1387 2386
1387 2570
1388 2241
1388 2256
1388 3156
1389 1433
1389 1482
1389 1519
1389 1661
1389 1686
1389 1705
1389 1729
1389 1837
1389 1882
1389 1894
1389 1952
1389 1973
1389 2015
1389 2039
1389 2201
1389 2204
1389 2219
1389 2236
1389 2323
1389 2325
1389 2406
1389 2422
1389 2554
1389 2638
1389 2648
1389 2763
1389 2849
1389 2856
1389 2881
1389 2948
1389 2960
1389 2973
1389 3002
1389 3006
1389 3026
1389 3115
1389 3234
1389 3385
1389 3396
1389 3410
1389 3440
1389 3473
1389 3514
1389 3516
1389 3584
1389 3668
1389 3700
1389 3725
1390 1465
1390 1549
1390 1569
1390 1681
1390 1703
1390 1725
1390 1838
1390 1918
1390 1987
1390 2025
1390 2060
1390 2287
1390 2528
1390 2607
1390 2870
1390 2999
1390 3043
1390 3107
1390 3171
1390 3191
1390 3312
1390 3336
1390 3689
1390 3735
1391 1453
1391 1472
1391 1510
1391 1559
1391 1725
1391 1822
1391 1885
1391 2031
1391 2036
1391 2046
1391 2132
1391 2152
1391 2219
1391 2384
1391 2429
1391 2438
1391 2449
1391 2485
1391 2493
1391 2547
1391 2559
1391 2566
1391 2639
1391 2708
1391 2713
1391 2721
1391 2799
1391 2808
1391 2943
1391 2980
1391 3061
1391 3153
1391 3452
1391 3528
1391 3585
1391 3600
1391 3603
1391 3665
1391 3680
1391 3714
1391 3718
1392 1688
1392 1956
1392 2182
1392 2425
1392 2875
1393 1514
1393 1799
1393 1948
1393 2213
1393 2252
1393 3214
1393 3528
1393 3573
1393 3726
1393 3743
1394 3459
1394 3534
1395 1946
1395 2364
1395 2418
1396 1820
1396 2416
1396 3663
1397 2948
1397 3655
1398 1413
1398 1691
1398 1701
1398 1895
1398 1958
1398 2217
1398 2346
1398 2434
1398 2440
1398 2742
1398 2841
1398 2853
1398 3031
1398 3036
1398 3197
1398 3271
1398 3420
1398 3495
1398 3553
1398 3686
1399 1605
1399 2433
1399 2756
1399 2768
1399 3255
1399 3326
1399 3633
1400 1489
1400 1618
1400 1646
1400 1775
1400 1959
1400 1972
1400 2032
1400 2048
1400 2115
1400 2120
1400 2222
1400 2256
1400 2307
1400 2337
1400 2445
1400 2522
1400 2622
1400 2668
1400 2684
1400 2689
1400 2721
1400 2808
1400 2837
1400 2869
1400 2907
1400 2916
1400 3101
1400 3125
1400 3145
1400 3220
1400 3243
1400 3259
1400 3292
1400 3395
1400 3426
1400 3462
1400 3507
1400 3518
1400 3544
1400 3546
1400 3575
1400 3621
1400 3639
1400 3675
1400 3682
1400 3696
1400 3721
1401 1452
1401 1460
1401 1465
1401 1549
1401 1687
1401 1716
1401 1772
1401 2014
1401 2219
1401 2221
1401 2414
1401 2418
1401 2420
1401 2445
1401 2551
1401 2570
1401 2620
1401 2770
1401 2849
1401 2912
1401 2999
1401 3010
1401 3023
1401 3153
1401 3191
1401 3226
1401 3253
1401 3408
1401 3553
1401 3558
1401 3592
1401 3601
1401 3611
1401 3629
1402 1471
1402 1498
1402 1501
1402 1543
1402 1557
1402 1681
1402 1870
1402 1941
1402 1978
1402 2016
1402 2024
1402 2170
1402 2229
1402 2378
1402 2485
1402 2512
1402 2554
1402 2597
1402 2655
1402 2680
1402 2703
1402 2741
1402 2745
1402 2808
1402 2832
1402 2865
1402 2916
1402 2944
1402 2960
1402 3047
1402 3059
1402 3098
1402 3101
1402 3121
1402 3242
1402 3349
1402 3359
1402 3440
1402 3478
1402 3497
1402 3521
1402 3575
1402 3613
1402 3639
1402 3661
1402 3669
1402 3695
1402 3721
1403 1412
1403 1469
1403 1509
1403 1543
1403 1632
1403 1806
1403 1808
1403 1873
1403 1996
1403 2095
1403 2316
1403 2347
1403 2474
1403 2544
1403 2568
1403 2570
1403 2683
1403 2693
1403 2808
1403 2819
1403 2869
1403 3021
1403 3078
1403 3105
1403 3129
1403 3137
1403 3150
1403 3209
1403 3223
1403 3253
1403 3266
1403 3332
1403 3423
1403 3521
1403 3575
1403 3628
1403 3630
1403 3639
1403 3702
1404 1797
1404 1867
1404 1894
1404 1926
1404 1985
1404 2071
1404 2445
1404 2481
1404 2495
1404 2576
1404 2808
1404 3364
1405 1863
1405 2059
1405 2140
1405 2316
1405 2682
1405 2967
1406 1618
1406 1709
1406 1931
1406 2047
1406 2447
1406 2473
1406 2482
1406 2491
1406 2635
1406 2638
1406 2763
1406 2780
1406 2867
1406 3029
1406 3069
1406 3433
1406 3435
1406 3452
1406 3531
1406 3724
1407 1859
1407 2151
1407 2314
1407 3696
1408 1780
1408 1814
1408 1845
1408 1908
1408 2012
1408 2064
1408 2104
1408 2186
1408 2250
1408 2267
1408 2330
1408 2507
1408 2515
1408 2528
1408 2578
1408 2707
1408 2751
1408 2755
1408 2763
1408 2838
1408 2858
1408 2908
1408 2973
1408 2997
1408 3021
1408 3030
1408 3087
1408 3147
1408 3207
1408 3222
1408 3224
1408 3257
1408 3297
1408 3306
1408 3316
1408 3599
1409 1630
1409 2565
1409 2620
1409 2901
1409 3235
1409 3466
1409 3611
1410 1764
1410 1825
1410 1962
1410 2170
1410 2460
1410 3012
1410 3194
1410 3297
1410 3359
1410 3377
1410 3466
1410 3513
1410 3575
1411 1440
1411 1737
1411 1816
1411 1832
1411 2002
1411 2174
1411 2180
1411 2371
1411 2888
1411 2890
1411 2911
1411 2956
1411 3093
1411 3150
1411 3302
1411 3306
1411 3359
1411 3710
1412 1444
1412 1445
1412 2035
1412 2232
1412 2710
1412 2810
1412 3507
1412 3711
1412 3741
1413 1420
1413 1431
1413 1611
1413 1666
1413 1677
1413 1683
1413 1735
1413 1916
1413 1949
1413 1994
1413 2019
1413 2406
1413 2411
1413 2433
1413 2437
1413 2677
1413 2809
1413 2834
1413 2841
1413 2914
1413 2944
1413 2976
1413 3064
1413 3093
1413 3222
1413 3298
1413 3421
1413 3470
1413 3495
1413 3537
1413 3579
1413 3746
1414 1731
1414 2046
1414 2060
1414 2113
1414 2158
1414 2206
1414 2360
1414 2682
1414 2770
1414 3183
1414 3257
1414 3297
1414 3304
1414 3430
1414 3562
1414 3681
1415 1469
1415 1884
1415 1996
1415 2108
1415 2250
1415 2515
1415 2695
1415 2899
1415 2908
1415 3408
1415 3598
1416 1471
1416 1487
1416 1501
1416 1521
1416 1522
1416 1557
1416 1567
1416 1578
1416 1616
1416 1667
1416 1703
1416 1734
1416 1761
1416 1788
1416 1844
1416 1848
1416 1854
1416 1870
1416 1876
1416 1921
1416 1925
1416 1941
1416 1959
1416 1972
1416 2014
1416 2024
1416 2040
1416 2087
1416 2125
1416 2206
1416 2210
1416 2219
1416 2221
1416 2240
1416 2265
1416 2287
1416 2291
1416 2315
1416 2337
1416 2414
1416 2430
1416 2445
1416 2455
1416 2507
1416 2544
1416 2559
1416 2564
1416 2608
1416 2620
1416 2703
1416 2721
1416 2745
1416 2766
1416 2783
1416 2791
1416 2808
1416 2849
1416 2850
1416 2933
1416 2989
1416 3047
1416 3054
1416 3068
1416 3071
1416 3075
1416 3083
1416 3101
1416 3125
1416 3136
1416 3145
1416 3185
1416 3197
1416 3220
1416 3243
1416 3259
1416 3292
1416 3301
1416 3349
1416 3386
1416 3426
1416 3449
1416 3466
1416 3477
1416 3534
1416 3544
1416 3553
1416 3575
1416 3603
1416 3611
1416 3629
1416 3639
1416 3674
1416 3675
1416 3676
1416 3682
1416 3695
1416 3721
1416 3734
1417 1453
1417 1465
1417 1549
1417 1693
1417 1695
1417 1930
1417 1997
1417 2111
1417 2270
1417 2479
1417 2505
1417 2566
1417 2633
1417 2635
1417 2649
1417 2699
1417 2804
1417 2985
1417 3045
1417 3191
1417 3308
1417 3482
1417 3666
1418 2539
1418 3464
1418 3500
1419 1567
1419 1642
1419 1710
1419 1737
1419 1747
1419 1776
1419 1816
1419 1879
1419 1899
1419 1908
1419 2052
1419 2064
1419 2211
1419 2276
1419 2371
1419 2372
1419 2376
1419 2416
1419 2504
1419 2517
1419 2519
1419 2528
1419 2665
1419 2699
1419 2710
1419 2792
1419 2861
1419 2880
1419 2888
1419 2890
1419 2911
1419 2956
1419 2967
1419 3094
1419 3207
1419 3339
1419 3482
1419 3513
1419 3572
1419 3578
1419 3642
1419 3683
1419 3736
1420 2834
1420 3081
1420 3537
1421 1509
1421 1554
1421 1590
1421 1744
1421 1908
1421 1925
1421 2015
1421 2056
1421 2372
1421 2419
1421 2442
1421 2596
1421 2844
1421 3050
1421 3340
1421 3424
1421 3507
1421 3568
1421 3673
1422 1972
1422 3343
1423 1887
1423 2710
1423 3000
1423 3224
1424 1603
1424 2212
1424 3175
1424 3234
1424 3295
1425 1472
1425 1557
1425 1570
1425 1703
1425 1705
1425 1778
1425 1783
1425 1787
1425 1870
1425 1941
1425 2057
1425 2122
1425 2142
1425 2174
1425 2177
1425 2202
1425 2212
1425 2220
1425 2373
1425 2474
1425 2475
1425 2599
1425 2648
1425 2665
1425 2734
1425 2778
1425 2828
1425 2964
1425 3016
1425 3061
1425 3156
1425 3160
1425 3205
1425 3206
1425 3219
1425 3364
1425 3367
1425 3376
1425 3393
1425 3423
1425 3502
1425 3519
1425 3526
1425 3559
1426 1582
1426 1894
1426 1976
1426 2078
1426 2217
1426 2266
1426 2703
1426 2770
1426 3163
1426 3420
1426 3533
1426 3546
1426 3574
1427 1557
1427 1593
1427 1630
1427 1754
1427 1825
1427 1962
1427 1981
1427 2059
1427 2090
1427 2098
1427 2130
1427 2170
1427 2254
1427 2344
1427 2438
1427 2508
1427 2510
1427 2623
1427 2769
1427 2781
1427 2822
1427 2827
1427 2933
1427 3010
1427 3012
1427 3075
1427 3138
1427 3166
1427 3194
1427 3204
1427 3297
1427 3359
1427 3455
1427 3466
1427 3491
1427 3563
1427 3575
1427 3588
1427 3618
1427 3626
1427 3695
1427 3696
1428 1850
1428 1908
1428 2129
1428 3111
1428 3490
1429 1715
1429 2486
1429 3175
1429 3256
1429 3633
1430 2206
1430 2470
1430 2514
1430 2877
1430 3046
1430 3142
1430 3265
1430 3466
1430 3575
1431 1445
1431 1611
1431 1820
1431 1916
1431 1988
1431 1994
1431 2103
1431 2191
1431 2316
1431 2440
1431 2452
1431 2634
1431 2897
1431 2915
1431 2944
1431 2965
1431 3081
1431 3088
1431 3093
1431 3357
1431 3420
1431 3421
1431 3487
1431 3546
1431 3664
1431 3723
1432 1820
1432 1928
1432 1935
1432 1958
1432 2042
1432 2114
1432 2167
1432 2452
1432 2634
1432 2677
1432 2737
1432 2825
1432 3021
1432 3081
1432 3135
1432 3441
1432 3481
1432 3561
1432 3574
1434 1472
1434 1880
1434 1931
1434 2060
1434 2298
1434 2370
1434 2526
1434 2612
1434 2933
1434 3257
1434 3649
1436 1543
1436 1692
1436 1906
1436 2122
1436 2174
1436 2447
1436 2482
1436 2540
1436 3091
1436 3135
1436 3175
1436 3350
1436 3474
1436 3577
1436 3659
1437 2400
1438 1541
1438 2262
1438 2412
1438 2503
1438 3107
1438 3117
1438 3670
1439 1518
1439 1544
1439 1565
1439 1789
1439 1871
1439 2271
1439 2337
1439 2514
1439 2552
1439 2710
1439 2752
1439 2760
1439 2861
1439 2994
1439 3057
1439 3223
1439 3249
1439 3425
1440 1470
1440 1526
1440 1568
1440 1706
1440 1728
1440 1737
1440 1754
1440 1785
1440 1816
1440 1825
1440 1841
1440 1908
1440 1961
1440 2002
1440 2055
1440 2092
1440 2170
1440 2209
1440 2356
1440 2371
1440 2615
1440 2656
1440 2672
1440 2687
1440 2730
1440 2767
1440 2773
1440 2781
1440 2823
1440 2830
1440 2888
1440 2890
1440 2911
1440 2956
1440 3093
1440 3096
1440 3106
1440 3150
1440 3183
1440 3278
1440 3422
1440 3456
1440 3507
1440 3540
1440 3548
1440 3621
1440 3688
1440 3689
1440 3706
1440 3710
1440 3731
1441 1683
1441 1752
1441 1812
1441 2037
1441 2279
1441 3294
1442 1875
1442 2544
1442 2605
1442 2700
1442 2751
1442 2829
1442 3117
1442 3507
1442 3686
1443 1894
1443 2425
1443 2453
1443 2892
1443 3234
1443 3283
1443 3326
1443 3365
1443 3567
1444 1479
1444 1483
1444 1537
1444 1593
1444 1698
1444 1717
1444 1719
1444 1751
1444 1782
1444 1811
1444 1817
1444 1856
1444 1897
1444 1925
1444 1996
1444 2004
1444 2013
1444 2029
1444 2137
1444 2138
1444 2163
1444 2165
1444 2238
1444 2253
1444 2282
1444 2300
1444 2353
1444 2356
1444 2400
1444 2544
1444 2604
1444 2680
1444 2706
1444 2723
1444 2771
1444 2829
1444 2866
1444 2883
1444 2884
1444 2917
1444 2925
1444 2956
1444 2967
1444 2973
1444 3016
1444 3038
1444 3084
1444 3173
1444 3203
1444 3360
1444 3371
1444 3380
1444 3437
1444 3455
1444 3485
1444 3586
1444 3638
1444 3687
1445 1974
1445 2075
1445 2114
1445 2191
1445 2217
1445 2440
1445 2452
1445 2472
1445 2489
1445 2693
1445 3021
1445 3081
1445 3088
1445 3135
1445 3197
1445 3546
1445 3566
1445 3609
1445 3711
1446 1604
1446 1820
1446 1865
1446 2078
1446 2081
1446 2114
1446 2283
1446 2300
1446 2341
1446 2433
1446 2452
1446 2489
1446 2634
1446 2709
1446 2724
1446 2789
1446 2834
1446 2859
1446 3021
1446 3081
1446 3088
1446 3248
1446 3317
1446 3421
1446 3450
1446 3597
1446 3658
1447 1894
1447 1926
1447 2605
1447 3063
1447 3270
1448 1855
1448 1954
1448 2236
1448 2276
1448 2308
1448 2337
1448 2455
1448 2538
1448 2728
1448 2962
1448 3094
1448 3433
1448 3550
1448 3690
1448 3716
1448 3724
1449 1757
1449 2325
1449 3203
1449 3373
1450 1597
1450 1624
1450 1631
1450 1668
1450 1724
1450 1731
1450 1799
1450 1863
1450 1876
1450 1918
1450 1972
1450 2021
1450 2060
1450 2363
1450 2445
1450 2559
1450 2564
1450 2569
1450 2705
1450 2787
1450 2889
1450 2933
1450 3043
1450 3101
1450 3145
1450 3153
1450 3155
1450 3168
1450 3190
1450 3199
1450 3243
1450 3257
1450 3260
1450 3270
1450 3343
1450 3473
1450 3511
1450 3544
1450 3616
1450 3675
1450 3738
1451 1497
1451 1855
1451 1954
1451 2146
1451 2363
1451 2400
1451 2423
1451 2726
1451 2891
1451 2962
1451 3261
1451 3716
1452 1574
1452 1837
1452 1870
1452 1941
1452 1972
1452 2009
1452 2046
1452 2202
1452 2237
1452 2396
1452 2655
1452 2808
1452 2839
1452 2865
1452 3316
1452 3321
1452 3362
1452 3437
1452 3573
1453 1725
1453 2049
1453 2057
1453 2157
1453 2285
1453 2313
1453 2358
1453 2430
1453 2499
1453 2602
1453 2879
1453 3116
1453 3386
1453 3405
1453 3599
1453 3681
1454 1908
1454 2116
1454 2503
1454 2948
1454 2978
1454 3021
1454 3061
1454 3107
1454 3117
1454 3376
1454 3523
1454 3670
1455 1575
1455 1655
1455 1732
1455 1741
1455 2072
1455 2516
1455 2589
1455 2948
1455 3026
1455 3204
1455 3252
1455 3338
1455 3382
1455 3529
1455 3657
1455 3684
1455 3686
1455 3711
1456 1655
1456 1745
1456 1793
1456 1948
1456 1981
1456 2072
1456 2152
1456 2174
1456 2177
1456 2319
1456 2350
1456 2513
1456 2570
1456 2593
1456 2600
1456 2808
1456 2877
1456 2933
1456 3026
1456 3059
1456 3110
1456 3122
1456 3204
1456 3240
1456 3443
1456 3563
1456 3626
1456 3641
1456 3657
1456 3704
1457 1472
1457 1487
1457 1578
1457 1587
1457 1596
1457 1606
1457 1664
1457 1725
1457 1914
1457 1918
1457 2016
1457 2032
1457 2116
1457 2139
1457 2147
1457 2156
1457 2174
1457 2188
1457 2201
1457 2224
1457 2229
1457 2234
1457 2235
1457 2271
1457 2276
1457 2308
1457 2368
1457 2406
1457 2555
1457 2605
1457 2608
1457 2632
1457 2657
1457 2752
1457 2794
1457 2809
1457 2901
1457 2912
1457 2994
1457 3012
1457 3041
1457 3068
1457 3153
1457 3226
1457 3230
1457 3301
1457 3309
1457 3312
1457 3378
1457 3415
1457 3720
1458 1475
1458 1537
1458 1549
1458 1583
1458 1597
1458 1679
1458 1729
1458 1843
1458 1912
1458 2001
1458 2042
1458 2064
1458 2068
1458 2079
1458 2160
1458 2176
1458 2218
1458 2290
1458 2306
1458 2349
1458 2363
1458 2369
1458 2390
1458 2412
1458 2469
1458 2601
1458 2636
1458 2659
1458 2710
1458 2755
1458 2804
1458 2842
1458 2895
1458 2941
1458 3021
1458 3029
1458 3086
1458 3116
1458 3118
1458 3161
1458 3274
1458 3386
1458 3399
1458 3450
1458 3510
1458 3557
1458 3640
1459 1465
1459 1497
1459 1507
1459 1537
1459 1573
1459 1588
1459 1665
1459 1721
1459 1750
1459 1768
1459 1780
1459 1855
1459 1862
1459 1901
1459 1914
1459 1948
1459 2013
1459 2069
1459 2086
1459 2133
1459 2186
1459 2219
1459 2299
1459 2304
1459 2381
1459 2384
1459 2387
1459 2394
1459 2473
1459 2513
1459 2520
1459 2522
1459 2567
1459 2586
1459 2593
1459 2599
1459 2608
1459 2613
1459 2648
1459 2732
1459 2763
1459 2791
1459 2818
1459 2899
1459 2944
1459 2988
1459 3018
1459 3020
1459 3087
1459 3111
1459 3227
1459 3247
1459 3260
1459 3261
1459 3306
1459 3489
1459 3514
1459 3573
1459 3641
1459 3674
1460 1596
1460 1673
1460 1695
1460 1801
1460 1997
1460 2115
1460 2219
1460 2412
1460 2438
1460 2666
1460 2682
1460 2792
1460 3002
1460 3010
1460 3039
1460 3128
1460 3220
1460 3348
1460 3439
1460 3573
1460 3601
1460 3649
1461 1614
1461 1870
1461 1898
1461 1944
1461 2040
1461 2132
1461 2134
1461 2438
1461 2497
1461 2755
1461 3279
1461 3349
1461 3452
1462 1559
1462 2174
1462 2392
1462 2827
1462 2996
1462 3010
1462 3404
1462 3466
1462 3518
1462 3689
1462 3695
1463 1670
1463 3319
1463 3468
1464 1552
1464 1568
1464 1626
1464 1685
1464 1744
1464 1778
1464 1837
1464 1853
1464 1994
1464 1996
1464 2045
1464 2054
1464 2075
1464 2151
1464 2403
1464 2463
1464 2710
1464 2805
1464 2925
1464 2973
1464 3031
1464 3034
1464 3110
1464 3227
1464 3249
1464 3364
1464 3428
1464 3453
1464 3536
1464 3564
1464 3728
1465 1471
1465 1480
1465 1487
1465 1510
1465 1517
1465 1518
1465 1549
1465 1567
1465 1569
1465 1571
1465 1578
1465 1583
1465 1589
1465 1616
1465 1618
1465 1664
1465 1667
1465 1681
1465 1699
1465 1729
1465 1755
1465 1761
1465 1809
1465 1838
1465 1843
1465 1848
1465 1877
1465 1884
1465 1908
1465 1918
1465 1959
1465 1971
1465 1972
1465 1987
1465 2016
1465 2040
1465 2079
1465 2131
1465 2184
1465 2188
1465 2219
1465 2221
1465 2236
1465 2237
1465 2257
1465 2264
1465 2287
1465 2291
1465 2295
1465 2301
1465 2316
1465 2319
1465 2326
1465 2363
1465 2378
1465 2397
1465 2412
1465 2414
1465 2430
1465 2438
1465 2441
1465 2455
1465 2478
1465 2505
1465 2507
1465 2512
1465 2517
1465 2528
1465 2547
1465 2551
1465 2559
1465 2599
1465 2601
1465 2605
1465 2607
1465 2608
1465 2620
1465 2633
1465 2638
1465 2640
1465 2647
1465 2649
1465 2658
1465 2664
1465 2665
1465 2688
1465 2696
1465 2699
1465 2745
1465 2755
1465 2767
1465 2783
1465 2791
1465 2849
1465 2850
1465 2879
1465 2944
1465 2978
1465 2999
1465 3010
1465 3023
1465 3029
1465 3068
1465 3075
1465 3093
1465 3096
1465 3097
1465 3108
1465 3131
1465 3153
1465 3164
1465 3171
1465 3191
1465 3220
1465 3227
1465 3253
1465 3259
1465 3301
1465 3312
1465 3336
1465 3349
1465 3370
1465 3386
1465 3395
1465 3415
1465 3451
1465 3452
1465 3466
1465 3477
1465 3531
1465 3540
1465 3547
1465 3558
1465 3592
1465 3601
1465 3611
1465 3617
1465 3629
1465 3659
1465 3666
1465 3675
1465 3676
1465 3689
1465 3724
1465 3734
1465 3735
1467 1520
1467 1790
1467 1848
1467 2020
1467 2316
1467 2818
1467 2903
1468 1638
1468 2341
1468 3021
1468 3248
1468 3554
1469 1509
1469 1544
1469 1610
1469 1645
1469 1648
1469 1692
1469 1736
1469 1744
1469 1748
1469 1806
1469 1822
1469 1828
1469 1862
1469 1866
1469 1872
1469 1873
1469 1881
1469 1893
1469 1908
1469 1913
1469 1939
1469 1952
1469 1996
1469 2009
1469 2011
1469 2033
1469 2035
1469 2042
1469 2095
1469 2135
1469 2146
1469 2148
1469 2174
1469 2195
1469 2201
1469 2205
1469 2211
1469 2212
1469 2237
1469 2238
1469 2282
1469 2356
1469 2372
1469 2388
1469 2416
1469 2447
1469 2471
1469 2484
1469 2520
1469 2568
1469 2570
1469 2581
1469 2604
1469 2605
1469 2611
1469 2613
1469 2648
1469 2668
1469 2680
1469 2693
1469 2749
1469 2795
1469 2802
1469 2817
1469 2845
1469 2857
1469 2877
1469 2878
1469 2911
1469 2925
1469 2956
1469 2989
1469 3002
1469 3004
1469 3028
1469 3044
1469 3055
1469 3091
1469 3120
1469 3127
1469 3128
1469 3130
1469 3137
1469 3141
1469 3150
1469 3153
1469 3186
1469 3207
1469 3246
1469 3268
1469 3273
1469 3296
1469 3305
1469 3306
1469 3324
1469 3358
1469 3376
1469 3390
1469 3396
1469 3404
1469 3418
1469 3423
1469 3435
1469 3437
1469 3461
1469 3465
1469 3496
1469 3504
1469 3513
1469 3573
1469 3594
1469 3598
1469 3632
1469 3638
1469 3654
1469 3662
1469 3680
1469 3691
1469 3702
1469 3718
1469 3726
1469 3736
1470 1526
1470 1550
1470 1568
1470 1754
1470 1772
1470 1785
1470 1788
1470 1816
1470 1825
1470 1893
1470 1897
1470 1957
1470 1960
1470 1961
1470 2067
1470 2158
1470 2187
1470 2209
1470 2388
1470 2507
1470 2595
1470 2615
1470 2730
1470 2767
1470 2774
1470 2819
1470 2911
1470 2956
1470 2973
1470 2988
1470 3093
1470 3096
1470 3106
1470 3183
1470 3370
1470 3540
1470 3605
1470 3641
1470 3688
1470 3689
1470 3695
1470 3731
1471 1487
1471 1501
1471 1510
1471 1526
1471 1557
1471 1567
1471 1583
1471 1618
1471 1622
1471 1630
1471 1631
1471 1703
1471 1723
1471 1725
1471 1729
1471 1762
1471 1788
1471 1814
1471 1818
1471 1831
1471 1848
1471 1863
1471 1870
1471 1929
1471 1972
1471 1980
1471 2024
1471 2040
1471 2087
1471 2125
1471 2138
1471 2218
1471 2219
1471 2229
1471 2240
1471 2254
1471 2291
1471 2299
1471 2324
1471 2350
1471 2412
1471 2414
1471 2430
1471 2459
1471 2492
1471 2528
1471 2533
1471 2553
1471 2564
1471 2571
1471 2620
1471 2658
1471 2664
1471 2703
1471 2745
1471 2765
1471 2791
1471 2804
1471 2808
1471 2848
1471 2849
1471 2850
1471 2879
1471 2907
1471 2960
1471 2995
1471 3015
1471 3023
1471 3030
1471 3054
1471 3068
1471 3096
1471 3101
1471 3136
1471 3139
1471 3145
1471 3169
1471 3242
1471 3259
1471 3272
1471 3325
1471 3349
1471 3373
1471 3386
1471 3426
1471 3440
1471 3445
1471 3451
1471 3462
1471 3466
1471 3477
1471 3558
1471 3592
1471 3599
1471 3601
1471 3611
1471 3629
1471 3639
1471 3674
1471 3675
1471 3687
1471 3689
1471 3712
1471 3721
1471 3734
1472 1501
1472 1543
1472 1655
1472 1675
1472 1700
1472 1714
1472 1733
1472 1748
1472 1777
1472 1799
1472 1822
1472 2052
1472 2116
1472 2142
1472 2147
1472 2188
1472 2272
1472 2278
1472 2298
1472 2367
1472 2392
1472 2416
1472 2460
1472 2463
1472 2479
1472 2493
1472 2517
1472 2528
1472 2665
1472 2682
1472 2734
1472 2749
1472 2792
1472 2845
1472 2861
1472 2919
1472 2933
1472 2940
1472 2974
1472 2988
1472 3094
1472 3339
1472 3343
1472 3466
1472 3484
1472 3504
1472 3513
1472 3526
1472 3617
1472 3650
1472 3671
1472 3683
1472 3695
1472 3718
1472 3722
1473 2503
1473 2564
1473 3015
1473 3337
1473 3466
1474 2206
1474 2384
1474 2514
1474 3043
1475 1537
1475 1546
1475 1567
1475 1597
1475 1688
1475 1695
1475 1729
1475 1829
1475 1833
1475 1843
1475 1912
1475 1959
1475 1993
1475 2042
1475 2068
1475 2094
1475 2112
1475 2176
1475 2225
1475 2290
1475 2324
1475 2329
1475 2358
1475 2363
1475 2369
1475 2390
1475 2412
1475 2423
1475 2469
1475 2478
1475 2510
1475 2513
1475 2582
1475 2601
1475 2604
1475 2636
1475 2698
1475 2730
1475 2755
1475 2791
1475 2804
1475 2821
1475 2842
1475 2895
1475 3010
1475 3021
1475 3047
1475 3086
1475 3116
1475 3129
1475 3152
1475 3161
1475 3178
1475 3184
1475 3258
1475 3274
1475 3279
1475 3316
1475 3360
1475 3370
1475 3386
1475 3399
1475 3433
1475 3450
1475 3465
1475 3599
1475 3640
1476 1484
1476 2328
1476 3135
1476 3574
1476 3702
1477 1490
1477 1494
1477 1604
1477 1719
1477 1773
1477 1790
1477 1948
1477 2002
1477 2004
1477 2034
1477 2146
1477 2206
1477 2462
1477 2480
1477 2485
1477 2514
1477 2522
1477 2579
1477 2597
1477 2665
1477 2666
1477 2814
1477 2897
1477 2899
1477 3043
1477 3094
1477 3161
1477 3167
1477 3171
1477 3224
1477 3330
1477 3426
1477 3447
1477 3528
1477 3600
1477 3684
1478 1598
1478 1723
1478 2734
1478 2949
1478 3573
1479 1610
1479 1667
1479 1671
1479 1679
1479 1687
1479 1725
1479 1734
1479 1751
1479 1856
1479 1859
1479 1870
1479 1928
1479 1941
1479 1961
1479 2014
1479 2025
1479 2049
1479 2136
1479 2166
1479 2175
1479 2210
1479 2212
1479 2237
1479 2269
1479 2281
1479 2330
1479 2369
1479 2371
1479 2445
1479 2474
1479 2544
1479 2564
1479 2720
1479 2757
1479 2793
1479 2817
1479 2838
1479 2907
1479 2911
1479 2925
1479 2956
1479 2967
1479 2975
1479 2994
1479 2997
1479 3007
1479 3016
1479 3045
1479 3093
1479 3105
1479 3163
1479 3212
1479 3297
1479 3304
1479 3332
1479 3368
1479 3371
1479 3431
1479 3437
1479 3677
1479 3683
1479 3691
1479 3696
1479 3728
1480 1510
1480 1530
1480 1616
1480 1631
1480 1667
1480 1898
1480 2006
1480 2066
1480 2121
1480 2219
1480 2229
1480 2378
1480 2397
1480 2404
1480 2640
1480 2696
1480 2791
1480 2804
1480 2815
1480 2879
1480 3015
1480 3029
1480 3055
1480 3070
1480 3093
1480 3108
1480 3131
1480 3147
1480 3227
1480 3243
1480 3306
1480 3466
1480 3534
1480 3562
1480 3575
1480 3596
1480 3687
1480 3689
1480 3719
1480 3737
1481 2632
1481 2966
1481 3026
1481 3091
1481 3349
1481 3520
1481 3555
1482 1541
1482 1640
1482 1644
1482 1979
1482 2115
1482 2151
1482 2177
1482 2201
1482 2276
1482 2293
1482 2314
1482 2323
1482 2359
1482 2422
1482 2554
1482 2583
1482 2689
1482 2763
1482 2790
1482 2811
1482 2840
1482 2856
1482 2881
1482 3115
1482 3133
1482 3210
1482 3234
1482 3385
1482 3412
1482 3458
1482 3630
1482 3635
1482 3704
1482 3729
1483 1719
1483 1784
1483 1856
1483 2004
1483 2163
1483 2215
1483 2246
1483 2353
1483 2604
1483 2804
1483 2866
1483 3173
1483 3203
1483 3332
1484 1602
1484 1706
1484 2018
1484 2167
1484 2452
1484 2825
1484 3032
1484 3088
1484 3239
1484 3255
1484 3298
1484 3427
1484 3497
1484 3507
1484 3546
1484 3552
1484 3554
1484 3667
1485 1492
1485 1518
1485 1594
1485 1645
1485 1655
1485 1719
1485 1863
1485 1916
1485 1952
1485 1979
1485 2009
1485 2165
1485 2171
1485 2190
1485 2206
1485 2271
1485 2295
1485 2370
1485 2408
1485 2419
1485 2498
1485 2514
1485 2548
1485 2679
1485 2700
1485 2713
1485 2830
1485 2877
1485 2881
1485 2885
1485 2944
1485 3046
1485 3065
1485 3075
1485 3142
1485 3186
1485 3210
1485 3254
1485 3265
1485 3288
1485 3297
1485 3311
1485 3364
1485 3375
1485 3425
1485 3429
1485 3437
1485 3521
1485 3576
1485 3578
1485 3704
1485 3718
1486 1522
1486 1958
1486 2014
1486 2549
1486 2967
1486 3081
1486 3371
1486 3561
1486 3670
1487 1489
1487 1501
1487 1510
1487 1521
1487 1522
1487 1667
1487 1674
1487 1703
1487 1724
1487 1725
1487 1728
1487 1734
1487 1756
1487 1770
1487 1789
1487 1822
1487 1848
1487 1854
1487 1863
1487 1870
1487 1898
1487 1902
1487 1921
1487 1929
1487 1972
1487 2024
1487 2125
1487 2265
1487 2276
1487 2337
1487 2430
1487 2445
1487 2455
1487 2544
1487 2559
1487 2564
1487 2578
1487 2588
1487 2620
1487 2635
1487 2703
1487 2721
1487 2745
1487 2751
1487 2766
1487 2791
1487 2808
1487 2850
1487 2879
1487 2944
1487 2967
1487 3021
1487 3047
1487 3068
1487 3071
1487 3075
1487 3094
1487 3096
1487 3098
1487 3101
1487 3125
1487 3145
1487 3185
1487 3209
1487 3220
1487 3349
1487 3370
1487 3426
1487 3433
1487 3466
1487 3504
1487 3521
1487 3544
1487 3578
1487 3618
1487 3629
1487 3639
1487 3675
1487 3676
1487 3682
1487 3689
1487 3690
1487 3721
1487 3724
1488 1976
1488 2217
1488 2266
1488 2770
1488 2782
1488 3332
1489 1501
1489 1521
1489 1522
1489 1526
1489 1550
1489 1567
1489 1568
1489 1583
1489 1618
1489 1656
1489 1668
1489 1685
1489 1719
1489 1734
1489 1756
1489 1814
1489 1822
1489 1844
1489 1848
1489 1854
1489 1863
1489 1872
1489 1876
1489 1959
1489 1962
1489 1972
1489 1992
1489 1996
1489 2003
1489 2004
1489 2012
1489 2016
1489 2099
1489 2129
1489 2139
1489 2144
1489 2156
1489 2158
1489 2219
1489 2229
1489 2240
1489 2250
1489 2254
1489 2282
1489 2284
1489 2299
1489 2337
1489 2367
1489 2372
1489 2395
1489 2427
1489 2445
1489 2457
1489 2474
1489 2480
1489 2513
1489 2534
1489 2553
1489 2554
1489 2555
1489 2564
1489 2571
1489 2578
1489 2588
1489 2607
1489 2622
1489 2657
1489 2682
1489 2703
1489 2705
1489 2721
1489 2734
1489 2741
1489 2745
1489 2751
1489 2753
1489 2766
1489 2774
1489 2787
1489 2797
1489 2808
1489 2848
1489 2884
1489 2889
1489 2907
1489 2909
1489 2951
1489 2960
1489 2963
1489 2973
1489 2981
1489 3015
1489 3070
1489 3071
1489 3075
1489 3098
1489 3101
1489 3125
1489 3131
1489 3136
1489 3153
1489 3169
1489 3183
1489 3194
1489 3209
1489 3259
1489 3288
1489 3293
1489 3297
1489 3304
1489 3309
1489 3337
1489 3349
1489 3388
1489 3410
1489 3412
1489 3426
1489 3466
1489 3511
1489 3521
1489 3534
1489 3544
1489 3575
1489 3596
1489 3623
1489 3640
1489 3674
1489 3675
1489 3676
1489 3682
1489 3684
1489 3687
1489 3698
1489 3721
1490 1517
1490 1537
1490 1595
1490 1725
1490 2094
1490 2176
1490 2308
1490 2309
1490 2359
1490 2406
1490 2460
1490 2544
1490 2877
1490 2923
1490 2933
1490 2986
1490 3128
1490 3152
1490 3230
1490 3240
1490 3442
1490 3640
1490 3744
1491 1505
1491 1544
1491 1565
1491 1613
1491 1674
1491 1834
1491 1879
1491 1925
1491 1996
1491 2029
1491 2108
1491 2642
1491 2840
1491 2900
1491 2915
1491 3137
1491 3218
1491 3242
1491 3296
1491 3656
1491 3682
1492 1590
1492 1594
1492 1634
1492 1706
1492 1737
1492 1758
1492 1816
1492 1875
1492 1893
1492 1919
1492 1932
1492 2002
1492 2077
1492 2092
1492 2110
1492 2209
1492 2232
1492 2282
1492 2371
1492 2399
1492 2438
1492 2531
1492 2580
1492 2591
1492 2656
1492 2661
1492 2668
1492 2700
1492 2773
1492 2810
1492 2888
1492 2911
1492 2954
1492 2956
1492 3027
1492 3038
1492 3192
1492 3223
1492 3234
1492 3241
1492 3278
1492 3288
1492 3349
1492 3506
1492 3741
1493 1651
1493 1773
1493 1797
1493 1935
1493 2166
1493 2246
1493 2713
1493 2720
1493 2743
1493 2763
1493 2808
1493 2946
1493 2977
1493 3132
1493 3267
1493 3303
1493 3528
1493 3538
1493 3575
1493 3599
1493 3703
1494 1719
1494 1756
1494 2004
1494 2007
1494 2250
1494 2480
1494 2515
1494 2871
1494 2897
1494 2899
1494 2908
1494 2909
1494 2963
1494 3173
1494 3247
1494 3343
1494 3382
1494 3388
1494 3406
1494 3462
1494 3498
1494 3584
1494 3680
1494 3687
1495 1550
1495 1645
1495 1754
1495 1788
1495 1825
1495 1870
1495 1924
1495 1941
1495 1972
1495 2125
1495 2158
1495 2378
1495 2478
1495 2507
1495 2730
1495 2774
1495 2944
1495 3096
1495 3098
1495 3106
1495 3415
1495 3440
1495 3661
1495 3669
1495 3695
1496 1741
1496 2557
1496 2566
1496 3189
1496 3665
1497 1725
1497 1772
1497 1831
1497 1855
1497 1941
1497 1971
1497 2057
1497 2094
1497 2128
1497 2138
1497 2141
1497 2295
1497 2299
1497 2308
1497 2313
1497 2381
1497 2423
1497 2459
1497 2473
1497 2499
1497 2530
1497 2562
1497 2597
1497 2625
1497 2882
1497 2912
1497 2988
1497 2998
1497 3096
1497 3143
1497 3171
1497 3199
1497 3336
1497 3349
1497 3449
1497 3478
1497 3573
1497 3599
1497 3605
1497 3689
1497 3721
1497 3724
1498 1621
1498 1809
1498 1981
1498 2230
1498 2916
1499 3682
1500 1576
1500 1754
1500 2952
1500 3282
1501 1521
1501 1522
1501 1543
1501 1656
1501 1668
1501 1724
1501 1733
1501 1756
1501 1777
1501 1799
1501 1801
1501 1822
1501 1837
1501 1848
1501 1854
1501 1863
1501 1870
1501 1876
1501 1902
1501 1908
1501 1918
1501 1964
1501 1972
1501 1978
1501 1987
1501 2003
1501 2004
1501 2012
1501 2014
1501 2015
1501 2034
1501 2038
1501 2105
1501 2129
1501 2210
1501 2229
1501 2238
1501 2240
1501 2254
1501 2265
1501 2337
1501 2416
1501 2438
1501 2479
1501 2480
1501 2515
1501 2517
1501 2528
1501 2544
1501 2564
1501 2578
1501 2588
1501 2594
1501 2622
1501 2665
1501 2683
1501 2699
1501 2703
1501 2705
1501 2721
1501 2741
1501 2745
1501 2751
1501 2766
1501 2791
1501 2792
1501 2800
1501 2808
1501 2836
1501 2845
1501 2848
1501 2850
1501 2861
1501 2889
1501 2899
1501 2940
1501 2956
1501 2959
1501 2963
1501 2980
1501 3015
1501 3016
1501 3070
1501 3071
1501 3075
1501 3094
1501 3098
1501 3101
1501 3125
1501 3138
1501 3153
1501 3161
1501 3207
1501 3209
1501 3288
1501 3296
1501 3297
1501 3337
1501 3339
1501 3349
1501 3405
1501 3410
1501 3426
1501 3439
1501 3440
1501 3466
1501 3482
1501 3521
1501 3534
1501 3544
1501 3557
1501 3572
1501 3575
1501 3578
1501 3623
1501 3639
1501 3661
1501 3669
1501 3674
1501 3675
1501 3676
1501 3682
1501 3687
1501 3721
1501 3736
1501 3745
1502 2153
1502 2443
1503 1725
1503 1843
1503 2268
1503 2435
1503 3021
1503 3274
1503 3450
1504 1677
1504 1851
1504 2024
1504 2065
1504 2340
1504 2351
1504 2452
1504 2771
1504 3104
1504 3552
1505 1544
1505 1611
1505 1613
1505 1618
1505 1734
1505 1859
1505 1862
1505 1875
1505 1911
1505 2029
1505 2048
1505 2110
1505 2120
1505 2238
1505 2249
1505 2307
1505 2346
1505 2548
1505 2668
1505 2840
1505 2915
1505 2989
1505 3000
1505 3046
1505 3054
1505 3141
1505 3218
1505 3224
1505 3242
1505 3266
1505 3317
1505 3536
1505 3564
1505 3656
1505 3739
1506 2836
1506 3561
1507 1513
1507 1644
1507 1725
1507 1748
1507 1855
1507 1867
1507 1914
1507 1950
1507 2016
1507 2046
1507 2056
1507 2057
1507 2059
1507 2204
1507 2240
1507 2268
1507 2299
1507 2319
1507 2337
1507 2394
1507 2400
1507 2401
1507 2483
1507 2498
1507 2554
1507 2613
1507 2629
1507 2763
1507 2811
1507 3098
1507 3108
1507 3181
1507 3240
1507 3349
1507 3364
1507 3489
1507 3518
1507 3538
1507 3558
1507 3605
1507 3613
1507 3619
1507 3674
1507 3704
1507 3718
1508 1510
1508 1645
1508 1736
1508 1907
1508 1925
1508 1946
1508 1952
1508 2036
1508 2070
1508 2189
1508 2205
1508 2210
1508 2429
1508 2445
1508 2559
1508 2639
1508 2838
1508 2981
1508 2988
1508 3083
1508 3124
1508 3145
1508 3243
1508 3575
1508 3601
1508 3603
1508 3639
1509 1518
1509 1565
1509 1613
1509 1681
1509 1782
1509 1853
1509 1875
1509 1893
1509 1992
1509 2030
1509 2063
1509 2159
1509 2237
1509 2288
1509 2293
1509 2323
1509 2364
1509 2370
1509 2392
1509 2408
1509 2422
1509 2549
1509 2581
1509 2835
1509 2858
1509 2877
1509 2910
1509 2926
1509 2938
1509 3150
1509 3288
1509 3320
1509 3376
1509 3380
1509 3384
1509 3418
1509 3419
1509 3500
1509 3678
1509 3704
1509 3711
1509 3715
1510 1526
1510 1530
1510 1549
1510 1578
1510 1616
1510 1622
1510 1631
1510 1667
1510 1681
1510 1700
1510 1724
1510 1761
1510 1822
1510 1898
1510 1946
1510 1972
1510 1987
1510 2024
1510 2036
1510 2040
1510 2129
1510 2177
1510 2186
1510 2188
1510 2189
1510 2210
1510 2219
1510 2229
1510 2252
1510 2337
1510 2371
1510 2394
1510 2397
1510 2429
1510 2430
1510 2445
1510 2455
1510 2492
1510 2549
1510 2559
1510 2620
1510 2632
1510 2639
1510 2647
1510 2649
1510 2677
1510 2696
1510 2721
1510 2741
1510 2791
1510 2808
1510 3015
1510 3030
1510 3055
1510 3070
1510 3101
1510 3108
1510 3125
1510 3136
1510 3145
1510 3153
1510 3227
1510 3230
1510 3243
1510 3325
1510 3336
1510 3426
1510 3466
1510 3521
1510 3562
1510 3575
1510 3603
1510 3639
1510 3682
1510 3687
1510 3717
1510 3737
1510 3745
1511 1824
1511 2070
1511 2482
1511 3112
1511 3183
1512 2097
1512 2108
1513 1565
1513 1853
1513 1871
1513 2035
1513 2090
1513 2401
1513 2456
1513 2498
1513 2948
1513 2984
1513 3320
1513 3390
1513 3397
1513 3704
1514 1624
1514 1685
1514 1734
1514 1799
1514 2150
1514 2205
1514 2213
1514 2219
1514 2252
1514 2474
1514 2703
1514 2808
1514 2905
1514 3061
1514 3214
1514 3521
1514 3528
1514 3573
1514 3721
1514 3726
1514 3743
1515 3546
1516 1655
1516 1952
1516 2039
1516 2190
1516 2250
1516 2581
1516 2887
1516 2972
1516 3066
1516 3210
1516 3240
1516 3258
1516 3376
1516 3632
1516 3704
1516 3718
1517 1534
1517 1569
1517 1655
1517 1725
1517 1838
1517 1992
1517 2008
1517 2066
1517 2174
1517 2190
1517 2287
1517 2295
1517 2359
1517 2370
1517 2384
1517 2408
1517 2477
1517 2498
1517 2547
1517 2559
1517 3087
1517 3115
1517 3128
1517 3153
1517 3204
1517 3276
1517 3312
1517 3442
1517 3478
1517 3531
1517 3547
1517 3632
1517 3704
1517 3715
1518 1522
1518 1543
1518 1565
1518 1610
1518 1613
1518 1674
1518 1685
1518 1734
1518 1761
1518 1770
1518 1795
1518 1845
1518 1863
1518 1875
1518 1922
1518 1979
1518 1987
1518 2131
1518 2252
1518 2271
1518 2281
1518 2293
1518 2295
1518 2323
1518 2357
1518 2369
1518 2374
1518 2408
1518 2413
1518 2414
1518 2416
1518 2417
1518 2422
1518 2455
1518 2549
1518 2605
1518 2607
1518 2647
1518 2649
1518 2783
1518 2881
1518 2907
1518 2925
1518 2963
1518 2984
1518 2994
1518 2999
1518 3000
1518 3026
1518 3038
1518 3093
1518 3095
1518 3112
1518 3153
1518 3193
1518 3227
1518 3249
1518 3359
1518 3412
1518 3429
1518 3437
1518 3536
1518 3691
1519 1526
1519 1568
1519 1741
1519 1742
1519 1775
1519 1890
1519 1908
1519 2075
1519 2159
1519 2179
1519 2284
1519 2406
1519 2515
1519 2549
1519 2552
1519 2570
1519 2589
1519 2648
1519 3087
1519 3166
1519 3209
1519 3252
1519 3278
1519 3300
1519 3446
1519 3514
1519 3516
1519 3529
1519 3637
1519 3645
1519 3668
1519 3684
1519 3686
1520 1790
1520 1831
1520 1848
1520 2020
1520 2040
1520 2086
1520 2818
1520 2903
1521 1522
1521 1656
1521 1668
1521 1756
1521 1863
1521 1876
1521 1902
1521 1972
1521 1979
1521 2003
1521 2004
1521 2012
1521 2025
1521 2125
1521 2229
1521 2240
1521 2254
1521 2337
1521 2564
1521 2578
1521 2588
1521 2705
1521 2721
1521 2745
1521 2751
1521 2766
1521 2848
1521 2866
1521 2889
1521 2959
1521 2963
1521 3047
1521 3071
1521 3125
1521 3145
1521 3164
1521 3209
1521 3243
1521 3304
1521 3410
1521 3412
1521 3426
1521 3521
1521 3544
1521 3575
1521 3623
1521 3674
1521 3721
1522 1557
1522 1560
1522 1597
1522 1599
1522 1604
1522 1610
1522 1618
1522 1622
1522 1625
1522 1631
1522 1656
1522 1668
1522 1681
1522 1703
1522 1725
1522 1734
1522 1845
1522 1846
1522 1854
1522 1863
1522 1875
1522 1876
1522 1972
1522 1979
1522 1992
1522 2003
1522 2012
1522 2014
1522 2040
1522 2059
1522 2079
1522 2091
1522 2133
1522 2210
1522 2229
1522 2240
1522 2254
1522 2259
1522 2282
1522 2283
1522 2323
1522 2324
1522 2363
1522 2374
1522 2390
1522 2417
1522 2445
1522 2471
1522 2474
1522 2553
1522 2556
1522 2559
1522 2564
1522 2571
1522 2578
1522 2588
1522 2596
1522 2604
1522 2668
1522 2687
1522 2703
1522 2707
1522 2710
1522 2720
1522 2721
1522 2725
1522 2745
1522 2751
1522 2755
1522 2757
1522 2766
1522 2808
1522 2815
1522 2842
1522 2848
1522 2850
1522 2889
1522 2907
1522 2925
1522 2960
1522 2963
1522 2967
1522 2973
1522 3000
1522 3030
1522 3038
1522 3068
1522 3071
1522 3101
1522 3129
1522 3136
1522 3145
1522 3193
1522 3207
1522 3209
1522 3224
1522 3242
1522 3243
1522 3288
1522 3315
1522 3342
1522 3349
1522 3371
1522 3426
1522 3433
1522 3437
1522 3440
1522 3450
1522 3510
1522 3521
1522 3544
1522 3603
1522 3608
1522 3623
1522 3656
1522 3672
1522 3674
1522 3675
1522 3682
1522 3687
1522 3691
1522 3714
1522 3721
1523 2175
1523 2490
1523 3197
1524 1756
1524 2111
1524 2771
1524 2878
1524 3376
1525 2071
1525 2136
1525 2231
1525 2556
1525 2968
1525 3275
1525 3353
1526 1550
1526 1583
1526 1593
1526 1616
1526 1622
1526 1631
1526 1667
1526 1677
1526 1681
1526 1723
1526 1724
1526 1728
1526 1754
1526 1785
1526 1788
1526 1813
1526 1824
1526 1825
1526 1863
1526 1868
1526 1879
1526 1948
1526 1961
1526 1972
1526 1978
1526 2040
1526 2042
1526 2046
1526 2062
1526 2064
1526 2078
1526 2113
1526 2138
1526 2156
1526 2158
1526 2186
1526 2209
1526 2219
1526 2229
1526 2250
1526 2265
1526 2321
1526 2337
1526 2404
1526 2416
1526 2433
1526 2445
1526 2480
1526 2507
1526 2513
1526 2582
1526 2588
1526 2595
1526 2615
1526 2631
1526 2682
1526 2703
1526 2730
1526 2741
1526 2745
1526 2751
1526 2767
1526 2774
1526 2808
1526 2912
1526 3007
1526 3021
1526 3030
1526 3071
1526 3073
1526 3096
1526 3106
1526 3108
1526 3193
1526 3194
1526 3212
1526 3249
1526 3258
1526 3259
1526 3286
1526 3304
1526 3325
1526 3337
1526 3359
1526 3370
1526 3426
1526 3444
1526 3449
1526 3540
1526 3562
1526 3573
1526 3575
1526 3687
1526 3689
1526 3695
1526 3704
1526 3731
1526 3745
1527 2973
1528 1560
1528 1585
1528 1588
1528 1814
1528 1863
1528 1945
1528 2004
1528 2025
1528 2308
1528 2325
1528 2330
1528 2568
1528 2596
1528 2622
1528 2708
1528 2751
1528 2997
1528 3193
1528 3212
1528 3297
1528 3465
1528 3473
1529 2714
1530 1593
1530 1595
1530 1616
1530 1667
1530 1681
1530 1723
1530 1900
1530 1971
1530 2006
1530 2116
1530 2125
1530 2206
1530 2219
1530 2235
1530 2262
1530 2291
1530 2292
1530 2295
1530 2381
1530 2438
1530 2492
1530 2513
1530 2640
1530 2645
1530 2664
1530 2734
1530 2791
1530 2811
1530 2856
1530 2940
1530 3029
1530 3047
1530 3070
1530 3075
1530 3119
1530 3139
1530 3147
1530 3189
1530 3245
1530 3247
1530 3257
1530 3272
1530 3349
1530 3366
1530 3386
1530 3466
1530 3514
1530 3534
1530 3569
1530 3635
1530 3689
1531 1568
1531 1597
1531 1658
1531 1708
1531 2034
1531 2064
1531 2104
1531 2387
1531 2567
1531 2601
1531 2617
1531 2710
1531 2755
1531 2842
1531 2937
1531 3000
1531 3021
1531 3086
1531 3103
1531 3138
1531 3161
1531 3193
1531 3224
1531 3394
1531 3399
1531 3451
1531 3486
1531 3510
1531 3672
1532 1785
1532 1893
1532 2071
1532 2084
1532 2238
1532 2445
1532 2703
1532 2808
1532 2944
1532 3265
1532 3379
1532 3575
1532 3639
1532 3681
1532 3721
1533 1561
1533 1759
1533 1762
1533 1837
1533 1941
1533 2057
1533 2060
1533 2125
1533 2291
1533 2306
1533 2313
1533 2492
1533 2664
1533 2703
1533 2745
1533 2787
1533 2804
1533 2973
1533 3015
1533 3021
1533 3260
1533 3276
1533 3313
1533 3349
1533 3466
1533 3540
1533 3557
1533 3575
1533 3639
1533 3661
1534 1613
1534 1646
1534 1972
1534 2170
1534 2265
1534 2287
1534 2295
1534 2397
1534 2477
1534 2559
1534 2627
1534 2733
1534 2763
1534 3124
1534 3145
1534 3146
1534 3184
1534 3575
1534 3594
1535 1840
1535 2088
1536 1642
1536 1778
1536 1913
1536 2051
1536 2161
1536 2238
1536 2471
1536 3066
1536 3172
1536 3664
1537 1546
1537 1564
1537 1597
1537 1660
1537 1725
1537 1729
1537 1801
1537 1843
1537 1912
1537 1956
1537 2042
1537 2094
1537 2176
1537 2218
1537 2290
1537 2306
1537 2369
1537 2390
1537 2469
1537 2528
1537 2562
1537 2601
1537 2636
1537 2659
1537 2728
1537 2783
1537 2842
1537 2859
1537 2895
1537 2941
1537 3021
1537 3047
1537 3086
1537 3183
1537 3230
1537 3316
1537 3433
1537 3450
1537 3510
1537 3640
1537 3744
1538 2759
1538 3438
1538 3742
1539 2154
1539 2920
1540 2169
1541 1617
1541 1629
1541 1640
1541 1725
1541 1859
1541 2151
1541 2177
1541 2314
1541 2498
1541 2556
1541 2583
1541 2790
1541 2877
1541 3119
1541 3316
1541 3715
1541 3729
1543 1546
1543 1548
1543 1646
1543 1659
1543 1684
1543 1714
1543 1733
1543 1768
1543 1777
1543 1827
1543 1879
1543 1880
1543 1893
1543 1908
1543 1948
1543 1966
1543 1971
1543 1985
1543 1995
1543 2034
1543 2052
1543 2066
1543 2129
1543 2141
1543 2211
1543 2238
1543 2298
1543 2364
1543 2367
1543 2370
1543 2388
1543 2391
1543 2416
1543 2424
1543 2469
1543 2474
1543 2498
1543 2503
1543 2517
1543 2522
1543 2528
1543 2544
1543 2559
1543 2575
1543 2594
1543 2605
1543 2626
1543 2633
1543 2648
1543 2670
1543 2680
1543 2683
1543 2699
1543 2713
1543 2749
1543 2790
1543 2792
1543 2836
1543 2845
1543 2855
1543 2877
1543 2888
1543 2940
1543 2948
1543 2956
1543 2998
1543 3009
1543 3059
1543 3071
1543 3072
1543 3087
1543 3094
1543 3107
1543 3109
1543 3111
1543 3117
1543 3128
1543 3159
1543 3169
1543 3178
1543 3213
1543 3234
1543 3243
1543 3264
1543 3329
1543 3339
1543 3355
1543 3356
1543 3389
1543 3402
1543 3424
1543 3437
1543 3482
1543 3484
1543 3504
1543 3513
1543 3517
1543 3528
1543 3534
1543 3560
1543 3578
1543 3585
1543 3642
1543 3649
1543 3650
1543 3682
1543 3683
1543 3695
1543 3704
1543 3718
1543 3736
1544 1705
1544 1925
1544 1972
1544 2009
1544 2015
1544 2046
1544 2169
1544 2238
1544 2300
1544 2311
1544 2337
1544 2520
1544 2744
1544 2956
1544 2962
1544 2973
1544 3234
1544 3249
1544 3296
1544 3324
1544 3437
1544 3714
1545 1659
1545 1715
1545 1763
1545 2064
1545 2405
1545 2525
1545 2762
1545 3071
1545 3212
1545 3375
1545 3586
1545 3596
1546 1568
1546 1597
1546 1825
1546 1843
1546 1864
1546 1880
1546 1912
1546 2034
1546 2042
1546 2052
1546 2064
1546 2112
1546 2114
1546 2146
1546 2329
1546 2369
1546 2390
1546 2469
1546 2474
1546 2528
1546 2601
1546 2636
1546 2699
1546 2710
1546 2942
1546 2956
1546 3000
1546 3021
1546 3086
1546 3094
1546 3138
1546 3183
1546 3224
1546 3316
1546 3339
1546 3405
1546 3450
1546 3466
1546 3482
1546 3513
1546 3534
1546 3575
1546 3638
1546 3640
1546 3736
1547 1603
1547 1696
1547 1767
1547 1856
1547 1969
1547 2220
1547 2420
1547 2660
1547 2677
1547 2785
1547 2827
1547 3176
1548 1563
1548 1688
1548 1714
1548 1733
1548 1777
1548 1908
1548 2042
1548 2160
1548 2369
1548 2388
1548 2424
1548 2446
1548 2469
1548 2493
1548 2528
1548 2626
1548 2653
1548 2699
1548 2792
1548 2845
1548 2861
1548 3072
1548 3094
1548 3129
1548 3207
1548 3223
1548 3264
1548 3482
1548 3504
1548 3513
1548 3650
1548 3736
1549 1569
1549 1681
1549 1703
1549 1761
1549 1838
1549 1918
1549 1959
1549 1972
1549 1987
1549 2131
1549 2188
1549 2219
1549 2221
1549 2287
1549 2291
1549 2295
1549 2349
1549 2363
1549 2414
1549 2418
1549 2428
1549 2430
1549 2455
1549 2473
1549 2551
1549 2599
1549 2607
1549 2647
1549 2648
1549 2649
1549 2763
1549 2783
1549 2791
1549 2849
1549 2944
1549 2999
1549 3023
1549 3043
1549 3068
1549 3097
1549 3124
1549 3153
1549 3164
1549 3171
1549 3189
1549 3191
1549 3210
1549 3227
1549 3312
1549 3336
1549 3452
1549 3547
1549 3717
1549 3735
1550 1754
1550 1785
1550 1788
1550 1825
1550 1925
1550 1961
1550 2125
1550 2158
1550 2209
1550 2445
1550 2615
1550 2705
1550 2730
1550 2767
1550 2774
1550 2808
1550 2911
1550 2956
1550 3021
1550 3096
1550 3194
1550 3540
1550 3575
1550 3688
1550 3689
1550 3731
1551 1617
1551 1965
1551 2152
1551 2180
1551 2713
1551 2771
1551 2801
1551 2827
1551 2869
1551 3209
1551 3377
1551 3424
1551 3596
1551 3714
1552 1568
1552 1778
1552 2300
1552 2307
1552 2403
1552 2565
1552 2668
1552 3034
1552 3235
1552 3266
1552 3364
1552 3428
1552 3462
1552 3536
1552 3564
1552 3575
1552 3652
1553 2565
1553 2706
1554 1664
1554 1682
1554 1699
1554 1756
1554 1770
1554 1806
1554 1905
1554 1996
1554 2075
1554 2146
1554 2150
1554 2223
1554 2443
1554 2448
1554 2506
1554 2548
1554 2680
1554 2880
1554 2901
1554 2944
1554 3050
1554 3093
1554 3110
1554 3120
1554 3424
1554 3436
1554 3478
1554 3507
1554 3564
1554 3682
1554 3710
1555 1904
1555 1952
1556 1754
1556 1848
1556 3404
1556 3578
1556 3689
1556 3716
1557 1631
1557 1681
1557 1700
1557 1703
1557 1743
1557 1783
1557 1818
1557 1870
1557 1922
1557 1929
1557 1941
1557 2057
1557 2087
1557 2122
1557 2142
1557 2177
1557 2219
1557 2229
1557 2324
1557 2418
1557 2530
1557 2533
1557 2553
1557 2554
1557 2571
1557 2597
1557 2620
1557 2703
1557 2745
1557 2778
1557 2808
1557 2907
1557 2995
1557 3015
1557 3068
1557 3136
1557 3205
1557 3242
1557 3259
1557 3272
1557 3349
1557 3373
1557 3445
1557 3466
1557 3520
1557 3526
1557 3559
1557 3592
1557 3611
1557 3616
1557 3617
1557 3639
1557 3675
1557 3687
1557 3695
1557 3712
1557 3734
1558 1987
1558 2808
1559 1621
1559 1885
1559 1926
1559 1930
1559 1985
1559 2031
1559 2111
1559 2230
1559 2298
1559 2339
1559 2370
1559 2421
1559 2547
1559 2648
1559 2702
1559 2838
1559 2903
1559 2943
1559 3010
1559 3013
1559 3043
1559 3153
1559 3182
1559 3226
1559 3462
1559 3488
1559 3502
1559 3665
1559 3675
1559 3718
1560 1585
1560 1961
1560 2004
1560 2073
1560 2209
1560 2289
1560 2374
1560 2596
1560 3034
1560 3082
1560 3193
1560 3212
1560 3224
1560 3465
1560 3624
1560 3688
1560 3731
1561 2008
1561 2755
1561 2942
1561 3069
1561 3092
1561 3113
1561 3395
1561 3724
1562 3117
1562 3385
1563 2118
1563 2276
1563 2792
1563 2845
1563 3094
1563 3269
1563 3504
1564 1695
1564 1885
1564 1912
1564 2176
1564 2225
1564 2469
1564 2601
1564 2686
1564 2755
1564 2821
1564 2895
1564 2942
1564 3272
1564 3274
1565 1613
1565 1681
1565 1691
1565 1725
1565 1789
1565 1845
1565 1853
1565 1871
1565 1935
1565 1958
1565 1996
1565 1997
1565 2009
1565 2034
1565 2042
1565 2046
1565 2055
1565 2121
1565 2149
1565 2171
1565 2190
1565 2271
1565 2323
1565 2337
1565 2357
1565 2376
1565 2408
1565 2452
1565 2517
1565 2549
1565 2634
1565 2666
1565 2699
1565 2710
1565 2723
1565 2752
1565 2760
1565 2795
1565 2799
1565 2836
1565 2845
1565 2877
1565 2901
1565 2967
1565 2975
1565 2994
1565 3000
1565 3021
1565 3044
1565 3057
1565 3108
1565 3117
1565 3224
1565 3242
1565 3249
1565 3263
1565 3320
1565 3384
1565 3389
1565 3397
1565 3413
1565 3442
1565 3500
1565 3501
1565 3536
1565 3561
1565 3573
1565 3574
1565 3628
1565 3668
1565 3683
1565 3704
1566 1673
1566 1678
1566 1687
1566 1937
1566 2156
1566 2188
1566 2237
1566 2262
1566 2467
1566 2793
1566 2870
1566 2904
1566 2928
1566 3045
1566 3101
1566 3199
1566 3247
1566 3412
1566 3603
1566 3674
1566 3728
1567 1569
1567 1593
1567 1630
1567 1631
1567 1667
1567 1681
1567 1703
1567 1724
1567 1725
1567 1761
1567 1770
1567 1848
1567 1902
1567 1918
1567 1929
1567 1959
1567 1972
1567 1994
1567 2040
1567 2125
1567 2174
1567 2218
1567 2219
1567 2221
1567 2229
1567 2235
1567 2236
1567 2250
1567 2287
1567 2291
1567 2298
1567 2316
1567 2321
1567 2326
1567 2365
1567 2378
1567 2397
1567 2406
1567 2408
1567 2414
1567 2418
1567 2430
1567 2455
1567 2492
1567 2512
1567 2513
1567 2551
1567 2559
1567 2617
1567 2620
1567 2635
1567 2638
1567 2640
1567 2664
1567 2665
1567 2698
1567 2703
1567 2730
1567 2741
1567 2745
1567 2783
1567 2791
1567 2804
1567 2809
1567 2849
1567 2850
1567 2858
1567 2879
1567 2901
1567 2944
1567 3070
1567 3075
1567 3098
1567 3137
1567 3145
1567 3153
1567 3164
1567 3191
1567 3227
1567 3253
1567 3259
1567 3272
1567 3301
1567 3323
1567 3325
1567 3336
1567 3349
1567 3386
1567 3395
1567 3426
1567 3466
1567 3477
1567 3531
1567 3553
1567 3558
1567 3575
1567 3578
1567 3592
1567 3601
1567 3611
1567 3617
1567 3629
1567 3639
1567 3679
1567 3687
1567 3689
1567 3717
1567 3721
1567 3734
1568 1597
1568 1632
1568 1754
1568 1773
1568 1778
1568 1788
1568 1825
1568 1843
1568 1848
1568 1869
1568 1912
1568 1961
1568 1972
1568 1981
1568 2001
1568 2034
1568 2042
1568 2060
1568 2064
1568 2068
1568 2104
1568 2112
1568 2118
1568 2158
1568 2160
1568 2209
1568 2282
1568 2289
1568 2371
1568 2404
1568 2507
1568 2521
1568 2559
1568 2601
1568 2615
1568 2617
1568 2678
1568 2703
1568 2705
1568 2707
1568 2710
1568 2730
1568 2746
1568 2751
1568 2755
1568 2767
1568 2774
1568 2808
1568 2821
1568 2830
1568 2842
1568 2845
1568 2860
1568 2861
1568 2912
1568 2941
1568 2975
1568 3007
1568 3021
1568 3086
1568 3096
1568 3129
1568 3137
1568 3138
1568 3182
1568 3183
1568 3207
1568 3212
1568 3259
1568 3364
1568 3370
1568 3399
1568 3410
1568 3418
1568 3430
1568 3437
1568 3450
1568 3460
1568 3465
1568 3510
1568 3534
1568 3540
1568 3544
1568 3638
1568 3672
1568 3687
1568 3688
1568 3689
1568 3706
1568 3731
1569 1681
1569 1703
1569 1838
1569 1918
1569 1987
1569 2025
1569 2219
1569 2287
1569 2291
1569 2295
1569 2313
1569 2414
1569 2430
1569 2455
1569 2547
1569 2607
1569 2751
1569 2766
1569 2783
1569 2944
1569 2999
1569 3045
1569 3097
1569 3153
1569 3191
1569 3336
1569 3452
1569 3477
1569 3735
1570 1685
1570 1705
1570 1826
1570 1905
1570 2373
1570 2546
1570 2562
1570 2637
1570 2680
1570 2751
1570 2817
1570 2869
1570 2975
1570 3160
1570 3206
1570 3312
1570 3364
1570 3376
1570 3559
1571 1621
1571 1639
1571 1655
1571 1680
1571 1724
1571 1758
1571 2034
1571 2061
1571 2111
1571 2115
1571 2177
1571 2230
1571 2235
1571 2512
1571 2514
1571 2619
1571 2689
1571 2858
1571 2881
1571 2916
1571 2944
1571 3016
1571 3040
1571 3122
1571 3184
1571 3323
1571 3383
1571 3386
1571 3478
1571 3479
1571 3514
1571 3547
1571 3549
1571 3659
1571 3662
1571 3704
1571 3717
1571 3718
1572 2518
1572 2645
1573 1588
1573 1780
1573 2109
1573 2381
1573 2387
1573 2503
1573 2593
1573 2599
1573 2648
1573 2811
1573 3087
1573 3111
1573 3117
1573 3449
1573 3514
1573 3626
1574 1600
1574 1664
1574 1728
1574 2086
1574 2150
1574 2258
1574 2384
1574 2675
1574 2681
1574 2695
1574 2799
1574 3214
1574 3301
1574 3335
1574 3408
1575 1580
1575 1670
1575 1725
1575 1732
1575 1889
1575 2005
1575 2126
1575 2250
1575 2251
1575 2284
1575 2387
1575 2493
1575 2516
1575 2556
1575 2589
1575 2638
1575 2667
1575 2676
1575 2777
1575 2815
1575 2897
1575 2899
1575 3022
1575 3080
1575 3181
1575 3252
1575 3295
1575 3306
1575 3316
1575 3346
1575 3382
1575 3479
1575 3514
1575 3529
1575 3633
1575 3725
1576 1754
1576 1785
1576 2845
1576 3509
1577 1682
1577 1925
1577 1939
1577 2015
1577 2084
1577 2165
1577 2201
1577 2406
1577 2676
1577 2790
1577 2812
1577 3252
1577 3265
1578 1596
1578 1664
1578 1822
1578 1918
1578 2024
1578 2040
1578 2188
1578 2224
1578 2395
1578 2410
1578 2445
1578 2478
1578 2608
1578 2703
1578 2710
1578 2721
1578 2808
1578 2826
1578 3041
1578 3101
1578 3145
1578 3153
1578 3199
1578 3301
1578 3312
1578 3415
1578 3417
1578 3466
1578 3521
1578 3534
1578 3575
1578 3639
1578 3695
1578 3730
1579 1694
1579 2789
1579 3495
1579 3602
1580 1832
1580 1849
1580 2121
1580 2238
1580 2250
1580 2251
1580 2516
1580 2544
1580 2556
1580 2815
1580 2973
1580 3306
1580 3355
1580 3382
1580 3684
1581 2529
1581 3052
1581 3331
1582 1924
1582 1971
1582 1976
1582 2217
1582 2440
1582 2464
1582 2554
1582 2770
1582 3021
1582 3533
1583 1593
1583 1597
1583 1667
1583 1724
1583 1725
1583 1762
1583 1788
1583 1831
1583 1843
1583 1848
1583 1860
1583 1867
1583 1918
1583 1929
1583 1972
1583 1978
1583 2040
1583 2064
1583 2125
1583 2138
1583 2186
1583 2218
1583 2219
1583 2229
1583 2287
1583 2321
1583 2454
1583 2582
1583 2601
1583 2620
1583 2703
1583 2721
1583 2726
1583 2741
1583 2745
1583 2848
1583 3030
1583 3136
1583 3138
1583 3171
1583 3277
1583 3301
1583 3312
1583 3325
1583 3349
1583 3415
1583 3433
1583 3444
1583 3450
1583 3462
1583 3510
1583 3518
1583 3540
1583 3687
1583 3689
1583 3721
1584 2406
1585 1814
1585 1952
1585 1971
1585 2004
1585 2012
1585 2128
1585 2158
1585 2308
1585 2325
1585 2330
1585 2404
1585 2708
1585 2751
1585 2997
1585 3145
1585 3193
1585 3212
1585 3297
1585 3473
1585 3484
1585 3700
1585 3745
1586 1829
1586 1948
1586 1959
1586 2035
1586 2384
1586 2468
1586 2498
1586 2701
1586 2839
1586 2948
1586 3253
1587 1663
1587 1685
1587 1731
1587 2166
1587 2276
1587 2360
1587 2368
1587 2555
1587 2767
1587 2808
1587 2912
1587 3102
1587 3226
1587 3257
1587 3349
1587 3364
1587 3388
1587 3449
1587 3521
1587 3569
1587 3620
1587 3720
1587 3721
1588 1697
1588 1883
1588 1903
1588 1996
1588 2313
1588 2475
1588 2479
1588 2513
1588 2586
1588 2593
1588 2648
1588 2698
1588 2730
1588 2806
1588 2944
1588 3184
1588 3196
1588 3212
1588 3227
1588 3272
1588 3395
1588 3514
1588 3519
1588 3615
1588 3626
1589 1720
1589 1833
1589 1918
1589 1971
1589 1972
1589 2125
1589 2144
1589 2378
1589 2492
1589 2507
1589 2525
1589 2664
1589 2791
1589 2804
1589 2994
1589 3029
1589 3047
1589 3068
1589 3180
1589 3245
1589 3301
1589 3386
1589 3415
1589 3466
1589 3635
1590 1648
1590 1661
1590 1741
1590 1747
1590 1816
1590 1875
1590 1897
1590 1996
1590 2056
1590 2187
1590 2282
1590 2595
1590 2757
1590 2844
1590 3095
1590 3110
1590 3310
1590 3340
1590 3445
1590 3488
1590 3568
1590 3673
1590 3691
1591 1672
1591 3660
1592 1650
1592 1748
1592 1766
1592 1853
1592 2378
1592 2466
1592 2496
1592 2503
1592 2688
1592 2729
1592 2852
1592 2887
1592 3077
1592 3127
1592 3187
1592 3400
1592 3423
1592 3442
1592 3659
1592 3678
1592 3718
1592 3741
1593 1681
1593 1686
1593 1698
1593 1723
1593 1724
1593 1725
1593 1744
1593 1751
1593 1780
1593 1817
1593 1901
1593 1948
1593 1978
1593 2014
1593 2040
1593 2069
1593 2174
1593 2206
1593 2216
1593 2229
1593 2250
1593 2252
1593 2316
1593 2333
1593 2381
1593 2408
1593 2414
1593 2416
1593 2438
1593 2498
1593 2513
1593 2543
1593 2544
1593 2564
1593 2567
1593 2582
1593 2588
1593 2723
1593 2741
1593 2769
1593 2771
1593 2772
1593 2781
1593 2791
1593 2809
1593 2818
1593 2822
1593 2827
1593 2877
1593 2883
1593 2884
1593 2885
1593 2917
1593 2967
1593 2998
1593 3010
1593 3015
1593 3030
1593 3070
1593 3075
1593 3084
1593 3087
1593 3098
1593 3111
1593 3147
1593 3234
1593 3323
1593 3325
1593 3337
1593 3349
1593 3382
1593 3444
1593 3466
1593 3514
1593 3562
1593 3563
1593 3573
1593 3618
1593 3629
1593 3638
1593 3641
1593 3687
1593 3695
1593 3713
1593 3744
1593 3745
1593 3746
1594 1626
1594 1747
1594 1932
1594 1996
1594 2009
1594 2035
1594 2055
1594 2065
1594 2090
1594 2165
1594 2205
1594 2544
1594 2560
1594 2735
1594 2825
1594 2852
1594 3079
1594 3186
1594 3192
1594 3268
1594 3302
1594 3390
1594 3463
1594 3564
1594 3741
1595 1725
1595 1741
1595 1783
1595 1792
1595 2033
1595 2134
1595 2140
1595 2206
1595 2295
1595 2381
1595 2638
1595 2648
1595 2698
1595 2878
1595 2989
1595 3004
1595 3396
1595 3573
1596 1664
1596 1673
1596 1695
1596 1829
1596 1902
1596 1903
1596 1997
1596 2034
1596 2104
1596 2188
1596 2199
1596 2224
1596 2513
1596 2608
1596 2617
1596 2879
1596 2999
1596 3010
1596 3070
1596 3098
1596 3301
1596 3312
1596 3339
1596 3426
1596 3440
1596 3510
1596 3534
1596 3575
1596 3649
1597 1630
1597 1660
1597 1688
1597 1729
1597 1755
1597 1768
1597 1801
1597 1843
1597 1863
1597 1864
1597 1912
1597 1956
1597 1967
1597 1969
1597 2001
1597 2004
1597 2034
1597 2042
1597 2059
1597 2064
1597 2068
1597 2094
1597 2098
1597 2104
1597 2112
1597 2114
1597 2119
1597 2130
1597 2138
1597 2147
1597 2168
1597 2176
1597 2225
1597 2289
1597 2290
1597 2329
1597 2344
1597 2363
1597 2369
1597 2390
1597 2404
1597 2412
1597 2423
1597 2469
1597 2510
1597 2521
1597 2538
1597 2554
1597 2601
1597 2636
1597 2677
1597 2686
1597 2690
1597 2698
1597 2707
1597 2710
1597 2727
1597 2755
1597 2770
1597 2809
1597 2821
1597 2842
1597 2859
1597 2895
1597 2973
1597 3000
1597 3007
1597 3021
1597 3086
1597 3103
1597 3118
1597 3129
1597 3138
1597 3152
1597 3178
1597 3183
1597 3193
1597 3207
1597 3224
1597 3227
1597 3248
1597 3258
1597 3274
1597 3316
1597 3332
1597 3339
1597 3370
1597 3399
1597 3417
1597 3430
1597 3450
1597 3455
1597 3465
1597 3481
1597 3510
1597 3521
1597 3597
1597 3624
1597 3630
1597 3638
1597 3640
1597 3693
1597 3744
1597 3745
1598 1746
1598 1838
1598 1867
1598 1884
1598 2315
1598 2387
1598 2389
1598 2677
1598 2701
1598 2741
1598 2775
1598 2838
1598 2870
1598 2917
1598 3098
1598 3339
1598 3360
1598 3442
1598 3493
1598 3543
1598 3601
1599 1651
1599 1685
1599 1745
1599 1772
1599 1797
1599 1863
1599 1997
1599 2001
1599 2034
1599 2055
1599 2064
1599 2128
1599 2170
1599 2245
1599 2289
1599 2330
1599 2412
1599 2515
1599 2708
1599 2710
1599 2752
1599 2842
1599 2889
1599 2912
1599 2994
1599 3000
1599 3021
1599 3138
1599 3161
1599 3188
1599 3212
1599 3224
1599 3226
1599 3449
1599 3510
1599 3696
1599 3713
1600 1651
1600 1797
1600 2086
1600 2150
1600 2189
1600 2601
1600 2681
1600 2695
1600 2728
1600 3303
1600 3335
1600 3581
1601 1687
1601 1825
1601 1962
1601 2059
1601 2060
1601 2266
1601 2360
1601 2438
1601 2787
1601 2791
1601 2912
1601 2935
1601 3168
1601 3194
1601 3226
1601 3359
1601 3466
1601 3575
1601 3618
1601 3635
1602 1820
1602 2096
1602 2305
1602 2431
1602 2816
1602 3174
1602 3470
1602 3554
1603 1811
1603 1812
1603 1856
1603 1894
1603 1969
1603 2083
1603 2114
1603 2160
1603 2269
1603 2452
1603 2473
1603 2489
1603 2677
1603 2737
1603 2847
1603 3021
1603 3098
1603 3234
1603 3431
1603 3546
1603 3677
1604 1859
1604 2138
1604 2206
1604 2223
1604 2283
1604 2400
1604 2642
1604 2687
1604 2748
1604 2956
1604 2962
1604 3000
1604 3058
1604 3144
1604 3224
1604 3275
1604 3631
1605 2845
1606 1914
1606 2034
1606 2099
1606 2139
1606 2140
1606 2147
1606 2156
1606 2234
1606 2308
1606 2360
1606 2400
1606 2555
1606 2787
1606 2809
1606 2912
1606 2990
1606 3102
1606 3226
1606 3388
1606 3449
1606 3594
1607 1692
1607 1783
1607 1913
1607 1952
1607 2039
1607 2109
1607 2141
1607 2152
1607 2238
1607 2392
1607 2575
1607 2581
1607 2604
1607 3004
1607 3026
1607 3061
1607 3376
1607 3389
1607 3428
1608 2255
1608 2362
1608 3381
1609 1662
1609 1865
1609 1881
1609 2415
1609 3486
1610 1734
1610 1895
1610 1996
1610 2238
1610 2282
1610 2323
1610 2417
1610 2549
1610 2564
1610 2869
1610 2884
1610 2907
1610 2925
1610 2963
1610 3016
1610 3038
1610 3137
1610 3371
1610 3429
1610 3437
1610 3536
1611 1837
1611 1859
1611 1916
1611 1946
1611 1988
1611 1994
1611 2015
1611 2300
1611 2316
1611 2430
1611 2467
1611 2506
1611 2544
1611 2667
1611 2760
1611 2790
1611 2915
1611 2956
1611 2973
1611 3093
1612 1872
1612 2457
1612 2940
1612 3164
1612 3716
1612 3718
1613 1646
1613 1653
1613 1667
1613 1680
1613 1681
1613 1705
1613 1734
1613 1758
1613 1845
1613 1853
1613 1863
1613 1871
1613 1959
1613 1964
1613 2002
1613 2009
1613 2024
1613 2033
1613 2081
1613 2133
1613 2134
1613 2135
1613 2141
1613 2170
1613 2174
1613 2210
1613 2219
1613 2237
1613 2257
1613 2264
1613 2265
1613 2271
1613 2287
1613 2295
1613 2299
1613 2314
1613 2323
1613 2364
1613 2371
1613 2397
1613 2399
1613 2406
1613 2408
1613 2436
1613 2438
1613 2461
1613 2465
1613 2474
1613 2497
1613 2515
1613 2551
1613 2559
1613 2604
1613 2640
1613 2649
1613 2696
1613 2699
1613 2733
1613 2752
1613 2790
1613 2795
1613 2808
1613 2810
1613 2861
1613 2877
1613 2881
1613 2906
1613 2907
1613 2908
1613 2944
1613 2951
1613 2956
1613 2984
1613 2989
1613 2992
1613 3009
1613 3012
1613 3021
1613 3053
1613 3075
1613 3124
1613 3136
1613 3139
1613 3145
1613 3146
1613 3181
1613 3194
1613 3234
1613 3242
1613 3243
1613 3312
1613 3320
1613 3349
1613 3389
1613 3408
1613 3418
1613 3476
1613 3497
1613 3523
1613 3534
1613 3535
1613 3536
1613 3547
1613 3562
1613 3575
1613 3578
1613 3592
1613 3603
1613 3621
1613 3649
1613 3666
1613 3702
1613 3704
1613 3745
1614 1670
1614 1898
1614 1944
1614 2132
1614 2174
1614 2449
1614 2497
1614 2669
1614 2856
1614 2903
1614 3182
1614 3279
1614 3516
1614 3689
1615 1696
1615 1743
1615 2366
1615 2485
1615 2572
1615 2651
1615 2724
1615 2754
1615 2975
1615 2993
1615 3008
1615 3062
1615 3250
1615 3326
1616 1622
1616 1631
1616 1667
1616 1867
1616 1898
1616 2016
1616 2040
1616 2125
1616 2229
1616 2378
1616 2397
1616 2404
1616 2474
1616 2512
1616 2677
1616 2696
1616 2791
1616 2808
1616 2942
1616 3029
1616 3030
1616 3055
1616 3093
1616 3108
1616 3131
1616 3183
1616 3227
1616 3306
1616 3325
1616 3562
1616 3596
1616 3687
1616 3689
1616 3721
1616 3737
1617 1746
1617 1777
1617 2180
1617 2856
1617 2923
1617 3377
1617 3442
1617 3543
1617 3585
1618 1724
1618 1725
1618 1822
1618 1848
1618 1854
1618 1863
1618 1902
1618 1959
1618 1972
1618 2048
1618 2133
1618 2210
1618 2254
1618 2307
1618 2430
1618 2445
1618 2512
1618 2559
1618 2668
1618 2684
1618 2721
1618 2745
1618 2804
1618 2808
1618 2837
1618 2838
1618 2869
1618 2907
1618 2980
1618 3097
1618 3101
1618 3145
1618 3220
1618 3243
1618 3259
1618 3292
1618 3395
1618 3415
1618 3426
1618 3462
1618 3507
1618 3544
1618 3639
1618 3675
1618 3682
1618 3687
1618 3696
1618 3718
1619 1630
1619 1651
1619 1756
1619 1768
1619 1773
1619 1797
1619 1914
1619 1940
1619 2025
1619 2090
1619 2149
1619 2234
1619 2242
1619 2246
1619 2625
1619 2713
1619 2738
1619 2749
1619 2751
1619 2808
1619 2852
1619 2877
1619 2909
1619 2946
1619 3112
1619 3538
1619 3637
1619 3718
1620 2185
1620 2243
1620 2273
1620 2671
1620 2955
1620 3051
1620 3321
1620 3411
1621 1885
1621 1926
1621 2031
1621 2053
1621 2177
1621 2230
1621 2352
1621 2370
1621 2547
1621 2763
1621 2766
1621 2916
1621 2943
1621 3116
1621 3166
1621 3649
1621 3662
1622 1631
1622 1667
1622 1703
1622 1725
1622 1829
1622 1898
1622 1946
1622 1978
1622 2040
1622 2158
1622 2219
1622 2229
1622 2250
1622 2270
1622 2404
1622 2430
1622 2433
1622 2564
1622 2615
1622 2620
1622 2682
1622 2703
1622 2726
1622 2741
1622 2745
1622 2860
1622 2959
1622 3021
1622 3030
1622 3059
1622 3082
1622 3242
1622 3253
1622 3323
1622 3325
1622 3337
1622 3349
1622 3440
1622 3562
1622 3611
1622 3616
1622 3687
1622 3721
1622 3734
1623 1708
1623 2440
1623 2771
1623 2965
1624 1643
1624 1687
1624 1948
1624 2058
1624 2320
1624 2515
1624 2569
1624 2678
1624 2682
1624 2703
1624 2912
1624 3014
1624 3021
1624 3147
1624 3214
1624 3248
1624 3309
1624 3359
1624 3501
1624 3511
1624 3601
1625 1984
1625 2125
1625 2243
1625 2421
1625 2495
1625 2545
1625 2557
1625 2933
1625 3260
1625 3334
1625 3433
1625 3530
1626 1864
1626 1892
1626 2119
1626 2133
1626 2151
1626 2205
1626 2213
1626 2560
1626 2622
1626 2700
1626 2881
1626 2948
1626 3016
1626 3368
1626 3490
1626 3726
1626 3743
1628 2181
1628 2472
1628 2724
1629 1640
1629 1859
1629 2053
1629 2151
1629 2177
1629 2217
1629 2314
1629 2509
1629 2556
1629 2583
1629 2760
1629 2790
1629 2808
1629 2933
1629 3015
1629 3119
1629 3133
1629 3150
1629 3221
1629 3630
1629 3696
1630 1640
1630 1645
1630 1651
1630 1681
1630 1697
1630 1725
1630 1728
1630 1747
1630 1761
1630 1770
1630 1797
1630 1825
1630 1981
1630 1994
1630 2016
1630 2046
1630 2052
1630 2055
1630 2059
1630 2090
1630 2116
1630 2130
1630 2152
1630 2219
1630 2221
1630 2224
1630 2236
1630 2242
1630 2246
1630 2291
1630 2310
1630 2316
1630 2324
1630 2326
1630 2337
1630 2344
1630 2365
1630 2414
1630 2416
1630 2418
1630 2430
1630 2445
1630 2462
1630 2508
1630 2516
1630 2544
1630 2551
1630 2555
1630 2565
1630 2600
1630 2620
1630 2625
1630 2630
1630 2658
1630 2703
1630 2738
1630 2745
1630 2749
1630 2767
1630 2783
1630 2787
1630 2791
1630 2801
1630 2808
1630 2827
1630 2849
1630 2879
1630 2901
1630 2946
1630 2956
1630 2963
1630 2977
1630 3023
1630 3070
1630 3093
1630 3112
1630 3169
1630 3183
1630 3235
1630 3253
1630 3349
1630 3455
1630 3466
1630 3477
1630 3521
1630 3553
1630 3558
1630 3575
1630 3588
1630 3611
1630 3617
1630 3618
1630 3626
1630 3629
1630 3639
1630 3682
1630 3695
1630 3714
1630 3721
1630 3734
1631 1667
1631 1703
1631 1724
1631 1799
1631 1813
1631 1879
1631 1898
1631 1978
1631 2012
1631 2040
1631 2060
1631 2186
1631 2219
1631 2229
1631 2250
1631 2313
1631 2321
1631 2330
1631 2337
1631 2397
1631 2404
1631 2421
1631 2430
1631 2441
1631 2513
1631 2569
1631 2582
1631 2596
1631 2620
1631 2696
1631 2726
1631 2741
1631 2745
1631 2752
1631 2944
1631 2959
1631 3030
1631 3059
1631 3211
1631 3242
1631 3257
1631 3260
1631 3312
1631 3323
1631 3325
1631 3337
1631 3349
1631 3373
1631 3444
1631 3466
1631 3473
1631 3562
1631 3611
1631 3616
1631 3629
1631 3675
1631 3687
1631 3734
1631 3745
1632 1916
1632 1953
1632 2090
1632 2139
1632 2544
1632 2579
1632 2791
1632 2985
1632 3420
1632 3422
1633 2603
1634 2110
1634 2191
1634 2356
1634 2536
1634 2580
1634 2591
1634 2628
1634 2869
1634 2956
1634 3241
1634 3470
1634 3476
1635 1708
1635 1810
1635 2108
1635 2188
1635 2440
1635 2464
1635 2511
1635 2826
1636 3511
1637 2084
1638 3554
1639 1641
1639 1646
1639 1830
1639 1852
1639 2032
1639 2148
1639 2174
1639 2287
1639 2503
1639 3117
1639 3307
1639 3404
1639 3704
1639 3718
1640 1845
1640 1849
1640 1859
1640 1864
1640 2121
1640 2151
1640 2284
1640 2314
1640 2387
1640 2432
1640 2504
1640 2516
1640 2544
1640 2554
1640 2556
1640 2583
1640 2589
1640 2707
1640 2760
1640 2790
1640 2815
1640 2840
1640 2973
1640 3007
1640 3055
1640 3093
1640 3108
1640 3118
1640 3119
1640 3137
1640 3252
1640 3306
1640 3316
1640 3382
1640 3687
1640 3696
1641 1748
1641 1806
1641 1823
1641 1852
1641 1952
1641 1959
1641 2067
1641 2137
1641 2148
1641 2178
1641 2201
1641 2242
1641 2356
1641 2460
1641 2496
1641 2503
1641 2562
1641 2648
1641 2666
1641 2708
1641 2802
1641 2843
1641 2852
1641 2877
1641 3127
1641 3307
1641 3385
1641 3390
1641 3404
1641 3503
1641 3585
1641 3613
1641 3654
1641 3655
1641 3718
1642 1690
1642 1778
1642 1899
1642 1996
1642 2238
1642 2282
1642 2416
1642 2417
1642 2439
1642 2504
1642 2534
1642 2653
1642 2734
1642 2817
1642 2845
1642 2925
1642 2956
1642 3066
1642 3120
1642 3150
1642 3172
1642 3470
1642 3472
1642 3664
1642 3691
1644 1652
1644 1697
1644 1731
1644 1748
1644 1825
1644 1848
1644 1857
1644 1863
1644 1867
1644 1959
1644 1979
1644 1986
1644 1997
1644 2016
1644 2060
1644 2091
1644 2115
1644 2152
1644 2156
1644 2204
1644 2256
1644 2299
1644 2304
1644 2360
1644 2401
1644 2483
1644 2498
1644 2517
1644 2562
1644 2614
1644 2640
1644 2666
1644 2730
1644 2811
1644 2882
1644 2912
1644 2948
1644 2962
1644 3021
1644 3043
1644 3066
1644 3108
1644 3184
1644 3226
1644 3240
1644 3257
1644 3260
1644 3339
1644 3364
1644 3408
1644 3412
1644 3518
1644 3585
1644 3619
1644 3632
1644 3714
1644 3716
1644 3718
1644 3742
1645 1648
1645 1736
1645 1822
1645 1922
1645 1996
1645 2011
1645 2035
1645 2095
1645 2144
1645 2205
1645 2242
1645 2339
1645 2416
1645 2474
1645 2522
1645 2556
1645 2738
1645 2751
1645 2878
1645 2944
1645 3153
1645 3167
1645 3423
1645 3598
1645 3736
1646 1684
1646 1705
1646 1787
1646 1793
1646 1830
1646 1845
1646 1902
1646 1964
1646 2033
1646 2089
1646 2111
1646 2122
1646 2134
1646 2170
1646 2174
1646 2257
1646 2264
1646 2265
1646 2287
1646 2295
1646 2319
1646 2326
1646 2337
1646 2363
1646 2397
1646 2445
1646 2474
1646 2477
1646 2527
1646 2559
1646 2620
1646 2733
1646 2906
1646 2944
1646 3083
1646 3124
1646 3145
1646 3146
1646 3148
1646 3191
1646 3194
1646 3220
1646 3243
1646 3245
1646 3461
1646 3547
1646 3575
1646 3606
1646 3666
1646 3714
1646 3718
1647 1975
1647 3196
1647 3730
1648 1744
1648 1822
1648 1849
1648 1873
1648 1897
1648 1996
1648 2011
1648 2035
1648 2075
1648 2095
1648 2121
1648 2137
1648 2191
1648 2205
1648 2237
1648 2372
1648 2388
1648 2416
1648 2461
1648 2605
1648 2626
1648 2656
1648 2776
1648 2795
1648 2845
1648 2857
1648 2878
1648 2989
1648 3004
1648 3028
1648 3137
1648 3142
1648 3280
1648 3372
1648 3389
1648 3413
1648 3423
1648 3535
1648 3573
1648 3589
1648 3598
1648 3603
1648 3684
1648 3691
1648 3702
1648 3736
1649 1697
1649 1745
1649 1786
1649 1852
1649 1887
1649 2298
1649 2855
1649 2874
1649 2958
1649 2988
1649 3017
1649 3504
1649 3560
1651 1721
1651 1756
1651 1797
1651 1862
1651 2090
1651 2116
1651 2166
1651 2186
1651 2197
1651 2242
1651 2246
1651 2630
1651 2713
1651 2878
1651 3120
1651 3132
1651 3225
1651 3270
1651 3303
1651 3536
1651 3538
1651 3588
1651 3608
1651 3645
1651 3703
1652 1660
1652 1814
1652 1863
1652 1867
1652 1887
1652 1979
1652 2016
1652 2049
1652 2078
1652 2299
1652 2386
1652 2436
1652 2483
1652 2677
1652 2751
1652 2763
1652 2811
1652 2813
1652 2838
1652 2867
1652 2871
1652 2891
1652 2899
1652 3007
1652 3059
1652 3076
1652 3096
1652 3098
1652 3179
1652 3325
1652 3412
1652 3464
1653 1702
1653 1795
1653 1875
1653 1913
1653 2191
1653 2271
1653 2456
1653 2515
1653 2674
1653 2725
1653 2835
1653 2910
1653 2926
1653 2935
1653 3419
1653 3622
1653 3628
1653 3664
1653 3704
1654 1808
1654 1984
1654 2447
1654 2568
1654 3018
1654 3074
1654 3078
1654 3266
1655 1691
1655 1723
1655 1743
1655 1745
1655 1852
1655 1861
1655 1942
1655 1990
1655 2060
1655 2072
1655 2147
1655 2190
1655 2230
1655 2271
1655 2315
1655 2359
1655 2401
1655 2514
1655 2590
1655 2605
1655 2717
1655 2802
1655 2858
1655 2882
1655 2933
1655 2948
1655 2964
1655 3026
1655 3092
1655 3117
1655 3186
1655 3204
1655 3251
1655 3288
1655 3311
1655 3385
1655 3563
1655 3700
1655 3704
1655 3715
1655 3718
1656 1668
1656 1799
1656 1854
1656 1863
1656 1876
1656 1885
1656 1902
1656 1972
1656 2003
1656 2004
1656 2012
1656 2059
1656 2098
1656 2210
1656 2229
1656 2240
1656 2254
1656 2438
1656 2445
1656 2564
1656 2578
1656 2588
1656 2703
1656 2705
1656 2721
1656 2751
1656 2766
1656 2808
1656 2827
1656 2848
1656 2866
1656 2889
1656 3010
1656 3015
1656 3070
1656 3071
1656 3075
1656 3101
1656 3125
1656 3145
1656 3337
1656 3410
1656 3426
1656 3466
1656 3491
1656 3521
1656 3544
1656 3575
1656 3623
1656 3674
1656 3687
1656 3695
1656 3721
1657 3280
1657 3591
1658 1708
1658 2064
1658 2076
1658 2289
1658 2842
1658 2920
1658 3224
1658 3394
1659 1681
1659 1845
1659 2034
1659 2141
1659 2151
1659 2201
1659 2575
1659 2583
1659 2743
1659 2763
1659 2790
1659 2869
1659 2956
1659 3021
1659 3119
1659 3153
1659 3316
1659 3513
1659 3596
1659 3729
1660 1673
1660 1799
1660 1843
1660 1856
1660 1887
1660 1902
1660 1969
1660 2001
1660 2049
1660 2111
1660 2138
1660 2170
1660 2345
1660 2474
1660 2601
1660 2732
1660 2734
1660 2755
1660 2813
1660 2824
1660 2838
1660 2871
1660 2879
1660 3007
1660 3021
1660 3191
1660 3510
1660 3626
1660 3642
1661 1678
1661 1681
1661 1687
1661 1731
1661 1776
1661 1875
1661 1897
1661 1957
1661 1996
1661 2009
1661 2066
1661 2098
1661 2187
1661 2219
1661 2282
1661 2367
1661 2452
1661 2514
1661 2570
1661 2625
1661 2733
1661 2763
1661 2782
1661 2799
1661 2808
1661 2819
1661 2867
1661 2962
1661 2988
1661 3095
1661 3115
1661 3128
1661 3131
1661 3147
1661 3188
1661 3231
1661 3234
1661 3314
1661 3344
1661 3445
1661 3514
1661 3516
1661 3641
1661 3714
1661 3722
1662 1740
1662 1865
1662 1871
1662 2203
1662 2237
1662 2247
1662 2415
1662 2724
1662 3031
1662 3197
1662 3271
1662 3333
1662 3365
1662 3467
1662 3487
1662 3578
1663 1960
1663 2166
1663 2333
1663 2368
1663 2555
1663 2615
1663 2645
1663 2782
1663 2804
1663 3102
1663 3388
1663 3491
1663 3545
1663 3569
1663 3575
1663 3692
1663 3706
1663 3720
1663 3721
1664 1699
1664 1756
1664 1806
1664 1837
1664 1918
1664 2015
1664 2075
1664 2104
1664 2150
1664 2188
1664 2219
1664 2221
1664 2236
1664 2448
1664 2506
1664 2608
1664 2638
1664 2639
1664 2680
1664 2826
1664 2880
1664 2973
1664 3109
1664 3110
1664 3153
1664 3200
1664 3234
1664 3288
1664 3301
1664 3312
1664 3320
1664 3335
1664 3415
1664 3424
1664 3436
1664 3449
1664 3498
1664 3499
1664 3611
1664 3639
1665 1855
1665 1914
1665 2010
1665 2241
1665 2284
1665 2394
1665 2593
1665 2676
1665 2818
1665 3261
1665 3316
1665 3489
1665 3605
1666 1949
1666 3537
1666 3746
1667 1685
1667 1721
1667 1734
1667 1750
1667 1780
1667 1822
1667 1825
1667 1889
1667 1898
1667 1971
1667 2025
1667 2026
1667 2034
1667 2066
1667 2081
1667 2217
1667 2219
1667 2229
1667 2299
1667 2311
1667 2314
1667 2378
1667 2387
1667 2397
1667 2401
1667 2438
1667 2474
1667 2492
1667 2508
1667 2528
1667 2620
1667 2640
1667 2649
1667 2677
1667 2696
1667 2741
1667 2744
1667 2791
1667 2804
1667 2808
1667 2869
1667 2877
1667 2879
1667 2943
1667 2981
1667 3014
1667 3029
1667 3030
1667 3037
1667 3055
1667 3070
1667 3093
1667 3096
1667 3098
1667 3108
1667 3116
1667 3131
1667 3136
1667 3153
1667 3181
1667 3197
1667 3224
1667 3227
1667 3234
1667 3246
1667 3264
1667 3306
1667 3323
1667 3325
1667 3339
1667 3349
1667 3357
1667 3386
1667 3389
1667 3458
1667 3466
1667 3481
1667 3518
1667 3547
1667 3562
1667 3586
1667 3592
1667 3596
1667 3638
1667 3639
1667 3641
1667 3661
1667 3667
1667 3687
1667 3717
1667 3719
1667 3737
1668 1724
1668 1822
1668 1863
1668 1868
1668 1876
1668 1972
1668 2003
1668 2004
1668 2012
1668 2024
1668 2119
1668 2229
1668 2240
1668 2254
1668 2323
1668 2445
1668 2564
1668 2578
1668 2588
1668 2703
1668 2705
1668 2721
1668 2745
1668 2751
1668 2766
1668 2848
1668 2889
1668 2948
1668 2962
1668 3071
1668 3101
1668 3125
1668 3145
1668 3209
1668 3243
1668 3297
1668 3337
1668 3410
1668 3426
1668 3521
1668 3544
1668 3674
1668 3676
1668 3696
1668 3716
1668 3721
1669 2623
1670 1725
1670 1744
1670 1758
1670 2121
1670 2222
1670 2406
1670 2438
1670 2463
1670 2568
1670 2626
1670 2640
1670 2696
1670 2734
1670 2808
1670 2815
1670 3075
1670 3139
1670 3171
1670 3191
1670 3249
1670 3349
1670 3547
1670 3573
1670 3575
1670 3649
1670 3680
1671 1679
1671 3016
1672 2108
1673 1679
1673 1687
1673 1695
1673 1937
1673 1971
1673 1997
1673 2025
1673 2049
1673 2156
1673 2184
1673 2237
1673 2262
1673 2554
1673 2625
1673 2677
1673 2793
1673 2838
1673 2839
1673 2867
1673 2879
1673 3020
1673 3045
1673 3247
1673 3433
1673 3466
1673 3481
1673 3510
1674 1734
1674 1744
1674 1864
1674 1996
1674 2054
1674 2168
1674 2357
1674 2374
1674 2403
1674 2412
1674 2416
1674 2511
1674 2538
1674 2542
1674 2622
1674 2698
1674 2710
1674 2745
1674 2806
1674 2819
1674 2900
1674 2907
1674 2967
1674 2973
1674 3021
1674 3090
1674 3242
1674 3249
1674 3296
1674 3349
1674 3386
1674 3441
1674 3466
1674 3503
1674 3536
1674 3554
1674 3564
1674 3630
1675 1908
1675 2113
1675 2376
1675 2416
1675 2861
1675 3039
1675 3560
1676 1797
1677 2114
1677 2525
1677 2789
1677 2834
1677 3021
1677 3135
1677 3249
1677 3262
1677 3286
1677 3431
1677 3482
1678 1687
1678 1704
1678 1821
1678 1935
1678 2095
1678 2188
1678 2319
1678 2570
1678 2779
1678 2808
1678 3021
1678 3143
1678 3231
1678 3658
1679 1725
1679 1799
1679 1848
1679 1937
1679 1954
1679 1975
1679 1986
1679 2053
1679 2133
1679 2162
1679 2262
1679 2468
1679 2635
1679 2728
1679 2959
1679 3003
1679 3043
1679 3045
1679 3142
1679 3143
1679 3171
1679 3276
1679 3376
1679 3412
1679 3433
1679 3596
1679 3612
1679 3639
1679 3724
1680 1758
1680 1849
1680 1948
1680 2034
1680 2141
1680 2146
1680 2219
1680 2406
1680 2438
1680 2567
1680 2941
1680 2988
1680 3068
1680 3075
1680 3234
1680 3349
1680 3385
1680 3497
1680 3514
1680 3562
1680 3573
1680 3641
1680 3688
1680 3731
1681 1685
1681 1699
1681 1703
1681 1723
1681 1734
1681 1743
1681 1744
1681 1761
1681 1770
1681 1780
1681 1838
1681 1845
1681 1863
1681 1870
1681 1875
1681 1922
1681 1948
1681 1978
1681 1979
1681 1987
1681 2007
1681 2009
1681 2034
1681 2046
1681 2064
1681 2066
1681 2131
1681 2141
1681 2156
1681 2170
1681 2177
1681 2201
1681 2221
1681 2271
1681 2281
1681 2289
1681 2295
1681 2316
1681 2323
1681 2325
1681 2337
1681 2360
1681 2374
1681 2408
1681 2414
1681 2417
1681 2418
1681 2422
1681 2455
1681 2463
1681 2474
1681 2485
1681 2493
1681 2543
1681 2551
1681 2568
1681 2575
1681 2578
1681 2599
1681 2605
1681 2607
1681 2620
1681 2631
1681 2647
1681 2649
1681 2658
1681 2719
1681 2743
1681 2745
1681 2752
1681 2763
1681 2767
1681 2771
1681 2781
1681 2783
1681 2809
1681 2861
1681 2907
1681 2908
1681 2912
1681 2941
1681 2944
1681 2984
1681 2993
1681 2998
1681 2999
1681 3012
1681 3021
1681 3026
1681 3038
1681 3080
1681 3087
1681 3094
1681 3098
1681 3103
1681 3108
1681 3109
1681 3110
1681 3111
1681 3115
1681 3136
1681 3138
1681 3150
1681 3153
1681 3159
1681 3166
1681 3169
1681 3173
1681 3191
1681 3212
1681 3227
1681 3230
1681 3234
1681 3336
1681 3359
1681 3364
1681 3367
1681 3412
1681 3424
1681 3431
1681 3437
1681 3449
1681 3508
1681 3513
1681 3536
1681 3558
1681 3565
1681 3573
1681 3581
1681 3596
1681 3629
1681 3641
1681 3655
1681 3678
1681 3691
1681 3692
1681 3695
1681 3704
1681 3721
1681 3735
1681 3746
1682 1849
1682 1893
1682 1939
1682 2015
1682 2071
1682 2084
1682 2201
1682 2670
1682 2790
1682 2812
1682 2877
1682 3202
1682 3265
1682 3478
1683 1881
1683 2045
1683 2065
1683 2114
1683 2212
1683 2567
1683 2634
1683 2687
1683 2735
1683 2789
1683 2825
1683 2975
1683 3021
1683 3088
1683 3345
1683 3390
1683 3391
1683 3546
1684 2089
1684 2458
1684 2460
1684 2733
1684 3006
1684 3392
1684 3643
1684 3659
1685 1696
1685 1778
1685 1867
1685 1893
1685 1912
1685 1979
1685 2064
1685 2128
1685 2161
1685 2229
1685 2323
1685 2325
1685 2401
1685 2707
1685 2708
1685 2731
1685 2734
1685 2743
1685 2821
1685 3021
1685 3059
1685 3086
1685 3120
1685 3138
1685 3184
1685 3316
1685 3359
1685 3364
1685 3399
1685 3412
1685 3430
1685 3449
1685 3450
1685 3513
1685 3562
1685 3619
1685 3620
1685 3695
1685 3704
1685 3714
1685 3720
1686 1705
1686 1761
1686 1837
1686 1882
1686 1894
1686 1920
1686 1925
1686 1972
1686 2015
1686 2066
1686 2119
1686 2147
1686 2177
1686 2206
1686 2219
1686 2236
1686 2276
1686 2282
1686 2311
1686 2583
1686 2638
1686 2763
1686 2908
1686 2944
1686 2973
1686 3002
1686 3030
1686 3043
1686 3115
1686 3121
1686 3123
1686 3234
1686 3296
1686 3385
1686 3516
1686 3668
1686 3714
1687 1695
1687 1716
1687 1773
1687 1791
1687 1797
1687 1824
1687 1862
1687 1937
1687 2025
1687 2034
1687 2156
1687 2237
1687 2251
1687 2262
1687 2284
1687 2386
1687 2410
1687 2420
1687 2424
1687 2445
1687 2464
1687 2467
1687 2474
1687 2615
1687 2635
1687 2677
1687 2763
1687 2770
1687 2779
1687 2791
1687 2793
1687 2802
1687 2832
1687 2869
1687 2904
1687 2908
1687 2928
1687 3016
1687 3021
1687 3045
1687 3083
1687 3098
1687 3118
1687 3147
1687 3167
1687 3191
1687 3194
1687 3199
1687 3238
1687 3247
1687 3389
1687 3412
1687 3426
1687 3510
1687 3528
1687 3581
1687 3599
1687 3641
1687 3642
1687 3659
1687 3677
1687 3692
1687 3706
1687 3718
1687 3728
1688 1843
1688 1912
1688 1956
1688 2042
1688 2112
1688 2114
1688 2160
1688 2176
1688 2178
1688 2182
1688 2329
1688 2369
1688 2390
1688 2423
1688 2425
1688 2601
1688 2636
1688 2710
1688 2755
1688 2859
1688 2875
1688 2895
1688 2970
1688 2973
1688 2986
1688 3021
1688 3086
1688 3105
1688 3129
1688 3152
1688 3178
1688 3248
1688 3316
1688 3450
1688 3465
1688 3597
1688 3638
1688 3640
1689 1744
1689 2028
1689 2440
1689 2687
1689 3289
1689 3657
1690 1702
1690 1785
1690 2122
1690 2152
1690 2176
1690 2191
1690 2309
1690 2377
1690 2460
1690 2650
1690 2672
1690 2830
1690 3516
1690 3706
1691 1725
1691 1870
1691 2010
1691 2243
1691 2337
1691 2346
1691 2384
1691 2401
1691 2590
1691 2676
1691 2728
1691 2861
1691 2881
1691 2943
1691 2985
1691 3086
1691 3182
1691 3397
1691 3403
1691 3431
1691 3462
1691 3553
1691 3704
1691 3718
1692 1748
1692 1893
1692 1906
1692 1939
1692 1952
1692 2135
1692 2141
1692 2174
1692 2201
1692 2356
1692 2447
1692 2476
1692 2540
1692 2648
1692 2658
1692 2802
1692 2869
1692 2877
1692 3004
1692 3091
1692 3117
1692 3151
1692 3265
1692 3396
1692 3404
1692 3577
1692 3654
1692 3718
1693 1695
1693 1822
1693 2270
1693 2287
1693 2517
1693 2648
1693 2649
1693 2699
1693 3091
1693 3121
1693 3270
1694 2440
1695 1845
1695 1903
1695 1946
1695 2008
1695 2020
1695 2287
1695 2412
1695 2475
1695 2769
1695 2802
1695 2891
1695 2923
1695 3010
1695 3070
1695 3219
1695 3230
1695 3264
1695 3330
1695 3404
1695 3426
1695 3456
1695 3616
1695 3649
1695 3677
1696 1738
1696 2440
1696 2731
1696 3120
1696 3326
1696 3364
1696 3591
1696 3712
1697 1745
1697 1848
1697 1925
1697 1954
1697 1972
1697 1986
1697 2337
1697 2609
1697 2648
1697 2679
1697 2752
1697 2944
1697 2948
1697 2959
1697 2962
1697 2994
1697 3043
1697 3066
1697 3184
1697 3299
1697 3376
1697 3383
1697 3404
1697 3423
1697 3442
1697 3547
1697 3716
1698 1751
1698 1782
1698 1805
1698 1817
1698 1996
1698 2138
1698 2165
1698 2723
1698 2771
1698 2772
1698 2883
1698 2884
1698 2917
1698 2967
1698 3285
1698 3290
1698 3361
1698 3586
1698 3705
1699 1756
1699 1780
1699 1806
1699 1839
1699 1877
1699 1904
1699 1907
1699 1913
1699 1974
1699 1978
1699 2009
1699 2075
1699 2319
1699 2387
1699 2414
1699 2448
1699 2463
1699 2474
1699 2506
1699 2568
1699 2572
1699 2599
1699 2613
1699 2771
1699 2880
1699 2885
1699 3026
1699 3087
1699 3110
1699 3111
1699 3141
1699 3166
1699 3181
1699 3227
1699 3357
1699 3382
1699 3390
1699 3408
1699 3434
1699 3436
1699 3536
1699 3564
1699 3626
1699 3692
1699 3718
1700 1783
1700 1793
1700 1941
1700 2024
1700 2057
1700 2067
1700 2122
1700 2142
1700 2242
1700 2287
1700 2350
1700 2373
1700 2652
1700 2734
1700 2778
1700 2828
1700 2865
1700 2877
1700 2964
1700 3061
1700 3160
1700 3205
1700 3367
1700 3376
1700 3526
1700 3559
1700 3617
1700 3695
1700 3718
1701 2771
1701 3110
1701 3686
1702 2122
1702 2176
1702 2191
1702 2377
1702 2460
1702 2650
1702 3431
1702 3554
1702 3640
1703 1723
1703 1818
1703 1863
1703 1929
1703 1987
1703 2087
1703 2125
1703 2186
1703 2218
1703 2229
1703 2324
1703 2412
1703 2492
1703 2533
1703 2553
1703 2571
1703 2664
1703 2696
1703 2698
1703 2703
1703 2745
1703 2766
1703 2791
1703 2804
1703 2808
1703 2848
1703 2960
1703 2973
1703 2995
1703 3068
1703 3075
1703 3098
1703 3136
1703 3227
1703 3242
1703 3259
1703 3349
1703 3367
1703 3373
1703 3386
1703 3445
1703 3466
1703 3503
1703 3575
1703 3605
1703 3623
1703 3674
1703 3689
1703 3734
1704 1761
1704 1801
1704 2038
1704 2133
1704 2157
1704 2474
1704 2746
1704 2980
1704 3069
1704 3234
1704 3243
1704 3405
1704 3534
1704 3659
1704 3687
1705 1744
1705 1922
1705 1925
1705 1988
1705 2000
1705 2014
1705 2015
1705 2034
1705 2219
1705 2251
1705 2265
1705 2311
1705 2374
1705 2559
1705 2710
1705 2763
1705 2906
1705 2922
1705 2946
1705 3002
1705 3101
1705 3115
1705 3123
1705 3124
1705 3135
1705 3145
1705 3194
1705 3206
1705 3234
1705 3243
1705 3296
1705 3371
1705 3534
1705 3573
1705 3575
1705 3578
1705 3638
1705 3705
1705 3714
1706 1742
1706 1893
1706 2077
1706 2164
1706 2232
1706 2340
1706 2407
1706 2482
1706 2531
1706 2656
1706 2687
1706 2810
1706 3112
1706 3222
1706 3278
1706 3456
1706 3568
1706 3667
1706 3677
1706 3711
1707 2701
1707 3257
1707 3260
1708 1865
1708 1935
1708 1956
1708 2009
1708 2042
1708 2076
1708 2078
1708 2081
1708 2114
1708 2154
1708 2289
1708 2341
1708 2396
1708 2431
1708 2436
1708 2440
1708 2452
1708 2464
1708 2489
1708 2511
1708 2709
1708 2710
1708 2724
1708 2771
1708 2786
1708 2789
1708 2805
1708 2825
1708 2842
1708 2859
1708 2914
1708 2920
1708 2975
1708 2986
1708 3000
1708 3021
1708 3024
1708 3093
1708 3176
1708 3224
1708 3248
1708 3255
1708 3262
1708 3375
1708 3388
1708 3394
1708 3421
1708 3431
1708 3469
1708 3574
1708 3597
1709 3714
1710 1761
1710 1908
1710 2042
1710 2052
1710 2276
1710 2364
1710 2416
1710 2458
1710 2517
1710 2665
1710 2699
1710 2845
1710 3021
1710 3094
1710 3207
1710 3264
1710 3284
1710 3339
1710 3482
1710 3517
1710 3572
1710 3578
1710 3642
1710 3736
1711 2243
1711 2658
1711 3599
1712 2544
1712 2556
1713 2201
1713 2622
1713 3541
1714 1733
1714 1777
1714 1864
1714 1880
1714 1967
1714 2211
1714 2298
1714 2367
1714 2381
1714 2388
1714 2424
1714 2458
1714 2460
1714 2469
1714 2479
1714 2503
1714 2528
1714 2612
1714 2626
1714 2699
1714 2792
1714 2845
1714 2940
1714 2974
1714 2988
1714 3072
1714 3178
1714 3244
1714 3264
1714 3329
1714 3339
1714 3356
1714 3402
1714 3482
1714 3484
1714 3504
1714 3517
1714 3578
1714 3642
1714 3649
1714 3650
1714 3722
1715 1763
1715 2405
1715 2486
1715 2525
1715 2640
1715 2914
1715 3256
1715 3283
1715 3375
1716 2420
1716 2445
1716 3191
1717 2217
1717 2440
1717 2472
1717 2598
1717 2703
1717 3414
1717 3464
1717 3485
1717 3561
1718 2681
1719 1916
1719 1943
1719 2004
1719 2007
1719 2158
1719 2205
1719 2206
1719 2213
1719 2229
1719 2246
1719 2249
1719 2250
1719 2251
1719 2254
1719 2303
1719 2353
1719 2452
1719 2480
1719 2515
1719 2544
1719 2548
1719 2682
1719 2808
1719 2866
1719 2899
1719 2944
1719 3046
1719 3075
1719 3121
1719 3145
1719 3173
1719 3203
1719 3382
1719 3388
1719 3478
1719 3498
1719 3521
1719 3575
1719 3584
1719 3683
1719 3687
1719 3690
1719 3726
1720 2264
1720 2350
1720 2430
1720 2620
1720 2640
1720 2763
1720 2783
1720 2791
1720 3047
1720 3245
1720 3366
1720 3466
1720 3635
1721 1750
1721 2116
1721 2186
1721 2194
1721 2217
1721 2387
1721 2508
1721 3015
1721 3018
1721 3096
1721 3306
1721 3585
1722 2834
1722 3357
1722 3580
1723 1870
1723 1948
1723 1984
1723 2109
1723 2156
1723 2222
1723 2324
1723 2325
1723 2333
1723 2359
1723 2378
1723 2591
1723 2631
1723 2664
1723 2745
1723 2766
1723 2858
1723 2912
1723 2971
1723 3059
1723 3068
1723 3073
1723 3115
1723 3359
1723 3367
1723 3449
1723 3462
1723 3466
1723 3573
1724 1773
1724 1813
1724 1822
1724 1845
1724 1848
1724 1879
1724 1925
1724 1959
1724 1972
1724 1978
1724 2040
1724 2186
1724 2206
1724 2229
1724 2250
1724 2319
1724 2321
1724 2363
1724 2378
1724 2430
1724 2478
1724 2513
1724 2515
1724 2557
1724 2564
1724 2582
1724 2588
1724 2608
1724 2703
1724 2721
1724 2741
1724 2751
1724 2766
1724 2848
1724 2933
1724 2944
1724 3030
1724 3046
1724 3075
1724 3121
1724 3145
1724 3171
1724 3323
1724 3325
1724 3337
1724 3349
1724 3415
1724 3444
1724 3462
1724 3518
1724 3669
1724 3675
1724 3683
1724 3687
1724 3745
1725 1730
1725 1734
1725 1741
1725 1742
1725 1748
1725 1792
1725 1825
1725 1848
1725 1860
1725 1867
1725 1870
1725 1879
1725 1901
1725 1925
1725 1930
1725 1940
1725 1941
1725 1959
1725 2001
1725 2006
1725 2025
1725 2032
1725 2034
1725 2040
1725 2133
1725 2140
1725 2174
1725 2229
1725 2238
1725 2240
1725 2243
1725 2268
1725 2291
1725 2298
1725 2308
1725 2316
1725 2319
1725 2324
1725 2381
1725 2406
1725 2408
1725 2429
1725 2435
1725 2443
1725 2454
1725 2455
1725 2473
1725 2474
1725 2478
1725 2494
1725 2528
1725 2547
1725 2559
1725 2617
1725 2638
1725 2644
1725 2645
1725 2649
1725 2658
1725 2666
1725 2695
1725 2710
1725 2717
1725 2801
1725 2809
1725 2811
1725 2827
1725 2843
1725 2846
1725 2877
1725 2881
1725 2907
1725 2928
1725 2944
1725 2950
1725 2963
1725 2967
1725 2971
1725 3000
1725 3016
1725 3023
1725 3030
1725 3043
1725 3075
1725 3098
1725 3107
1725 3120
1725 3142
1725 3143
1725 3164
1725 3171
1725 3183
1725 3204
1725 3210
1725 3220
1725 3224
1725 3227
1725 3228
1725 3259
1725 3276
1725 3277
1725 3301
1725 3311
1725 3312
1725 3332
1725 3339
1725 3349
1725 3362
1725 3372
1725 3403
1725 3433
1725 3452
1725 3462
1725 3510
1725 3515
1725 3547
1725 3560
1725 3563
1725 3568
1725 3578
1725 3615
1725 3624
1725 3629
1725 3630
1725 3632
1725 3638
1725 3639
1725 3641
1725 3649
1725 3683
1725 3690
1725 3695
1725 3699
1725 3724
1725 3734
1725 3745
1726 2340
1727 2011
1727 2238
1727 3128
1727 3348
1727 3594
1728 1754
1728 1785
1728 1825
1728 1848
1728 1918
1728 1961
1728 2026
1728 2125
1728 2158
1728 2209
1728 2218
1728 2256
1728 2384
1728 2478
1728 2672
1728 2721
1728 2730
1728 2767
1728 2774
1728 2791
1728 2804
1728 2808
1728 2911
1728 3096
1728 3125
1728 3183
1728 3395
1728 3415
1728 3688
1728 3689
1728 3731
1729 1864
1729 1912
1729 2068
1729 2112
1729 2168
1729 2290
1729 2412
1729 2474
1729 2510
1729 2538
1729 2554
1729 2601
1729 2636
1729 2698
1729 2745
1729 2755
1729 2804
1729 2842
1729 2895
1729 2942
1729 2973
1729 3007
1729 3116
1729 3118
1729 3161
1729 3183
1729 3328
1729 3349
1729 3386
1729 3450
1729 3557
1729 3599
1729 3624
1729 3630
1729 3640
1729 3717
1729 3718
1730 2174
1730 2428
1730 2447
1730 2648
1730 3134
1730 3404
1730 3435
1731 1799
1731 1814
1731 1863
1731 2060
1731 2330
1731 2360
1731 2526
1731 2569
1731 2570
1731 2710
1731 2809
1731 2821
1731 2908
1731 2912
1731 3130
1731 3183
1731 3257
1731 3260
1731 3304
1731 3344
1731 3368
1731 3388
1731 3430
1731 3449
1731 3453
1731 3585
1731 3681
1732 1741
1732 1785
1732 2107
1732 2158
1732 2250
1732 2251
1732 2284
1732 2504
1732 2522
1732 2589
1732 2615
1732 2667
1732 2774
1732 2803
1732 2815
1732 3252
1732 3316
1732 3338
1732 3382
1732 3529
1732 3553
1732 3684
1733 1777
1733 1908
1733 1986
1733 2052
1733 2211
1733 2298
1733 2367
1733 2369
1733 2388
1733 2458
1733 2479
1733 2503
1733 2528
1733 2547
1733 2636
1733 2699
1733 2791
1733 2792
1733 2845
1733 2888
1733 2939
1733 2940
1733 2956
1733 3000
1733 3043
1733 3072
1733 3161
1733 3213
1733 3264
1733 3284
1733 3482
1733 3484
1733 3504
1733 3513
1733 3517
1733 3649
1733 3650
1733 3683
1734 1744
1734 1756
1734 1844
1734 1854
1734 1863
1734 2090
1734 2121
1734 2133
1734 2158
1734 2160
1734 2210
1734 2251
1734 2300
1734 2395
1734 2403
1734 2416
1734 2445
1734 2474
1734 2564
1734 2668
1734 2703
1734 2721
1734 2836
1734 2848
1734 2850
1734 2907
1734 2915
1734 2925
1734 2956
1734 2975
1734 2994
1734 3034
1734 3093
1734 3101
1734 3108
1734 3137
1734 3145
1734 3150
1734 3168
1734 3220
1734 3242
1734 3243
1734 3324
1734 3426
1734 3437
1734 3520
1734 3536
1734 3544
1734 3561
1734 3575
1734 3603
1734 3675
1734 3676
1734 3682
1734 3688
1734 3691
1734 3721
1735 2853
1735 3421
1735 3570
1735 3709
1735 3746
1736 2035
1736 2205
1736 2355
1736 2570
1736 3004
1736 3186
1736 3354
1736 3359
1736 3598
1736 3641
1736 3680
1737 1816
1737 1841
1737 1908
1737 1970
1737 2002
1737 2077
1737 2092
1737 2110
1737 2173
1737 2209
1737 2347
1737 2354
1737 2371
1737 2382
1737 2399
1737 2656
1737 2661
1737 2700
1737 2773
1737 2781
1737 2818
1737 2822
1737 2823
1737 2888
1737 2890
1737 2911
1737 2954
1737 2956
1737 2979
1737 3059
1737 3060
1737 3093
1737 3148
1737 3150
1737 3181
1737 3278
1737 3280
1737 3359
1737 3422
1737 3688
1737 3696
1737 3746
1738 3591
1738 3712
1739 1744
1739 1932
1739 1940
1739 2046
1739 2419
1739 2461
1739 2543
1739 2771
1739 2905
1739 2956
1739 3064
1739 3192
1739 3407
1739 3446
1739 3528
1739 3537
1739 3684
1740 1794
1740 2203
1740 2440
1740 2452
1740 2473
1740 2687
1740 2789
1740 2829
1740 3351
1740 3431
1740 3467
1740 3487
1740 3546
1740 3578
1741 1792
1741 1821
1741 1822
1741 1941
1741 1954
1741 2006
1741 2107
1741 2140
1741 2146
1741 2264
1741 2284
1741 2295
1741 2504
1741 2557
1741 2589
1741 2595
1741 2597
1741 2645
1741 2801
1741 2882
1741 2963
1741 3010
1741 3057
1741 3167
1741 3252
1741 3300
1741 3338
1741 3382
1741 3528
1741 3529
1741 3553
1741 3684
1741 3718
1742 1820
1742 1893
1742 2067
1742 2075
1742 2159
1742 2174
1742 2179
1742 2356
1742 2648
1742 2749
1742 2869
1742 2973
1742 3087
1742 3166
1742 3365
1742 3435
1742 3446
1742 3476
1742 3637
1742 3645
1742 3668
1742 3684
1742 3686
1743 1896
1743 1941
1743 2238
1743 2455
1743 2485
1743 2522
1743 2964
1743 3012
1743 3109
1743 3376
1743 3424
1743 3594
1743 3655
1743 3695
1743 3718
1744 1773
1744 1842
1744 1862
1744 1925
1744 1996
1744 2009
1744 2025
1744 2028
1744 2035
1744 2046
1744 2054
1744 2056
1744 2095
1744 2222
1744 2229
1744 2288
1744 2300
1744 2372
1744 2400
1744 2403
1744 2416
1744 2463
1744 2493
1744 2550
1744 2568
1744 2626
1744 2734
1744 2771
1744 2786
1744 2809
1744 2819
1744 2845
1744 2878
1744 2907
1744 2973
1744 3090
1744 3110
1744 3112
1744 3150
1744 3246
1744 3249
1744 3289
1744 3368
1744 3374
1744 3418
1744 3423
1744 3453
1744 3496
1744 3536
1744 3573
1744 3598
1744 3685
1744 3736
1744 3746
1745 1793
1745 1821
1745 2079
1745 2138
1745 2170
1745 2177
1745 2350
1745 2390
1745 2522
1745 2618
1745 2717
1745 2877
1745 2933
1745 3581
1745 3616
1746 3360
1747 1994
1747 1996
1747 2035
1747 2055
1747 2090
1747 2236
1747 2291
1747 2344
1747 2357
1747 2414
1747 2416
1747 2418
1747 2430
1747 2474
1747 2565
1747 2743
1747 2801
1747 2901
1747 2907
1747 2956
1747 3079
1747 3137
1747 3186
1747 3192
1747 3253
1747 3268
1747 3384
1747 3390
1747 3463
1747 3477
1747 3496
1747 3535
1747 3553
1747 3588
1747 3592
1747 3596
1747 3617
1747 3629
1748 1777
1748 1853
1748 1867
1748 1939
1748 1952
1748 1973
1748 1986
1748 2016
1748 2038
1748 2039
1748 2080
1748 2109
1748 2148
1748 2174
1748 2201
1748 2242
1748 2319
1748 2367
1748 2401
1748 2447
1748 2466
1748 2496
1748 2581
1748 2605
1748 2648
1748 2679
1748 2692
1748 2717
1748 2802
1748 2852
1748 2877
1748 3004
1748 3010
1748 3091
1748 3112
1748 3117
1748 3127
1748 3139
1748 3186
1748 3265
1748 3364
1748 3376
1748 3390
1748 3396
1748 3404
1748 3489
1748 3518
1748 3558
1748 3585
1748 3619
1748 3654
1748 3659
1748 3718
1748 3741
1749 1848
1750 1816
1750 2217
1750 2387
1750 2827
1750 3018
1750 3194
1750 3306
1750 3388
1750 3667
1751 1817
1751 2138
1751 2165
1751 2400
1751 2706
1751 2723
1751 2771
1751 2883
1751 2884
1751 2925
1751 3038
1751 3371
1751 3437
1751 3638
1752 1807
1752 1812
1752 2037
1752 2065
1752 2137
1752 2279
1752 2356
1752 2975
1752 3294
1752 3571
1752 3657
1753 3198
1754 1761
1754 1785
1754 1788
1754 1805
1754 1825
1754 1849
1754 1961
1754 1977
1754 2158
1754 2168
1754 2201
1754 2209
1754 2371
1754 2430
1754 2478
1754 2507
1754 2510
1754 2555
1754 2582
1754 2595
1754 2604
1754 2615
1754 2617
1754 2705
1754 2730
1754 2767
1754 2774
1754 2791
1754 2836
1754 2911
1754 2933
1754 2952
1754 2956
1754 2961
1754 2973
1754 3015
1754 3096
1754 3098
1754 3106
1754 3145
1754 3183
1754 3253
1754 3272
1754 3300
1754 3370
1754 3404
1754 3451
1754 3458
1754 3534
1754 3540
1754 3624
1754 3629
1754 3639
1754 3688
1754 3689
1754 3695
1754 3721
1754 3731
1755 2064
1755 2079
1755 2168
1755 2289
1755 2601
1755 2659
1755 2755
1755 2804
1755 2842
1755 3021
1755 3103
1755 3138
1755 3227
1756 1780
1756 1864
1756 1876
1756 1972
1756 1996
1756 2075
1756 2144
1756 2210
1756 2240
1756 2254
1756 2289
1756 2364
1756 2430
1756 2445
1756 2474
1756 2506
1756 2564
1756 2578
1756 2683
1756 2703
1756 2721
1756 2751
1756 2836
1756 2848
1756 2884
1756 2909
1756 2946
1756 2947
1756 3021
1756 3065
1756 3101
1756 3112
1756 3125
1756 3181
1756 3182
1756 3219
1756 3220
1756 3288
1756 3364
1756 3393
1756 3426
1756 3623
1756 3676
1756 3683
1756 3716
1757 1951
1757 1962
1757 2170
1757 2325
1757 2695
1757 2781
1757 2827
1757 2933
1757 3359
1757 3651
1758 1809
1758 1959
1758 2024
1758 2033
1758 2102
1758 2134
1758 2135
1758 2141
1758 2264
1758 2287
1758 2295
1758 2299
1758 2406
1758 2438
1758 2474
1758 2497
1758 2559
1758 2575
1758 2696
1758 2733
1758 2877
1758 2906
1758 2908
1758 2951
1758 3075
1758 3097
1758 3124
1758 3139
1758 3181
1758 3234
1758 3349
1758 3408
1758 3497
1758 3523
1758 3547
1758 3562
1758 3578
1758 3649
1758 3666
1758 3689
1759 1799
1759 2057
1759 2416
1759 2677
1759 3464
1759 3466
1760 2224
1760 2440
1760 2648
1760 3031
1761 1770
1761 1801
1761 1822
1761 1994
1761 2004
1761 2038
1761 2040
1761 2059
1761 2119
1761 2125
1761 2131
1761 2188
1761 2201
1761 2210
1761 2219
1761 2221
1761 2236
1761 2257
1761 2291
1761 2316
1761 2326
1761 2337
1761 2365
1761 2413
1761 2414
1761 2418
1761 2430
1761 2445
1761 2455
1761 2474
1761 2492
1761 2528
1761 2544
1761 2551
1761 2559
1761 2596
1761 2620
1761 2640
1761 2658
1761 2699
1761 2703
1761 2721
1761 2745
1761 2766
1761 2783
1761 2787
1761 2791
1761 2808
1761 2849
1761 2879
1761 2901
1761 2907
1761 2933
1761 2944
1761 2948
1761 2956
1761 2960
1761 2999
1761 3023
1761 3070
1761 3075
1761 3101
1761 3137
1761 3139
1761 3153
1761 3191
1761 3227
1761 3243
1761 3253
1761 3272
1761 3325
1761 3366
1761 3386
1761 3404
1761 3405
1761 3426
1761 3466
1761 3477
1761 3534
1761 3553
1761 3558
1761 3575
1761 3578
1761 3601
1761 3611
1761 3617
1761 3629
1761 3639
1761 3642
1761 3675
1761 3680
1761 3687
1761 3698
1761 3721
1762 2057
1762 2125
1762 2138
1762 2291
1762 2492
1762 2703
1762 2745
1762 2804
1762 2973
1762 3276
1762 3301
1762 3313
1762 3325
1762 3386
1762 3466
1763 2302
1763 2405
1763 2525
1763 2640
1763 2914
1763 3283
1763 3375
1764 1922
1764 1962
1764 2046
1764 2067
1764 2242
1764 2337
1764 2657
1764 2822
1764 2984
1764 3012
1764 3194
1764 3246
1764 3359
1764 3377
1764 3696
1765 3357
1766 2110
1766 2341
1768 1924
1768 1976
1768 2133
1768 2217
1768 2648
1768 2728
1768 2948
1768 3021
1768 3059
1768 3231
1768 3234
1768 3238
1768 3276
1768 3332
1768 3396
1768 3538
1768 3542
1768 3618
1768 3693
1769 2191
1770 1777
1770 1822
1770 1905
1770 1960
1770 1994
1770 2015
1770 2219
1770 2221
1770 2236
1770 2291
1770 2316
1770 2362
1770 2400
1770 2413
1770 2414
1770 2418
1770 2430
1770 2445
1770 2551
1770 2620
1770 2687
1770 2783
1770 2805
1770 2849
1770 2901
1770 3137
1770 3169
1770 3253
1770 3272
1770 3290
1770 3310
1770 3466
1770 3477
1770 3553
1770 3558
1770 3568
1770 3575
1770 3578
1770 3592
1770 3601
1770 3617
1770 3629
1771 2053
1771 3119
1771 3133
1771 3316
1772 1776
1772 1825
1772 1886
1772 1914
1772 1941
1772 1978
1772 2053
1772 2149
1772 2158
1772 2221
1772 2234
1772 2308
1772 2555
1772 2597
1772 2615
1772 2703
1772 2781
1772 2808
1772 2809
1772 2832
1772 2912
1772 3059
1772 3102
1772 3120
1772 3332
1772 3344
1772 3388
1772 3449
1772 3536
1772 3661
1772 3689
1773 1797
1773 1821
1773 1997
1773 2025
1773 2072
1773 2135
1773 2139
1773 2146
1773 2166
1773 2174
1773 2177
1773 2201
1773 2221
1773 2242
1773 2256
1773 2270
1773 2352
1773 2438
1773 2597
1773 2625
1773 2648
1773 2720
1773 2741
1773 2743
1773 2751
1773 2783
1773 2808
1773 2822
1773 2838
1773 2849
1773 2882
1773 2905
1773 2909
1773 2928
1773 2946
1773 2960
1773 2972
1773 2977
1773 2980
1773 3030
1773 3059
1773 3075
1773 3098
1773 3139
1773 3164
1773 3167
1773 3204
1773 3261
1773 3303
1773 3337
1773 3354
1773 3404
1773 3479
1773 3483
1773 3528
1773 3603
1773 3659
1773 3661
1773 3662
1773 3668
1773 3692
1773 3703
1773 3721
1774 3627
1775 1798
1775 1863
1775 1893
1775 1905
1775 1953
1775 2142
1775 2238
1775 2655
1775 2826
1775 2869
1775 2916
1775 3016
1775 3109
1775 3234
1775 3310
1775 3368
1775 3424
1775 3476
1775 3682
1775 3684
1776 1779
1776 1886
1776 2056
1776 2398
1776 3314
1776 3344
1776 3609
1777 1827
1777 2001
1777 2052
1777 2064
1777 2211
1777 2276
1777 2369
1777 2388
1777 2416
1777 2458
1777 2469
1777 2479
1777 2517
1777 2528
1777 2665
1777 2699
1777 2710
1777 2755
1777 2792
1777 2845
1777 2857
1777 2939
1777 2940
1777 2956
1777 2988
1777 3059
1777 3072
1777 3094
1777 3207
1777 3213
1777 3227
1777 3244
1777 3264
1777 3284
1777 3322
1777 3356
1777 3482
1777 3484
1777 3504
1777 3513
1777 3557
1777 3572
1777 3578
1777 3585
1777 3642
1777 3650
1777 3659
1777 3683
1778 1799
1778 1853
1778 2075
1778 2128
1778 2161
1778 2282
1778 2403
1778 2680
1778 2710
1778 2817
1778 3034
1778 3110
1778 3120
1778 3172
1778 3227
1778 3364
1778 3564
1778 3664
1778 3688
1778 3714
1779 3668
1780 1828
1780 1908
1780 1997
1780 2009
1780 2013
1780 2045
1780 2069
1780 2237
1780 2310
1780 2503
1780 2520
1780 2522
1780 2567
1780 2648
1780 2684
1780 2688
1780 2693
1780 2771
1780 2791
1780 2809
1780 2818
1780 2877
1780 2878
1780 2879
1780 2880
1780 2885
1780 2944
1780 2988
1780 3037
1780 3070
1780 3087
1780 3110
1780 3111
1780 3112
1780 3153
1780 3166
1780 3305
1780 3337
1780 3345
1780 3382
1780 3514
1780 3534
1780 3598
1780 3692
1781 3240
1782 2212
1782 2372
1782 2408
1782 2749
1783 1870
1783 1941
1783 1954
1783 2057
1783 2066
1783 2122
1783 2142
1783 2177
1783 2202
1783 2208
1783 2308
1783 2373
1783 2418
1783 2540
1783 2597
1783 2652
1783 2733
1783 2780
1783 2828
1783 2839
1783 2865
1783 2964
1783 3061
1783 3160
1783 3376
1783 3484
1783 3492
1783 3526
1783 3559
1783 3606
1783 3695
1783 3729
1784 2004
1784 2163
1784 2254
1784 2353
1784 2804
1784 2866
1784 3203
1784 3292
1785 1825
1785 1961
1785 1971
1785 2010
1785 2125
1785 2158
1785 2209
1785 2462
1785 2507
1785 2595
1785 2615
1785 2655
1785 2672
1785 2676
1785 2730
1785 2767
1785 2774
1785 2808
1785 2830
1785 2836
1785 2911
1785 3096
1785 3106
1785 3183
1785 3300
1785 3370
1785 3458
1785 3540
1785 3544
1785 3561
1785 3688
1785 3689
1785 3731
1786 1887
1786 2855
1786 2874
1786 2958
1786 2988
1786 3017
1787 1825
1787 2089
1787 2122
1787 2174
1787 2235
1787 2319
1787 2733
1787 2808
1787 2877
1787 2971
1787 3091
1788 1825
1788 1833
1788 1848
1788 1961
1788 1971
1788 1978
1788 2068
1788 2104
1788 2125
1788 2158
1788 2168
1788 2378
1788 2412
1788 2445
1788 2478
1788 2507
1788 2512
1788 2517
1788 2582
1788 2615
1788 2703
1788 2730
1788 2767
1788 2774
1788 2787
1788 2791
1788 2804
1788 2911
1788 3096
1788 3098
1788 3106
1788 3125
1788 3145
1788 3161
1788 3183
1788 3301
1788 3349
1788 3370
1788 3386
1788 3458
1788 3466
1788 3510
1788 3540
1788 3575
1788 3599
1788 3639
1788 3688
1788 3689
1788 3731
1789 2337
1789 2609
1789 2830
1789 2994
1789 3057
1789 3066
1790 2020
1790 2285
1790 2326
1790 2590
1790 3048
1790 3096
1791 2283
1791 2357
1791 3272
1791 3366
1791 3689
1792 1922
1792 2140
1792 2176
1792 2381
1792 2445
1792 2650
1792 2919
1792 3575
1793 1885
1793 1948
1793 2008
1793 2174
1793 2177
1793 2222
1793 2350
1793 2513
1793 2514
1793 2547
1793 2593
1793 2877
1793 2933
1793 3083
1793 3091
1793 3110
1793 3122
1793 3124
1793 3443
1793 3563
1793 3641
1794 2260
1794 2637
1795 1816
1795 2252
1795 2271
1795 2456
1795 2549
1795 2558
1795 2646
1795 2674
1795 2723
1795 2725
1795 2835
1795 2926
1795 2934
1795 2935
1795 3283
1795 3346
1795 3364
1795 3419
1795 3603
1796 2399
1796 2651
1796 2809
1796 2853
1796 3032
1796 3546
1797 1893
1797 1957
1797 2071
1797 2090
1797 2166
1797 2242
1797 2246
1797 2333
1797 2337
1797 2344
1797 2445
1797 2462
1797 2485
1797 2534
1797 2578
1797 2615
1797 2625
1797 2630
1797 2655
1797 2682
1797 2703
1797 2713
1797 2720
1797 2743
1797 2763
1797 2808
1797 2819
1797 2946
1797 3021
1797 3132
1797 3303
1797 3426
1797 3528
1797 3538
1797 3575
1797 3588
1797 3599
1797 3600
1797 3608
1797 3639
1797 3703
1798 2655
1798 2703
1798 3427
1798 3695
1799 1950
1799 2008
1799 2041
1799 2052
1799 2060
1799 2111
1799 2116
1799 2138
1799 2142
1799 2213
1799 2235
1799 2319
1799 2404
1799 2412
1799 2438
1799 2508
1799 2526
1799 2562
1799 2564
1799 2569
1799 2688
1799 2699
1799 2755
1799 2792
1799 2827
1799 3010
1799 3015
1799 3070
1799 3075
1799 3138
1799 3178
1799 3214
1799 3257
1799 3260
1799 3337
1799 3339
1799 3466
1799 3531
1799 3572
1799 3578
1799 3616
1799 3642
1799 3659
1799 3687
1799 3695
1799 3726
1799 3743
1800 1983
1800 2731
1800 2986
1801 1972
1801 1985
1801 2046
1801 2113
1801 2319
1801 2570
1801 2636
1801 2655
1801 2682
1801 2687
1801 2728
1801 2891
1801 2962
1801 3002
1801 3021
1801 3193
1801 3231
1801 3297
1801 3304
1801 3385
1801 3439
1801 3514
1801 3575
1801 3626
1802 2086
1802 3210
1803 2417
1803 2653
1803 2817
1804 3164
1805 1825
1805 2025
1805 2034
1805 2042
1805 2064
1805 2251
1805 2710
1805 2723
1805 2729
1805 2771
1805 2842
1805 2884
1805 2941
1805 2967
1805 3000
1805 3010
1805 3021
1805 3086
1805 3138
1805 3159
1805 3450
1805 3564
1805 3619
1805 3620
1805 3638
1805 3686
1805 3720
1805 3736
1805 3737
1806 2075
1806 2150
1806 2448
1806 2506
1806 2568
1806 2749
1806 2877
1806 2880
1806 3122
1807 2223
1807 2263
1807 2338
1807 2651
1807 2685
1807 3562
1807 3571
1807 3591
1808 1859
1808 1862
1808 1992
1808 2223
1808 2300
1808 2317
1808 2347
1808 2568
1808 2642
1808 2800
1808 3018
1808 3078
1808 3129
1808 3266
1808 3306
1808 3521
1808 3739
1808 3746
1809 1902
1809 2033
1809 2102
1809 2134
1809 2264
1809 2287
1809 2295
1809 2301
1809 2438
1809 2455
1809 2476
1809 2551
1809 2600
1809 2665
1809 2733
1809 2745
1809 2808
1809 2906
1809 2916
1809 3164
1809 3245
1809 3547
1809 3619
1809 3639
1809 3666
1809 3669
1809 3689
1809 3717
1810 1908
1810 2100
1810 2626
1810 3174
1810 3517
1810 3709
1811 1961
1811 2022
1811 2217
1811 2504
1811 2610
1811 2737
1811 2876
1811 3731
1812 1837
1812 1854
1812 1894
1812 2037
1812 2065
1812 2192
1812 2279
1812 2550
1812 2786
1812 2973
1812 3031
1812 3120
1812 3172
1812 3294
1812 3598
1813 1848
1813 1978
1813 2040
1813 2741
1813 3030
1813 3312
1813 3325
1813 3349
1813 3415
1813 3466
1814 1825
1814 1863
1814 1867
1814 1876
1814 1927
1814 1929
1814 1992
1814 2012
1814 2034
1814 2042
1814 2113
1814 2128
1814 2138
1814 2254
1814 2330
1814 2423
1814 2438
1814 2454
1814 2507
1814 2564
1814 2570
1814 2578
1814 2636
1814 2682
1814 2696
1814 2708
1814 2734
1814 2745
1814 2751
1814 2753
1814 2787
1814 2797
1814 2808
1814 2827
1814 2838
1814 2856
1814 2960
1814 2997
1814 3012
1814 3015
1814 3021
1814 3071
1814 3088
1814 3098
1814 3103
1814 3147
1814 3193
1814 3222
1814 3247
1814 3257
1814 3277
1814 3288
1814 3297
1814 3304
1814 3317
1814 3332
1814 3337
1814 3339
1814 3364
1814 3370
1814 3465
1814 3466
1814 3473
1814 3491
1814 3521
1814 3544
1814 3575
1814 3594
1814 3599
1814 3675
1814 3695
1814 3696
1814 3714
1815 2409
1815 3255
1816 1841
1816 1991
1816 2002
1816 2024
1816 2077
1816 2092
1816 2156
1816 2209
1816 2288
1816 2356
1816 2362
1816 2371
1816 2399
1816 2443
1816 2446
1816 2574
1816 2584
1816 2642
1816 2773
1816 2781
1816 2809
1816 2819
1816 2822
1816 2823
1816 2888
1816 2890
1816 2911
1816 2956
1816 2970
1816 3093
1816 3105
1816 3150
1816 3241
1816 3278
1816 3290
1816 3310
1816 3359
1816 3548
1816 3688
1816 3746
1817 1836
1817 1853
1817 2165
1817 2723
1817 2771
1817 2772
1817 2883
1817 2884
1817 2917
1817 2967
1817 3013
1817 3084
1817 3638
1817 3687
1818 2553
1818 2571
1818 2745
1818 2791
1818 2808
1818 2972
1818 3015
1818 3068
1818 3242
1818 3331
1818 3466
1818 3520
1818 3575
1818 3639
1819 1827
1819 1995
1819 3504
1819 3642
1820 1891
1820 1974
1820 2019
1820 2028
1820 2037
1820 2081
1820 2203
1820 2263
1820 2279
1820 2338
1820 2354
1820 2396
1820 2405
1820 2431
1820 2437
1820 2440
1820 2541
1820 2634
1820 2685
1820 2759
1820 2789
1820 2834
1820 3088
1820 3250
1820 3275
1820 3298
1820 3331
1820 3421
1820 3464
1820 3546
1820 3569
1820 3697
1821 1985
1821 2174
1821 2319
1821 2352
1821 2363
1821 2528
1821 2618
1821 2648
1821 2775
1821 2791
1821 2877
1821 3261
1821 3339
1821 3386
1821 3466
1821 3479
1821 3518
1821 3528
1821 3689
1822 1863
1822 1872
1822 1890
1822 1916
1822 1971
1822 1972
1822 1987
1822 1992
1822 1994
1822 2004
1822 2033
1822 2038
1822 2046
1822 2066
1822 2069
1822 2095
1822 2134
1822 2142
1822 2229
1822 2264
1822 2291
1822 2427
1822 2429
1822 2430
1822 2460
1822 2463
1822 2492
1822 2507
1822 2559
1822 2564
1822 2571
1822 2614
1822 2620
1822 2632
1822 2636
1822 2640
1822 2664
1822 2705
1822 2734
1822 2751
1822 2766
1822 2783
1822 2787
1822 2791
1822 2808
1822 2828
1822 2856
1822 2878
1822 2882
1822 2933
1822 2960
1822 2962
1822 2974
1822 2989
1822 3015
1822 3021
1822 3029
1822 3046
1822 3047
1822 3070
1822 3075
1822 3131
1822 3137
1822 3139
1822 3147
1822 3153
1822 3160
1822 3199
1822 3226
1822 3245
1822 3272
1822 3288
1822 3296
1822 3339
1822 3364
1822 3366
1822 3396
1822 3405
1822 3466
1822 3482
1822 3520
1822 3534
1822 3562
1822 3573
1822 3585
1822 3596
1822 3598
1822 3675
1822 3680
1822 3684
1822 3687
1822 3689
1822 3714
1822 3736
1822 3737
1823 2391
1823 2449
1823 2559
1823 2562
1823 2581
1823 2648
1823 2843
1823 2896
1823 3066
1823 3514
1823 3654
1823 3655
1823 3659
1823 3718
1824 2706
1825 1832
1825 1841
1825 1865
1825 1867
1825 1925
1825 1961
1825 1962
1825 1981
1825 1996
1825 1998
1825 2012
1825 2034
1825 2042
1825 2059
1825 2064
1825 2081
1825 2105
1825 2112
1825 2125
1825 2158
1825 2170
1825 2209
1825 2210
1825 2251
1825 2289
1825 2330
1825 2341
1825 2360
1825 2392
1825 2416
1825 2429
1825 2474
1825 2478
1825 2507
1825 2521
1825 2578
1825 2582
1825 2595
1825 2615
1825 2617
1825 2636
1825 2640
1825 2643
1825 2687
1825 2705
1825 2707
1825 2723
1825 2730
1825 2734
1825 2751
1825 2755
1825 2767
1825 2774
1825 2781
1825 2787
1825 2808
1825 2821
1825 2827
1825 2933
1825 3009
1825 3012
1825 3021
1825 3041
1825 3059
1825 3071
1825 3086
1825 3096
1825 3103
1825 3106
1825 3137
1825 3138
1825 3178
1825 3183
1825 3184
1825 3194
1825 3207
1825 3283
1825 3297
1825 3317
1825 3359
1825 3370
1825 3430
1825 3450
1825 3458
1825 3487
1825 3491
1825 3510
1825 3540
1825 3563
1825 3575
1825 3615
1825 3618
1825 3621
1825 3638
1825 3672
1825 3688
1825 3689
1825 3695
1825 3696
1825 3731
1826 2680
1826 2869
1826 3003
1826 3293
1827 1995
1827 2424
1827 2479
1827 2517
1827 2528
1827 2594
1827 2626
1827 2699
1827 2792
1827 2940
1827 3072
1827 3189
1827 3244
1827 3264
1827 3356
1827 3482
1827 3484
1827 3504
1827 3650
1828 1837
1828 1866
1828 1908
1828 2009
1828 2013
1828 2069
1828 2520
1828 2522
1828 2567
1828 2613
1828 2684
1828 3037
1828 3111
1828 3112
1828 3130
1828 3141
1828 3181
1828 3305
1828 3345
1828 3358
1828 3368
1828 3407
1828 3514
1829 1859
1829 2025
1829 2117
1829 2663
1829 2732
1829 2999
1829 3360
1830 2689
1830 2733
1830 3148
1830 3220
1830 3606
1831 2021
1831 2057
1831 2218
1831 2313
1831 2321
1831 2459
1831 2499
1831 2530
1831 2554
1831 2871
1831 3540
1832 2121
1832 2516
1832 2556
1832 2815
1832 2925
1832 2947
1832 2973
1832 3192
1832 3236
1832 3252
1832 3306
1832 3331
1832 3346
1832 3382
1832 3496
1833 1918
1833 1971
1833 2016
1833 2049
1833 2068
1833 2125
1833 2134
1833 2225
1833 2262
1833 2345
1833 2507
1833 2664
1833 2666
1833 2787
1833 2791
1833 2895
1833 3029
1833 3047
1833 3070
1833 3245
1833 3272
1833 3274
1833 3301
1833 3343
1833 3386
1833 3415
1833 3417
1833 3466
1834 2443
1834 2467
1834 2471
1834 2760
1834 2790
1834 3035
1834 3237
1834 3242
1834 3448
1835 2988
1836 2198
1836 3084
1837 1849
1837 1854
1837 1859
1837 1864
1837 1894
1837 1976
1837 1988
1837 1994
1837 2009
1837 2015
1837 2042
1837 2121
1837 2158
1837 2160
1837 2191
1837 2201
1837 2219
1837 2221
1837 2236
1837 2254
1837 2259
1837 2300
1837 2311
1837 2316
1837 2369
1837 2379
1837 2432
1837 2462
1837 2474
1837 2520
1837 2544
1837 2556
1837 2565
1837 2596
1837 2604
1837 2617
1837 2638
1837 2639
1837 2687
1837 2763
1837 2805
1837 2815
1837 2840
1837 2845
1837 2848
1837 2857
1837 2922
1837 2973
1837 2975
1837 3009
1837 3021
1837 3093
1837 3105
1837 3115
1837 3123
1837 3129
1837 3137
1837 3163
1837 3169
1837 3234
1837 3306
1837 3382
1837 3428
1837 3516
1837 3546
1837 3571
1837 3624
1837 3637
1837 3638
1837 3668
1837 3687
1837 3714
1837 3728
1838 1848
1838 1918
1838 1987
1838 2063
1838 2441
1838 2455
1838 2607
1838 2647
1838 2649
1838 2877
1838 2999
1838 3029
1838 3153
1838 3184
1838 3191
1838 3312
1838 3313
1838 3336
1838 3370
1838 3630
1838 3689
1838 3735
1839 2933
1840 2088
1840 2715
1840 3039
1840 3560
1841 1948
1841 1961
1841 2002
1841 2034
1841 2209
1841 2371
1841 2504
1841 2574
1841 2628
1841 2648
1841 2749
1841 2772
1841 2773
1841 2781
1841 2791
1841 2819
1841 2890
1841 2911
1841 2956
1841 2964
1841 2973
1841 2979
1841 3003
1841 3093
1841 3120
1841 3140
1841 3150
1841 3183
1841 3359
1841 3466
1841 3510
1841 3688
1841 3710
1843 1902
1843 1912
1843 1967
1843 2001
1843 2004
1843 2042
1843 2049
1843 2068
1843 2104
1843 2112
1843 2138
1843 2147
1843 2329
1843 2345
1843 2369
1843 2390
1843 2423
1843 2469
1843 2474
1843 2554
1843 2601
1843 2636
1843 2677
1843 2707
1843 2710
1843 2737
1843 2770
1843 2804
1843 2833
1843 2842
1843 2867
1843 2879
1843 2895
1843 3007
1843 3021
1843 3086
1843 3098
1843 3118
1843 3129
1843 3138
1843 3183
1843 3316
1843 3332
1843 3399
1843 3417
1843 3450
1843 3510
1843 3557
1843 3597
1843 3638
1843 3640
1843 3693
1844 1854
1844 1921
1844 2703
1844 2721
1844 2745
1844 2850
1844 2882
1844 2884
1844 3029
1844 3068
1844 3101
1844 3125
1844 3185
1844 3220
1844 3243
1844 3259
1844 3317
1844 3349
1844 3426
1844 3521
1844 3682
1844 3721
1845 1853
1845 1859
1845 1866
1845 2151
1845 2314
1845 2323
1845 2408
1845 2556
1845 2559
1845 2583
1845 2596
1845 2604
1845 2668
1845 2760
1845 2787
1845 2790
1845 2805
1845 2840
1845 2848
1845 2884
1845 3000
1845 3038
1845 3044
1845 3093
1845 3105
1845 3112
1845 3124
1845 3145
1845 3150
1845 3194
1845 3209
1845 3224
1845 3242
1845 3316
1845 3404
1845 3418
1845 3426
1845 3437
1845 3575
1845 3630
1845 3682
1845 3687
1845 3696
1845 3704
1846 2283
1846 2369
1846 2390
1846 3000
1846 3021
1846 3103
1846 3138
1846 3193
1846 3224
1846 3342
1846 3608
1847 1866
1847 1908
1847 2522
1847 2809
1847 2861
1847 2978
1847 3000
1847 3110
1848 1870
1848 1879
1848 1899
1848 1902
1848 1954
1848 1972
1848 2016
1848 2040
1848 2086
1848 2087
1848 2186
1848 2218
1848 2229
1848 2240
1848 2254
1848 2256
1848 2287
1848 2321
1848 2401
1848 2421
1848 2455
1848 2492
1848 2507
1848 2512
1848 2551
1848 2562
1848 2564
1848 2582
1848 2584
1848 2588
1848 2602
1848 2635
1848 2664
1848 2703
1848 2730
1848 2741
1848 2745
1848 2766
1848 2791
1848 2804
1848 2808
1848 2848
1848 2871
1848 2891
1848 2903
1848 2940
1848 2944
1848 3024
1848 3043
1848 3047
1848 3096
1848 3098
1848 3101
1848 3125
1848 3142
1848 3171
1848 3211
1848 3226
1848 3227
1848 3259
1848 3301
1848 3325
1848 3343
1848 3349
1848 3415
1848 3426
1848 3433
1848 3466
1848 3510
1848 3518
1848 3521
1848 3547
1848 3599
1848 3605
1848 3639
1848 3717
1848 3721
1848 3745
1849 1961
1849 2121
1849 2126
1849 2158
1849 2284
1849 2515
1849 2544
1849 2549
1849 2556
1849 2730
1849 2774
1849 2815
1849 3071
1849 3080
1849 3081
1849 3106
1849 3306
1849 3382
1849 3479
1849 3529
1849 3688
1849 3731
1850 2605
1850 2653
1850 2680
1850 3389
1851 2061
1851 2174
1851 2415
1851 2447
1851 2581
1851 2719
1851 2957
1851 3295
1851 3298
1851 3331
1851 3357
1851 3546
1851 3566
1852 2035
1852 2496
1852 2503
1852 2547
1852 2606
1852 2858
1852 2874
1852 3066
1852 3506
1852 3518
1852 3560
1852 3715
1852 3718
1853 1871
1853 2035
1853 2090
1853 2190
1853 2270
1853 2323
1853 2359
1853 2408
1853 2424
1853 2496
1853 2503
1853 2534
1853 2679
1853 2688
1853 2699
1853 2852
1853 2858
1853 2877
1853 2988
1853 3107
1853 3108
1853 3115
1853 3117
1853 3187
1853 3212
1853 3240
1853 3263
1853 3320
1853 3384
1853 3389
1853 3390
1853 3397
1853 3400
1853 3442
1853 3449
1853 3518
1853 3543
1853 3605
1853 3659
1853 3704
1853 3718
1853 3741
1854 1859
1854 1863
1854 1876
1854 1959
1854 1972
1854 1992
1854 1996
1854 2046
1854 2056
1854 2209
1854 2210
1854 2217
1854 2240
1854 2282
1854 2337
1854 2430
1854 2440
1854 2445
1854 2544
1854 2553
1854 2564
1854 2596
1854 2622
1854 2703
1854 2721
1854 2751
1854 2825
1854 2850
1854 2907
1854 3021
1854 3071
1854 3101
1854 3125
1854 3145
1854 3197
1854 3220
1854 3243
1854 3257
1854 3426
1854 3437
1854 3476
1854 3521
1854 3544
1854 3575
1854 3603
1854 3628
1854 3675
1854 3676
1854 3682
1854 3702
1854 3721
1855 1914
1855 1954
1855 2010
1855 2094
1855 2146
1855 2176
1855 2299
1855 2400
1855 2423
1855 2613
1855 2676
1855 2962
1855 3211
1855 3230
1855 3261
1855 3374
1855 3466
1855 3489
1855 3605
1855 3640
1855 3716
1856 1928
1856 1969
1856 2083
1856 2269
1856 2386
1856 2464
1856 2604
1856 2660
1856 2677
1856 2732
1856 2737
1856 2992
1856 3007
1856 3176
1856 3349
1856 3421
1856 3441
1856 3481
1856 3677
1857 2183
1857 2811
1857 2922
1857 2933
1857 3585
1857 3618
1858 2990
1858 3124
1858 3146
1858 3347
1858 3531
1859 1862
1859 1879
1859 1964
1859 1970
1859 1988
1859 1992
1859 1996
1859 2015
1859 2061
1859 2136
1859 2186
1859 2201
1859 2210
1859 2249
1859 2300
1859 2314
1859 2346
1859 2347
1859 2374
1859 2419
1859 2437
1859 2474
1859 2511
1859 2515
1859 2544
1859 2556
1859 2564
1859 2568
1859 2583
1859 2604
1859 2642
1859 2663
1859 2687
1859 2700
1859 2760
1859 2840
1859 2911
1859 2915
1859 2920
1859 2973
1859 2989
1859 3016
1859 3018
1859 3030
1859 3046
1859 3054
1859 3076
1859 3078
1859 3093
1859 3119
1859 3121
1859 3137
1859 3224
1859 3266
1859 3283
1859 3288
1859 3316
1859 3318
1859 3331
1859 3365
1859 3371
1859 3437
1859 3521
1859 3575
1859 3628
1859 3630
1859 3652
1859 3656
1859 3687
1859 3696
1859 3739
1859 3745
1860 2116
1860 2638
1860 3010
1860 3522
1861 2116
1861 2882
1861 3231
1861 3334
1861 3536
1862 1984
1862 1996
1862 2040
1862 2081
1862 2186
1862 2250
1862 2300
1862 2347
1862 2741
1862 2880
1862 2915
1862 2956
1862 2981
1862 3018
1862 3021
1862 3055
1862 3078
1862 3096
1862 3120
1862 3266
1862 3306
1862 3379
1862 3416
1862 3426
1862 3683
1862 3687
1863 1876
1863 1946
1863 1959
1863 1972
1863 1973
1863 1979
1863 1992
1863 1997
1863 2003
1863 2004
1863 2012
1863 2034
1863 2055
1863 2064
1863 2115
1863 2128
1863 2129
1863 2144
1863 2158
1863 2183
1863 2221
1863 2229
1863 2240
1863 2250
1863 2252
1863 2254
1863 2271
1863 2323
1863 2337
1863 2343
1863 2359
1863 2374
1863 2390
1863 2445
1863 2474
1863 2521
1863 2555
1863 2564
1863 2578
1863 2588
1863 2617
1863 2703
1863 2705
1863 2708
1863 2710
1863 2721
1863 2741
1863 2745
1863 2751
1863 2752
1863 2766
1863 2797
1863 2808
1863 2811
1863 2848
1863 2850
1863 2858
1863 2884
1863 2889
1863 2907
1863 2912
1863 2925
1863 2963
1863 2973
1863 2977
1863 2994
1863 3000
1863 3021
1863 3068
1863 3071
1863 3075
1863 3098
1863 3101
1863 3125
1863 3145
1863 3193
1863 3207
1863 3209
1863 3212
1863 3224
1863 3226
1863 3242
1863 3243
1863 3297
1863 3304
1863 3337
1863 3339
1863 3342
1863 3349
1863 3364
1863 3410
1863 3412
1863 3426
1863 3437
1863 3449
1863 3521
1863 3534
1863 3544
1863 3617
1863 3623
1863 3639
1863 3674
1863 3675
1863 3682
1863 3721
1864 1967
1864 2009
1864 2042
1864 2076
1864 2289
1864 2469
1864 2474
1864 2510
1864 2538
1864 2565
1864 2615
1864 2617
1864 2710
1864 2842
1864 2845
1864 2973
1864 3000
1864 3021
1864 3119
1864 3178
1864 3224
1864 3316
1864 3349
1864 3382
1864 3469
1864 3546
1864 3554
1864 3624
1864 3689
1865 1935
1865 2025
1865 2136
1865 2217
1865 2238
1865 2374
1865 2415
1865 2440
1865 2489
1865 2703
1865 3081
1865 3485
1866 1908
1866 1923
1866 2009
1866 2013
1866 2045
1866 2081
1866 2520
1866 2522
1866 2561
1866 2567
1866 2684
1866 2787
1866 2967
1866 3000
1866 3037
1866 3147
1866 3251
1866 3305
1866 3345
1866 3358
1866 3407
1866 3670
1867 1914
1867 1971
1867 2016
1867 2104
1867 2115
1867 2128
1867 2299
1867 2319
1867 2330
1867 2337
1867 2401
1867 2404
1867 2483
1867 2554
1867 2582
1867 2596
1867 2622
1867 2677
1867 2679
1867 2708
1867 2721
1867 2751
1867 2811
1867 2846
1867 2867
1867 2871
1867 2899
1867 2942
1867 3071
1867 3076
1867 3098
1867 3115
1867 3118
1867 3179
1867 3181
1867 3193
1867 3364
1867 3464
1867 3510
1867 3518
1867 3618
1867 3619
1867 3630
1867 3675
1867 3687
1867 3689
1868 1954
1868 2962
1868 3211
1868 3716
1869 1957
1869 2036
1869 2129
1869 2137
1869 2297
1869 2452
1869 2471
1869 2706
1869 2863
1869 2884
1869 2917
1869 2966
1869 3359
1869 3360
1869 3380
1869 3603
1870 1929
1870 1941
1870 2002
1870 2024
1870 2086
1870 2102
1870 2122
1870 2129
1870 2132
1870 2138
1870 2172
1870 2202
1870 2210
1870 2320
1870 2378
1870 2438
1870 2454
1870 2478
1870 2485
1870 2497
1870 2507
1870 2512
1870 2564
1870 2590
1870 2655
1870 2766
1870 2808
1870 2865
1870 2906
1870 2933
1870 2940
1870 2944
1870 2960
1870 2964
1870 2980
1870 3061
1870 3071
1870 3075
1870 3098
1870 3101
1870 3106
1870 3121
1870 3136
1870 3139
1870 3171
1870 3204
1870 3234
1870 3257
1870 3277
1870 3349
1870 3359
1870 3410
1870 3440
1870 3462
1870 3497
1870 3648
1870 3654
1870 3655
1870 3661
1870 3669
1870 3675
1870 3695
1870 3704
1871 2503
1871 2646
1871 2763
1871 3000
1871 3117
1871 3207
1871 3224
1871 3263
1871 3389
1871 3397
1871 3418
1872 1959
1872 1986
1872 2098
1872 2356
1872 2427
1872 2457
1872 2783
1872 2869
1872 2909
1872 3128
1872 3131
1872 3596
1872 3689
1873 1879
1873 1908
1873 1996
1873 2095
1873 2212
1873 2419
1873 2543
1873 2604
1873 2857
1873 2878
1873 3028
1873 3044
1873 3137
1873 3278
1873 3423
1873 3456
1873 3488
1873 3598
1873 3636
1874 2446
1874 2565
1874 2807
1874 2930
1875 1897
1875 1908
1875 1968
1875 1975
1875 1996
1875 2035
1875 2140
1875 2187
1875 2216
1875 2282
1875 2323
1875 2461
1875 2552
1875 2700
1875 2810
1875 2984
1875 2988
1875 3095
1875 3196
1875 3242
1875 3288
1875 3342
1875 3383
1875 3437
1875 3445
1875 3547
1875 3673
1875 3691
1875 3742
1876 1972
1876 1979
1876 1992
1876 2003
1876 2004
1876 2012
1876 2144
1876 2229
1876 2240
1876 2254
1876 2323
1876 2395
1876 2445
1876 2564
1876 2578
1876 2588
1876 2703
1876 2705
1876 2721
1876 2730
1876 2741
1876 2745
1876 2751
1876 2766
1876 2848
1876 2850
1876 2866
1876 2889
1876 2963
1876 3000
1876 3071
1876 3101
1876 3125
1876 3145
1876 3209
1876 3224
1876 3243
1876 3288
1876 3297
1876 3304
1876 3410
1876 3426
1876 3521
1876 3534
1876 3544
1876 3575
1876 3623
1876 3639
1876 3674
1876 3676
1876 3682
1876 3721
1877 2046
1877 2243
1877 2387
1877 2455
1877 2599
1877 2755
1877 3096
1877 3227
1877 3524
1877 3626
1877 3692
1878 2352
1878 3128
1879 1967
1879 1996
1879 2034
1879 2042
1879 2052
1879 2157
1879 2160
1879 2209
1879 2212
1879 2229
1879 2369
1879 2372
1879 2395
1879 2404
1879 2416
1879 2424
1879 2442
1879 2469
1879 2474
1879 2489
1879 2521
1879 2544
1879 2605
1879 2668
1879 2687
1879 2699
1879 2741
1879 2786
1879 2845
1879 2846
1879 2848
1879 2956
1879 2998
1879 3004
1879 3009
1879 3016
1879 3021
1879 3030
1879 3086
1879 3093
1879 3094
1879 3129
1879 3137
1879 3209
1879 3297
1879 3317
1879 3325
1879 3337
1879 3405
1879 3413
1879 3450
1879 3511
1879 3513
1879 3546
1879 3578
1879 3642
1879 3664
1879 3668
1879 3687
1879 3688
1879 3691
1879 3745
1880 1966
1880 2034
1880 2141
1880 2367
1880 2370
1880 2424
1880 2547
1880 2575
1880 2605
1880 2612
1880 2670
1880 2749
1880 2792
1880 2845
1880 2888
1880 2940
1880 2956
1880 2988
1880 2998
1880 3009
1880 3059
1880 3109
1880 3211
1880 3264
1880 3329
1880 3356
1880 3389
1880 3424
1880 3482
1880 3504
1880 3510
1880 3528
1880 3641
1880 3649
1880 3650
1880 3722
1881 2045
1881 2195
1881 2567
1881 3088
1881 3345
1881 3365
1881 3391
1881 3662
1882 2080
1882 2105
1882 2251
1882 2311
1882 2527
1882 2763
1882 2771
1882 2866
1882 2908
1882 2973
1882 3115
1882 3234
1883 2586
1883 3108
1883 3184
1883 3227
1883 3659
1884 1908
1884 2013
1884 2174
1884 2406
1884 2479
1884 2522
1884 2528
1884 2695
1884 3089
1884 3181
1884 3358
1884 3431
1884 3442
1884 3543
1885 1926
1885 2031
1885 2046
1885 2230
1885 2370
1885 2449
1885 2547
1885 2566
1885 2583
1885 2713
1885 2877
1885 2943
1885 3013
1885 3043
1885 3153
1885 3166
1885 3211
1885 3230
1885 3259
1885 3308
1885 3649
1885 3665
1885 3724
1885 3738
1886 2049
1886 2119
1886 2867
1886 2912
1886 3021
1886 3167
1886 3344
1886 3350
1886 3449
1886 3661
1887 2386
1887 2677
1887 2732
1887 2811
1887 2813
1887 2838
1887 2871
1887 2891
1887 2899
1887 2958
1887 3000
1887 3007
1887 3017
1887 3179
1887 3481
1887 3510
1888 1893
1888 1895
1888 2346
1888 2567
1888 3000
1889 2059
1889 2554
1889 2755
1889 2923
1889 3431
1889 3645
1890 1893
1890 1916
1890 2009
1890 2071
1890 2121
1890 2238
1890 2284
1890 2374
1890 2504
1890 2516
1890 2921
1890 2998
1890 3004
1890 3016
1890 3273
1890 3296
1890 3435
1890 3548
1890 3680
1890 3684
1891 2108
1891 2673
1891 2825
1891 3047
1891 3052
1891 3296
1891 3316
1891 3653
1892 1906
1892 1940
1892 2204
1892 2323
1892 2447
1892 2482
1892 2552
1892 2661
1892 2817
1892 2881
1892 3151
1892 3192
1892 3392
1892 3514
1892 3548
1892 3659
1893 1905
1893 1996
1893 2015
1893 2071
1893 2077
1893 2084
1893 2208
1893 2238
1893 2300
1893 2364
1893 2389
1893 2461
1893 2531
1893 2573
1893 2574
1893 2627
1893 2720
1893 2734
1893 2744
1893 2781
1893 2790
1893 2795
1893 2810
1893 2812
1893 2890
1893 2921
1893 2946
1893 2948
1893 2956
1893 2962
1893 2977
1893 3064
1893 3117
1893 3139
1893 3141
1893 3150
1893 3187
1893 3265
1893 3364
1893 3430
1893 3437
1893 3496
1893 3523
1893 3535
1893 3537
1893 3628
1893 3664
1893 3686
1893 3695
1893 3742
1894 1958
1894 1972
1894 1976
1894 2114
1894 2217
1894 2319
1894 2396
1894 2445
1894 2453
1894 2790
1894 3176
1894 3231
1894 3234
1894 3237
1894 3246
1894 3270
1894 3332
1894 3609
1895 1968
1895 2136
1895 2282
1895 2346
1895 2417
1895 2654
1895 2925
1895 3038
1895 3345
1895 3368
1895 3372
1895 3429
1895 3437
1895 3691
1896 2047
1896 2397
1896 3227
1896 3386
1896 3695
1897 1908
1897 1957
1897 1996
1897 2187
1897 2228
1897 2282
1897 2407
1897 2542
1897 2591
1897 2700
1897 2725
1897 2805
1897 2819
1897 2844
1897 2878
1897 2982
1897 2988
1897 3037
1897 3064
1897 3093
1897 3095
1897 3181
1897 3464
1897 3496
1897 3536
1897 3569
1897 3573
1897 3598
1897 3605
1897 3641
1898 1993
1898 2040
1898 2132
1898 2265
1898 2337
1898 2378
1898 2397
1898 2404
1898 2497
1898 2512
1898 2575
1898 2664
1898 2696
1898 2698
1898 2744
1898 2804
1898 2827
1898 2923
1898 3029
1898 3030
1898 3055
1898 3108
1898 3131
1898 3147
1898 3196
1898 3227
1898 3279
1898 3306
1898 3325
1898 3386
1898 3433
1898 3562
1898 3630
1898 3687
1898 3689
1898 3737
1899 2504
1899 3226
1899 3472
1899 3568
1899 3575
1900 1919
1900 2224
1900 2440
1900 3459
1901 1948
1901 2133
1901 2250
1901 2454
1901 2480
1901 2498
1901 2515
1901 2877
1901 2899
1901 2948
1901 3047
1901 3087
1901 3119
1901 3138
1901 3183
1901 3339
1901 3382
1901 3406
1901 3452
1902 1903
1902 1918
1902 1944
1902 1969
1902 1972
1902 2049
1902 2210
1902 2219
1902 2236
1902 2262
1902 2268
1902 2276
1902 2363
1902 2412
1902 2414
1902 2474
1902 2564
1902 2578
1902 2588
1902 2601
1902 2620
1902 2683
1902 2705
1902 2745
1902 2755
1902 2766
1902 2791
1902 2804
1902 2808
1902 2838
1902 2848
1902 2850
1902 2879
1902 2944
1902 3002
1902 3010
1902 3083
1902 3191
1902 3220
1902 3243
1902 3253
1902 3259
1902 3274
1902 3312
1902 3349
1902 3373
1902 3477
1902 3510
1902 3521
1902 3544
1902 3549
1902 3558
1902 3599
1902 3629
1902 3639
1902 3666
1902 3675
1902 3689
1902 3717
1903 2475
1903 2479
1903 3010
1903 3184
1903 3196
1903 3433
1903 3519
1903 3525
1904 3357
1905 1970
1905 1994
1905 2077
1905 2129
1905 2379
1905 2400
1905 2443
1905 2661
1905 2668
1905 2683
1905 2687
1905 2795
1905 2869
1905 2893
1905 3223
1905 3254
1905 3310
1905 3360
1905 3506
1905 3537
1905 3568
1905 3569
1905 3739
1905 3742
1906 1940
1906 2174
1906 2293
1906 2323
1906 2447
1906 2482
1906 2624
1906 2881
1906 3151
1907 1936
1907 2576
1907 2691
1907 3061
1907 3668
1908 1923
1908 1932
1908 1991
1908 1996
1908 2009
1908 2013
1908 2045
1908 2055
1908 2069
1908 2166
1908 2187
1908 2209
1908 2211
1908 2212
1908 2238
1908 2274
1908 2282
1908 2298
1908 2310
1908 2364
1908 2372
1908 2403
1908 2413
1908 2520
1908 2522
1908 2528
1908 2542
1908 2567
1908 2613
1908 2626
1908 2665
1908 2675
1908 2684
1908 2693
1908 2695
1908 2699
1908 2749
1908 2795
1908 2845
1908 2857
1908 2861
1908 2864
1908 2878
1908 2880
1908 2888
1908 2890
1908 2939
1908 2951
1908 2956
1908 3037
1908 3050
1908 3094
1908 3110
1908 3111
1908 3112
1908 3130
1908 3141
1908 3170
1908 3181
1908 3264
1908 3266
1908 3268
1908 3305
1908 3345
1908 3358
1908 3407
1908 3416
1908 3423
1908 3445
1908 3463
1908 3476
1908 3482
1908 3504
1908 3507
1908 3514
1908 3535
1908 3564
1908 3565
1908 3598
1908 3618
1908 3641
1908 3642
1908 3664
1908 3668
1908 3670
1908 3683
1908 3722
1908 3732
1910 2078
1910 2436
1910 2823
1911 2012
1911 2705
1911 3194
1911 3359
1911 3370
1911 3575
1911 3721
1911 3726
1912 1956
1912 2004
1912 2042
1912 2094
1912 2112
1912 2168
1912 2176
1912 2290
1912 2329
1912 2363
1912 2369
1912 2390
1912 2412
1912 2469
1912 2510
1912 2554
1912 2601
1912 2636
1912 2686
1912 2690
1912 2727
1912 2755
1912 2770
1912 2821
1912 2842
1912 2895
1912 2942
1912 3021
1912 3086
1912 3118
1912 3129
1912 3138
1912 3152
1912 3178
1912 3183
1912 3258
1912 3274
1912 3339
1912 3370
1912 3399
1912 3430
1912 3450
1912 3465
1912 3638
1912 3640
1913 2109
1913 2152
1913 2159
1913 2174
1913 2337
1913 2356
1913 2392
1913 2503
1913 2581
1913 2597
1913 2609
1913 2648
1913 2693
1913 2910
1913 2972
1913 3066
1913 3087
1913 3101
1913 3120
1913 3128
1913 3376
1913 3389
1913 3431
1913 3613
1913 3632
1913 3702
1913 3704
1914 2034
1914 2156
1914 2234
1914 2299
1914 2360
1914 2394
1914 2413
1914 2555
1914 2613
1914 2732
1914 2787
1914 2809
1914 2912
1914 3098
1914 3102
1914 3144
1914 3181
1914 3226
1914 3431
1914 3449
1914 3489
1914 3518
1914 3594
1914 3605
1914 3674
1915 3188
1916 1943
1916 1994
1916 2205
1916 2206
1916 2210
1916 2250
1916 2303
1916 2316
1916 2418
1916 2452
1916 2548
1916 2667
1916 2944
1916 2989
1916 3046
1916 3054
1916 3075
1916 3093
1916 3121
1916 3296
1916 3521
1916 3575
1916 3584
1916 3613
1916 3684
1917 2139
1917 2313
1917 2333
1917 2462
1917 2485
1917 2905
1917 3499
1917 3600
1918 1972
1918 2188
1918 2218
1918 2262
1918 2295
1918 2349
1918 2358
1918 2400
1918 2410
1918 2412
1918 2455
1918 2478
1918 2481
1918 2507
1918 2649
1918 2791
1918 2794
1918 2804
1918 2808
1918 3096
1918 3153
1918 3227
1918 3301
1918 3312
1918 3336
1918 3370
1918 3386
1918 3415
1918 3540
1918 3639
1918 3648
1918 3717
1919 2123
1919 2354
1919 2406
1919 2474
1919 2696
1919 2735
1919 3024
1919 3349
1919 3408
1919 3547
1919 3578
1919 3592
1919 3649
1920 1981
1920 2004
1920 2119
1920 2430
1920 2717
1920 2763
1920 2948
1920 3425
1921 1972
1921 2016
1921 2240
1921 2265
1921 2337
1921 2507
1921 2578
1921 2721
1921 2766
1921 2850
1921 2944
1921 3047
1921 3071
1921 3075
1921 3101
1921 3125
1921 3220
1921 3259
1921 3426
1921 3435
1921 3521
1921 3675
1921 3676
1921 3682
1921 3721
1922 2139
1922 2237
1922 2280
1922 2408
1922 2473
1922 2532
1922 2984
1922 3167
1922 3193
1922 3277
1922 3300
1922 3482
1922 3490
1922 3704
1923 2009
1923 2013
1923 2045
1923 2055
1923 2456
1923 2520
1923 2567
1923 2693
1923 2924
1923 3037
1923 3050
1923 3111
1923 3305
1923 3345
1923 3407
1923 3670
1923 3732
1924 1937
1924 1971
1924 1976
1924 1993
1924 2217
1924 2243
1924 2363
1924 2378
1924 2459
1924 2469
1924 2478
1924 2512
1924 2554
1924 2633
1924 2940
1924 2960
1924 2980
1924 3098
1924 3261
1924 3482
1924 3599
1924 3693
1925 2009
1925 2015
1925 2075
1925 2165
1925 2189
1925 2284
1925 2300
1925 2311
1925 2372
1925 2394
1925 2416
1925 2687
1925 2707
1925 2744
1925 2749
1925 2805
1925 2812
1925 2821
1925 2830
1925 2838
1925 2869
1925 2908
1925 2922
1925 3030
1925 3055
1925 3066
1925 3074
1925 3108
1925 3123
1925 3129
1925 3209
1925 3234
1925 3296
1925 3320
1925 3325
1925 3368
1925 3371
1925 3380
1925 3405
1925 3424
1925 3442
1925 3513
1925 3601
1925 3682
1925 3687
1925 3714
1925 3719
1926 1985
1926 2230
1926 2237
1926 2370
1926 2547
1926 2643
1926 2877
1926 2971
1926 3194
1926 3259
1926 3442
1926 3490
1926 3543
1926 3615
1926 3649
1928 1935
1928 1958
1928 2025
1928 2269
1928 2386
1928 2445
1928 2474
1928 2554
1928 2677
1928 3007
1928 3021
1928 3083
1928 3098
1928 3332
1928 3441
1928 3574
1928 3575
1928 3599
1928 3677
1929 1972
1929 2012
1929 2138
1929 2218
1929 2219
1929 2229
1929 2291
1929 2414
1929 2430
1929 2533
1929 2571
1929 2703
1929 2745
1929 2791
1929 2879
1929 2944
1929 2995
1929 3015
1929 3030
1929 3068
1929 3070
1929 3136
1929 3242
1929 3259
1929 3272
1929 3349
1929 3373
1929 3617
1929 3674
1929 3734
1930 2031
1930 2111
1930 2350
1930 2394
1930 2559
1930 2745
1930 2943
1930 3145
1930 3292
1930 3382
1930 3395
1930 3462
1930 3675
1931 2059
1931 2060
1931 2152
1931 2323
1931 2333
1931 2392
1931 2438
1931 2466
1931 2526
1931 2612
1931 2638
1931 2666
1931 2693
1931 2852
1931 2906
1931 3127
1931 3140
1931 3230
1931 3330
1931 3337
1931 3568
1931 3575
1931 3640
1931 3714
1932 1940
1932 2504
1932 2560
1932 2749
1932 2771
1932 2881
1932 2956
1932 3192
1932 3407
1932 3446
1933 2217
1933 2770
1933 3234
1933 3533
1934 2205
1934 2438
1934 2568
1934 2666
1934 2852
1934 2885
1934 3153
1934 3382
1934 3520
1935 1958
1935 2096
1935 2103
1935 2114
1935 2383
1935 2396
1935 2659
1935 2836
1935 3176
1935 3222
1935 3546
1935 3561
1935 3574
1936 2691
1937 2156
1937 2237
1937 2262
1937 2679
1937 2793
1937 3045
1937 3247
1937 3412
1937 3603
1937 3728
1937 3738
1938 3471
1938 3500
1939 1952
1939 2015
1939 2084
1939 2095
1939 2174
1939 2201
1939 2346
1939 2447
1939 2648
1939 2654
1939 2656
1939 2790
1939 2802
1939 2812
1939 2956
1939 3004
1939 3091
1939 3265
1939 3404
1939 3682
1939 3718
1940 2039
1940 2204
1940 2323
1940 2447
1940 2482
1940 2552
1940 2624
1940 2712
1940 2817
1940 2881
1940 2897
1940 2910
1940 3151
1940 3192
1940 3307
1940 3392
1940 3649
1941 2024
1941 2057
1941 2122
1941 2138
1941 2142
1941 2157
1941 2172
1941 2177
1941 2202
1941 2308
1941 2313
1941 2320
1941 2348
1941 2373
1941 2438
1941 2474
1941 2478
1941 2485
1941 2497
1941 2499
1941 2507
1941 2590
1941 2597
1941 2652
1941 2655
1941 2733
1941 2778
1941 2808
1941 2828
1941 2865
1941 2960
1941 2964
1941 3061
1941 3098
1941 3156
1941 3160
1941 3171
1941 3205
1941 3376
1941 3526
1941 3559
1941 3606
1941 3617
1941 3669
1941 3676
1941 3695
1941 3729
1942 2250
1942 2923
1942 3066
1943 2006
1943 2206
1943 2406
1943 2640
1943 2944
1943 3046
1943 3121
1943 3584
1944 2005
1944 2132
1944 2256
1944 2323
1944 2363
1944 2438
1944 2449
1944 2583
1944 2838
1944 2881
1944 2940
1944 3010
1944 3279
1944 3376
1944 3716
1944 3738
1946 1957
1946 2036
1946 2189
1946 2210
1946 2429
1946 2639
1946 2941
1946 2973
1946 3145
1946 3359
1946 3603
1947 2186
1947 2221
1947 2322
1947 2622
1947 2918
1947 2922
1947 2997
1947 3705
1948 2013
1948 2014
1948 2035
1948 2069
1948 2146
1948 2205
1948 2256
1948 2267
1948 2325
1948 2347
1948 2350
1948 2387
1948 2421
1948 2498
1948 2503
1948 2508
1948 2513
1948 2522
1948 2567
1948 2593
1948 2631
1948 2703
1948 2766
1948 2818
1948 2877
1948 2933
1948 2948
1948 2988
1948 3059
1948 3080
1948 3087
1948 3108
1948 3110
1948 3111
1948 3214
1948 3359
1948 3449
1948 3514
1948 3518
1948 3573
1948 3641
1948 3686
1948 3715
1948 3726
1949 2231
1949 2328
1949 2440
1949 2443
1949 2486
1949 2711
1949 3254
1949 3374
1949 3746
1950 2008
1950 2770
1950 2792
1951 2584
1951 2756
1952 1973
1952 1986
1952 2039
1952 2109
1952 2135
1952 2148
1952 2174
1952 2180
1952 2190
1952 2201
1952 2294
1952 2330
1952 2392
1952 2406
1952 2422
1952 2447
1952 2476
1952 2548
1952 2549
1952 2581
1952 2648
1952 2713
1952 2802
1952 2807
1952 2877
1952 3004
1952 3006
1952 3010
1952 3091
1952 3122
1952 3127
1952 3162
1952 3265
1952 3376
1952 3396
1952 3404
1952 3654
1952 3702
1952 3718
1953 3058
1954 1986
1954 2053
1954 2132
1954 2146
1954 2308
1954 2373
1954 2400
1954 2423
1954 2449
1954 2468
1954 2508
1954 2530
1954 2648
1954 2679
1954 2891
1954 2959
1954 2962
1954 3043
1954 3125
1954 3143
1954 3211
1954 3349
1954 3376
1954 3404
1954 3466
1954 3604
1954 3605
1954 3672
1954 3689
1954 3716
1955 2391
1955 2392
1955 2699
1955 2845
1955 2956
1955 3094
1955 3513
1955 3736
1956 2042
1956 2112
1956 2114
1956 2160
1956 2176
1956 2178
1956 2182
1956 2329
1956 2369
1956 2374
1956 2425
1956 2432
1956 2440
1956 2469
1956 2601
1956 2755
1956 2859
1956 2875
1956 2920
1956 2986
1956 3021
1956 3129
1956 3152
1956 3224
1956 3316
1956 3399
1956 3450
1956 3597
1956 3640
1957 2015
1957 2036
1957 2187
1957 2297
1957 2710
1957 2819
1957 2941
1957 2973
1957 2988
1957 3059
1957 3359
1957 3449
1957 3605
1957 3695
1958 2014
1958 2677
1958 2967
1958 3574
1959 1986
1959 2024
1959 2033
1959 2048
1959 2115
1959 2134
1959 2174
1959 2229
1959 2256
1959 2264
1959 2265
1959 2287
1959 2295
1959 2307
1959 2337
1959 2384
1959 2438
1959 2455
1959 2512
1959 2559
1959 2564
1959 2588
1959 2620
1959 2649
1959 2668
1959 2721
1959 2774
1959 2791
1959 2808
1959 2869
1959 2906
1959 2943
1959 2944
1959 3054
1959 3097
1959 3101
1959 3124
1959 3125
1959 3128
1959 3131
1959 3153
1959 3191
1959 3220
1959 3243
1959 3259
1959 3282
1959 3292
1959 3307
1959 3312
1959 3365
1959 3395
1959 3440
1959 3462
1959 3466
1959 3507
1959 3524
1959 3534
1959 3544
1959 3547
1959 3562
1959 3575
1959 3603
1959 3639
1959 3666
1959 3675
1959 3676
1959 3682
1959 3687
1959 3689
1959 3692
1959 3717
1959 3718
1959 3721
1960 2015
1960 2158
1960 2166
1960 2219
1960 2316
1960 2368
1960 2555
1960 2615
1960 2620
1960 2687
1960 2773
1960 2789
1960 3102
1960 3237
1960 3499
1960 3601
1960 3602
1960 3611
1960 3682
1960 3688
1960 3721
1961 2002
1961 2073
1961 2158
1961 2209
1961 2371
1961 2478
1961 2507
1961 2595
1961 2604
1961 2615
1961 2730
1961 2767
1961 2774
1961 2836
1961 2911
1961 2956
1961 2973
1961 3016
1961 3021
1961 3093
1961 3096
1961 3106
1961 3150
1961 3183
1961 3370
1961 3490
1961 3540
1961 3688
1961 3689
1961 3731
1962 1981
1962 2059
1962 2129
1962 2170
1962 2344
1962 2600
1962 2657
1962 2781
1962 2787
1962 2822
1962 2827
1962 2933
1962 3010
1962 3012
1962 3124
1962 3194
1962 3297
1962 3359
1962 3377
1962 3388
1962 3455
1962 3491
1962 3563
1962 3575
1962 3588
1962 3618
1962 3621
1962 3626
1962 3695
1962 3696
1963 2008
1963 3179
1963 3718
1964 1972
1964 1978
1964 1981
1964 2170
1964 2219
1964 2264
1964 2265
1964 2363
1964 2445
1964 2551
1964 2559
1964 2733
1964 2827
1964 2906
1964 2944
1964 3009
1964 3124
1964 3145
1964 3194
1964 3243
1964 3575
1964 3621
1964 3626
1964 3745
1966 2298
1966 2367
1966 2939
1966 3714
1967 1969
1967 2052
1967 2064
1967 2076
1967 2104
1967 2112
1967 2369
1967 2469
1967 2474
1967 2521
1967 2528
1967 2636
1967 2710
1967 2842
1967 2875
1967 2942
1967 3021
1967 3086
1967 3094
1967 3138
1967 3178
1967 3258
1967 3274
1967 3332
1967 3339
1967 3430
1967 3450
1967 3510
1968 2136
1968 2346
1968 2654
1968 3691
1969 2083
1969 2114
1969 2420
1969 2464
1969 2469
1969 2474
1969 2511
1969 2601
1969 2660
1969 2677
1969 2737
1969 2755
1969 2838
1969 3021
1969 3129
1969 3176
1969 3274
1969 3420
1969 3465
1969 3481
1970 2212
1970 2223
1970 2372
1970 2408
1970 2442
1970 2564
1970 2642
1970 2683
1970 2845
1970 2970
1970 3105
1970 3110
1970 3137
1970 3192
1970 3223
1970 3310
1970 3330
1970 3551
1970 3687
1971 2026
1971 2042
1971 2078
1971 2125
1971 2138
1971 2158
1971 2201
1971 2378
1971 2404
1971 2418
1971 2468
1971 2492
1971 2507
1971 2508
1971 2554
1971 2608
1971 2640
1971 2648
1971 2664
1971 2690
1971 2707
1971 2755
1971 2787
1971 2791
1971 2804
1971 2856
1971 2882
1971 2960
1971 2962
1971 3015
1971 3021
1971 3029
1971 3047
1971 3070
1971 3075
1971 3098
1971 3131
1971 3139
1971 3147
1971 3169
1971 3199
1971 3264
1971 3272
1971 3273
1971 3296
1971 3332
1971 3366
1971 3386
1971 3393
1971 3396
1971 3430
1971 3451
1971 3458
1971 3466
1971 3473
1971 3534
1971 3585
1971 3599
1971 3616
1971 3635
1971 3661
1971 3689
1971 3693
1971 3718
1971 3724
1972 1978
1972 1996
1972 2012
1972 2024
1972 2025
1972 2038
1972 2060
1972 2125
1972 2133
1972 2144
1972 2170
1972 2210
1972 2218
1972 2229
1972 2240
1972 2254
1972 2265
1972 2292
1972 2311
1972 2320
1972 2321
1972 2324
1972 2326
1972 2358
1972 2363
1972 2367
1972 2372
1972 2378
1972 2397
1972 2445
1972 2478
1972 2492
1972 2512
1972 2513
1972 2515
1972 2517
1972 2533
1972 2551
1972 2553
1972 2559
1972 2564
1972 2571
1972 2578
1972 2588
1972 2620
1972 2649
1972 2659
1972 2664
1972 2703
1972 2705
1972 2741
1972 2745
1972 2751
1972 2766
1972 2791
1972 2804
1972 2808
1972 2838
1972 2842
1972 2850
1972 2879
1972 2884
1972 2889
1972 2942
1972 2971
1972 2980
1972 3009
1972 3014
1972 3015
1972 3016
1972 3043
1972 3075
1972 3097
1972 3101
1972 3106
1972 3116
1972 3124
1972 3125
1972 3139
1972 3145
1972 3146
1972 3147
1972 3153
1972 3183
1972 3184
1972 3209
1972 3220
1972 3243
1972 3259
1972 3272
1972 3276
1972 3309
1972 3312
1972 3336
1972 3337
1972 3343
1972 3375
1972 3386
1972 3405
1972 3410
1972 3412
1972 3415
1972 3426
1972 3440
1972 3466
1972 3521
1972 3531
1972 3534
1972 3544
1972 3601
1972 3613
1972 3623
1972 3635
1972 3638
1972 3639
1972 3661
1972 3674
1972 3675
1972 3676
1972 3687
1972 3689
1972 3717
1972 3721
1972 3745
1973 2128
1973 2148
1973 2174
1973 2201
1973 2325
1973 2330
1973 2648
1973 2739
1973 2751
1973 2777
1973 2802
1973 2852
1973 3091
1973 3127
1973 3257
1973 3390
1973 3404
1973 3473
1973 3654
1973 3700
1973 3718
1974 2048
1974 2255
1974 2440
1974 2489
1974 2572
1974 2639
1974 2677
1974 2880
1974 3081
1974 3104
1974 3110
1974 3197
1974 3298
1974 3381
1975 2140
1975 2216
1975 2397
1975 2944
1975 3171
1975 3196
1975 3383
1976 2078
1976 2210
1976 2217
1976 2266
1976 2319
1976 2633
1976 2703
1976 2770
1976 2836
1976 3007
1976 3083
1976 3238
1976 3420
1976 3533
1976 3677
1976 3693
1978 1981
1978 2040
1978 2186
1978 2219
1978 2229
1978 2250
1978 2265
1978 2320
1978 2321
1978 2333
1978 2350
1978 2396
1978 2404
1978 2455
1978 2508
1978 2513
1978 2582
1978 2599
1978 2600
1978 2741
1978 2751
1978 2791
1978 2808
1978 2827
1978 2832
1978 2906
1978 3026
1978 3029
1978 3030
1978 3124
1978 3145
1978 3227
1978 3316
1978 3323
1978 3325
1978 3337
1978 3373
1978 3444
1978 3540
1978 3626
1978 3687
1978 3692
1978 3734
1978 3745
1979 2009
1979 2115
1979 2323
1979 2325
1979 2359
1979 2422
1979 2697
1979 2752
1979 2811
1979 2858
1979 3010
1979 3143
1979 3184
1979 3301
1979 3339
1979 3364
1979 3412
1979 3544
1979 3573
1980 2745
1980 2848
1980 3171
1980 3291
1981 2016
1981 2059
1981 2066
1981 2098
1981 2119
1981 2170
1981 2219
1981 2265
1981 2299
1981 2392
1981 2438
1981 2445
1981 2508
1981 2554
1981 2564
1981 2583
1981 2600
1981 2630
1981 2635
1981 2721
1981 2769
1981 2827
1981 2916
1981 2933
1981 2948
1981 3010
1981 3070
1981 3075
1981 3078
1981 3118
1981 3124
1981 3194
1981 3204
1981 3243
1981 3337
1981 3359
1981 3425
1981 3466
1981 3491
1981 3563
1981 3575
1981 3618
1981 3619
1981 3626
1981 3693
1981 3695
1981 3696
1981 3745
1982 3427
1983 1998
1983 2114
1983 2217
1983 2279
1983 2731
1983 2789
1983 2986
1983 3151
1983 3248
1984 2186
1984 2217
1984 2285
1984 2313
1984 2421
1984 3018
1984 3048
1984 3096
1984 3260
1984 3334
1984 3416
1984 3462
1984 3465
1984 3530
1984 3675
1985 2109
1985 2155
1985 2222
1985 2319
1985 2333
1985 2492
1985 2498
1985 2513
1985 2522
1985 2643
1985 2779
1985 2948
1985 3231
1985 3514
1985 3578
1986 2060
1986 2115
1986 2148
1986 2174
1986 2201
1986 2256
1986 2271
1986 2287
1986 2576
1986 2648
1986 2679
1986 2802
1986 2959
1986 2962
1986 3043
1986 3265
1986 3376
1986 3404
1986 3435
1986 3524
1986 3604
1986 3654
1986 3659
1986 3675
1986 3738
1987 2174
1987 2236
1987 2349
1987 2363
1987 2414
1987 2455
1987 2545
1987 2551
1987 2605
1987 2607
1987 2647
1987 2649
1987 2783
1987 2907
1987 2944
1987 2999
1987 3133
1987 3153
1987 3171
1987 3183
1987 3191
1987 3227
1987 3259
1987 3272
1987 3336
1987 3426
1987 3520
1987 3735
1988 1994
1988 2015
1988 2297
1988 2316
1988 2544
1988 2667
1988 2973
1988 3093
1988 3230
1988 3486
1988 3624
1988 3687
1989 2226
1989 2276
1989 2408
1989 3504
1991 2009
1991 2013
1991 2238
1991 3000
1991 3111
1991 3345
1991 3355
1991 3358
1991 3523
1992 1996
1992 2003
1992 2012
1992 2055
1992 2229
1992 2282
1992 2300
1992 2323
1992 2461
1992 2531
1992 2564
1992 2622
1992 2703
1992 2705
1992 2741
1992 2751
1992 2791
1992 2795
1992 2825
1992 2836
1992 2889
1992 2908
1992 3021
1992 3071
1992 3102
1992 3128
1992 3209
1992 3266
1992 3288
1992 3296
1992 3297
1992 3337
1992 3466
1992 3628
1993 2041
1993 2219
1993 2378
1993 2551
1993 2582
1993 2804
1993 2808
1993 2978
1993 3029
1993 3549
1993 3689
1994 1996
1994 2001
1994 2015
1994 2075
1994 2210
1994 2219
1994 2221
1994 2236
1994 2291
1994 2316
1994 2326
1994 2362
1994 2413
1994 2414
1994 2418
1994 2419
1994 2430
1994 2544
1994 2551
1994 2565
1994 2596
1994 2604
1994 2620
1994 2667
1994 2668
1994 2770
1994 2783
1994 2791
1994 2805
1994 2849
1994 2869
1994 2879
1994 2901
1994 2973
1994 3023
1994 3093
1994 3137
1994 3169
1994 3186
1994 3235
1994 3253
1994 3345
1994 3428
1994 3466
1994 3477
1994 3553
1994 3558
1994 3568
1994 3617
1994 3629
1994 3682
1994 3687
1995 2211
1995 3482
1995 3504
1995 3642
1996 2011
1996 2035
1996 2045
1996 2054
1996 2055
1996 2056
1996 2075
1996 2095
1996 2121
1996 2142
1996 2146
1996 2187
1996 2205
1996 2212
1996 2213
1996 2235
1996 2282
1996 2289
1996 2300
1996 2323
1996 2372
1996 2408
1996 2416
1996 2442
1996 2471
1996 2474
1996 2484
1996 2515
1996 2522
1996 2544
1996 2553
1996 2568
1996 2581
1996 2586
1996 2596
1996 2604
1996 2605
1996 2611
1996 2622
1996 2626
1996 2628
1996 2631
1996 2642
1996 2643
1996 2656
1996 2668
1996 2681
1996 2695
1996 2723
1996 2725
1996 2734
1996 2757
1996 2805
1996 2810
1996 2817
1996 2819
1996 2826
1996 2844
1996 2845
1996 2857
1996 2861
1996 2877
1996 2878
1996 2884
1996 2907
1996 2911
1996 2956
1996 2988
1996 2989
1996 3004
1996 3034
1996 3040
1996 3079
1996 3082
1996 3095
1996 3110
1996 3130
1996 3136
1996 3137
1996 3167
1996 3184
1996 3186
1996 3194
1996 3209
1996 3212
1996 3223
1996 3237
1996 3242
1996 3288
1996 3296
1996 3302
1996 3306
1996 3310
1996 3358
1996 3361
1996 3408
1996 3413
1996 3422
1996 3423
1996 3445
1996 3463
1996 3476
1996 3487
1996 3507
1996 3564
1996 3568
1996 3573
1996 3598
1996 3615
1996 3637
1996 3641
1996 3683
1996 3687
1996 3691
1996 3726
1996 3736
1996 3743
1997 2034
1997 2046
1997 2055
1997 2104
1997 2235
1997 2405
1997 2412
1997 2530
1997 2545
1997 2609
1997 2710
1997 2752
1997 2879
1997 2994
1997 3010
1997 3057
1997 3066
1997 3070
1997 3153
1997 3261
1997 3510
1997 3649
1998 2433
1998 2731
1998 2859
1998 2986
1998 3021
1998 3248
1998 3597
1999 2076
1999 2154
1999 2289
1999 2312
1999 2416
1999 2710
1999 2920
1999 3000
1999 3103
1999 3138
1999 3207
1999 3394
1999 3546
2000 2544
2000 2991
2000 3364
2000 3496
2000 3573
2000 3714
2001 2060
2001 2064
2001 2068
2001 2201
2001 2289
2001 2345
2001 2412
2001 2416
2001 2469
2001 2508
2001 2510
2001 2521
2001 2601
2001 2666
2001 2710
2001 2755
2001 2842
2001 2942
2001 3000
2001 3007
2001 3021
2001 3103
2001 3138
2001 3161
2001 3184
2001 3193
2001 3207
2001 3224
2001 3257
2001 3260
2001 3274
2001 3349
2001 3386
2001 3510
2001 3599
2001 3638
2001 3718
2002 2077
2002 2092
2002 2170
2002 2174
2002 2180
2002 2209
2002 2265
2002 2356
2002 2371
2002 2559
2002 2656
2002 2687
2002 2749
2002 2781
2002 2822
2002 2888
2002 2890
2002 2911
2002 2956
2002 2979
2002 3016
2002 3093
2002 3150
2002 3278
2002 3306
2002 3359
2002 3413
2002 3422
2002 3621
2002 3675
2002 3688
2002 3710
2002 3746
2003 2012
2003 2254
2003 2454
2003 2531
2003 2564
2003 2578
2003 2588
2003 2705
2003 2751
2003 2766
2003 2889
2003 2908
2003 3071
2003 3209
2003 3266
2003 3544
2004 2024
2004 2052
2004 2098
2004 2144
2004 2215
2004 2229
2004 2234
2004 2246
2004 2254
2004 2276
2004 2289
2004 2308
2004 2309
2004 2321
2004 2353
2004 2404
2004 2416
2004 2445
2004 2480
2004 2515
2004 2528
2004 2544
2004 2553
2004 2554
2004 2564
2004 2578
2004 2588
2004 2596
2004 2636
2004 2665
2004 2705
2004 2728
2004 2741
2004 2745
2004 2751
2004 2766
2004 2791
2004 2808
2004 2838
2004 2839
2004 2848
2004 2866
2004 2899
2004 2907
2004 2944
2004 2973
2004 3021
2004 3071
2004 3149
2004 3158
2004 3173
2004 3193
2004 3203
2004 3212
2004 3304
2004 3332
2004 3382
2004 3388
2004 3404
2004 3426
2004 3433
2004 3465
2004 3498
2004 3544
2004 3553
2004 3584
2004 3623
2004 3674
2004 3680
2004 3687
2004 3693
2004 3728
2005 2132
2005 2256
2005 2449
2005 2480
2005 2777
2005 2897
2005 2940
2005 3080
2005 3372
2005 3382
2005 3457
2005 3479
2005 3725
2006 2363
2006 2406
2006 2640
2006 2645
2006 2648
2006 3026
2006 3153
2006 3405
2006 3435
2007 2206
2007 2213
2007 2452
2007 2480
2007 2899
2007 2944
2007 3046
2007 3121
2007 3173
2007 3382
2007 3498
2007 3690
2007 3726
2008 2052
2008 2125
2008 2282
2008 2313
2008 2321
2008 2333
2008 2499
2008 2517
2008 2699
2008 2792
2008 2877
2008 2942
2008 3092
2008 3122
2008 3572
2008 3578
2008 3599
2009 2013
2009 2045
2009 2069
2009 2131
2009 2164
2009 2165
2009 2250
2009 2310
2009 2323
2009 2357
2009 2419
2009 2520
2009 2522
2009 2528
2009 2567
2009 2605
2009 2613
2009 2626
2009 2684
2009 2693
2009 2716
2009 2752
2009 2809
2009 2818
2009 2864
2009 2884
2009 2920
2009 2999
2009 3037
2009 3050
2009 3110
2009 3111
2009 3112
2009 3130
2009 3141
2009 3147
2009 3150
2009 3154
2009 3181
2009 3296
2009 3303
2009 3305
2009 3345
2009 3355
2009 3358
2009 3375
2009 3394
2009 3407
2009 3409
2009 3495
2009 3504
2009 3514
2009 3536
2009 3565
2009 3578
2009 3598
2009 3641
2009 3645
2009 3670
2009 3714
2009 3732
2009 3736
2010 2243
2010 2676
2010 3261
2011 2878
2011 3039
2011 3348
2011 3598
2011 3736
2012 2144
2012 2158
2012 2229
2012 2240
2012 2254
2012 2330
2012 2395
2012 2445
2012 2480
2012 2564
2012 2578
2012 2588
2012 2682
2012 2703
2012 2705
2012 2721
2012 2741
2012 2751
2012 2753
2012 2766
2012 2797
2012 2808
2012 2848
2012 2881
2012 2889
2012 3071
2012 3125
2012 3137
2012 3145
2012 3209
2012 3257
2012 3260
2012 3288
2012 3297
2012 3304
2012 3317
2012 3410
2012 3450
2012 3511
2012 3521
2012 3544
2012 3575
2012 3623
2012 3639
2012 3674
2012 3683
2012 3687
2012 3721
2013 2035
2013 2045
2013 2069
2013 2179
2013 2251
2013 2310
2013 2387
2013 2502
2013 2520
2013 2522
2013 2567
2013 2613
2013 2684
2013 2693
2013 2818
2013 2864
2013 3037
2013 3050
2013 3087
2013 3111
2013 3112
2013 3130
2013 3141
2013 3170
2013 3181
2013 3186
2013 3305
2013 3345
2013 3358
2013 3407
2013 3409
2013 3514
2013 3670
2013 3703
2013 3732
2014 2049
2014 2066
2014 2282
2014 2413
2014 2440
2014 2474
2014 2508
2014 2544
2014 2549
2014 2677
2014 2770
2014 2808
2014 2827
2014 2838
2014 2884
2014 2967
2014 2973
2014 3059
2014 3087
2014 3109
2014 3124
2014 3138
2014 3259
2014 3371
2014 3433
2014 3514
2014 3557
2014 3561
2014 3638
2014 3670
2014 3687
2014 3689
2014 3721
2015 2121
2015 2136
2015 2137
2015 2160
2015 2201
2015 2210
2015 2219
2015 2236
2015 2238
2015 2282
2015 2291
2015 2300
2015 2311
2015 2316
2015 2317
2015 2399
2015 2419
2015 2430
2015 2432
2015 2461
2015 2462
2015 2467
2015 2474
2015 2544
2015 2565
2015 2620
2015 2628
2015 2638
2015 2639
2015 2642
2015 2700
2015 2720
2015 2749
2015 2763
2015 2812
2015 2845
2015 2922
2015 2973
2015 3026
2015 3078
2015 3115
2015 3123
2015 3129
2015 3234
2015 3265
2015 3266
2015 3296
2015 3310
2015 3380
2015 3516
2015 3537
2015 3553
2015 3564
2015 3568
2015 3585
2015 3600
2015 3624
2015 3638
2015 3668
2015 3687
2015 3702
2015 3705
2015 3718
2015 3728
2015 3739
2016 2024
2016 2115
2016 2125
2016 2133
2016 2229
2016 2256
2016 2299
2016 2330
2016 2363
2016 2401
2016 2445
2016 2507
2016 2554
2016 2569
2016 2596
2016 2679
2016 2703
2016 2721
2016 2730
2016 2741
2016 2753
2016 2791
2016 2797
2016 2804
2016 2808
2016 2827
2016 2839
2016 2846
2016 2850
2016 2916
2016 2942
2016 2960
2016 3047
2016 3071
2016 3098
2016 3101
2016 3118
2016 3125
2016 3190
2016 3193
2016 3243
2016 3301
2016 3309
2016 3415
2016 3426
2016 3444
2016 3518
2016 3521
2016 3613
2016 3619
2016 3626
2016 3630
2016 3653
2016 3675
2016 3721
2017 2581
2017 2835
2017 2926
2017 3408
2017 3535
2017 3658
2017 3711
2018 3032
2018 3427
2018 3598
2019 2300
2019 2830
2019 3280
2020 2903
2020 3029
2020 3048
2020 3330
2021 2060
2021 2459
2021 2563
2021 2818
2021 3168
2021 3194
2021 3260
2021 3281
2021 3575
2022 2100
2022 2175
2022 2238
2022 2305
2022 2356
2022 2511
2022 2772
2022 2917
2022 3081
2022 3420
2023 2119
2023 2131
2023 2948
2023 2999
2023 3600
2023 3698
2024 2065
2024 2129
2024 2188
2024 2320
2024 2378
2024 2438
2024 2452
2024 2478
2024 2512
2024 2564
2024 2583
2024 2703
2024 2721
2024 2766
2024 2808
2024 2944
2024 2957
2024 2960
2024 2980
2024 3075
2024 3098
2024 3101
2024 3153
2024 3234
2024 3312
2024 3349
2024 3359
2024 3415
2024 3440
2024 3497
2024 3575
2024 3626
2024 3648
2024 3661
2024 3669
2024 3675
2024 3695
2024 3721
2025 2043
2025 2049
2025 2060
2025 2276
2025 2316
2025 2363
2025 2386
2025 2424
2025 2460
2025 2687
2025 2703
2025 2721
2025 2732
2025 2734
2025 2808
2025 2838
2025 2879
2025 3009
2025 3019
2025 3021
2025 3101
2025 3163
2025 3212
2025 3332
2025 3441
2025 3504
2025 3511
2025 3562
2025 3696
2026 2507
2026 3370
2026 3458
2026 3466
2026 3473
2026 3562
2026 3616
2026 3689
2027 2536
2027 2628
2027 3241
2028 2054
2028 2153
2028 2542
2028 2687
2028 2771
2028 3062
2028 3256
2028 3287
2028 3523
2029 2840
2029 2915
2029 3218
2029 3656
2030 3419
2031 2111
2031 2222
2031 2230
2031 2363
2031 2547
2031 2648
2031 2740
2031 2766
2031 2838
2031 2943
2031 3013
2031 3354
2031 3382
2031 3395
2031 3462
2031 3665
2031 3675
2032 2115
2032 2122
2032 2148
2032 2237
2032 2460
2032 2514
2032 2593
2032 2689
2032 2695
2032 3117
2032 3479
2032 3659
2032 3704
2033 2102
2033 2134
2033 2219
2033 2264
2033 2265
2033 2287
2033 2295
2033 2438
2033 2648
2033 2733
2033 2791
2033 2878
2033 2906
2033 2908
2033 2988
2033 2989
2033 3004
2033 3097
2033 3124
2033 3239
2033 3312
2033 3396
2033 3435
2033 3452
2033 3547
2033 3666
2033 3689
2034 2042
2034 2052
2034 2060
2034 2064
2034 2066
2034 2068
2034 2076
2034 2104
2034 2112
2034 2138
2034 2141
2034 2147
2034 2234
2034 2289
2034 2343
2034 2360
2034 2368
2034 2369
2034 2416
2034 2469
2034 2485
2034 2498
2034 2507
2034 2521
2034 2575
2034 2601
2034 2609
2034 2617
2034 2636
2034 2665
2034 2682
2034 2687
2034 2707
2034 2708
2034 2710
2034 2727
2034 2741
2034 2743
2034 2752
2034 2763
2034 2821
2034 2842
2034 2845
2034 2861
2034 2889
2034 2908
2034 2941
2034 2956
2034 2977
2034 2985
2034 2988
2034 2994
2034 3000
2034 3010
2034 3015
2034 3021
2034 3071
2034 3086
2034 3093
2034 3094
2034 3102
2034 3103
2034 3137
2034 3138
2034 3159
2034 3178
2034 3183
2034 3193
2034 3207
2034 3226
2034 3230
2034 3234
2034 3264
2034 3317
2034 3417
2034 3424
2034 3430
2034 3431
2034 3449
2034 3450
2034 3451
2034 3510
2034 3513
2034 3557
2034 3595
2034 3638
2034 3641
2034 3683
2034 3695
2034 3713
2034 3718
2035 2205
2035 2222
2035 2319
2035 2496
2035 2498
2035 2503
2035 2522
2035 2605
2035 2648
2035 2657
2035 2666
2035 2700
2035 2706
2035 2852
2035 2877
2035 2878
2035 2948
2035 2984
2035 2989
2035 3079
2035 3087
2035 3117
2035 3186
2035 3269
2035 3311
2035 3390
2035 3397
2035 3423
2035 3463
2035 3496
2035 3507
2035 3573
2035 3598
2035 3612
2035 3639
2035 3686
2035 3704
2035 3715
2035 3732
2035 3736
2036 2129
2036 2297
2036 2391
2036 2429
2036 2613
2036 2639
2036 2681
2036 2706
2036 2941
2036 3144
2036 3335
2036 3359
2036 3603
2036 3639
2037 2065
2037 2118
2037 2137
2037 2279
2037 2356
2037 2452
2037 2611
2037 3088
2037 3294
2038 2070
2038 2157
2038 2204
2038 2445
2038 2559
2038 2636
2038 2746
2038 2808
2038 2839
2038 2845
2038 2990
2038 2994
2038 3021
2038 3243
2038 3405
2038 3534
2038 3687
2039 2109
2039 2201
2039 2392
2039 2581
2039 2648
2039 2713
2039 2779
2039 2807
2039 3514
2040 2125
2040 2186
2040 2219
2040 2229
2040 2250
2040 2301
2040 2316
2040 2321
2040 2337
2040 2404
2040 2408
2040 2430
2040 2478
2040 2507
2040 2513
2040 2515
2040 2582
2040 2617
2040 2620
2040 2640
2040 2741
2040 2745
2040 2766
2040 2809
2040 2838
2040 2944
2040 2978
2040 3029
2040 3030
2040 3075
2040 3098
2040 3164
2040 3171
2040 3312
2040 3323
2040 3325
2040 3337
2040 3349
2040 3373
2040 3415
2040 3444
2040 3540
2040 3562
2040 3578
2040 3601
2040 3611
2040 3629
2040 3669
2040 3687
2040 3689
2040 3734
2041 2079
2041 2111
2041 2412
2041 2688
2041 2804
2041 2978
2041 3033
2041 3531
2041 3659
2042 2052
2042 2064
2042 2094
2042 2104
2042 2112
2042 2176
2042 2329
2042 2369
2042 2390
2042 2416
2042 2423
2042 2425
2042 2440
2042 2469
2042 2474
2042 2510
2042 2511
2042 2513
2042 2515
2042 2528
2042 2554
2042 2590
2042 2601
2042 2636
2042 2699
2042 2703
2042 2710
2042 2755
2042 2821
2042 2845
2042 2878
2042 2895
2042 2942
2042 2956
2042 2985
2042 3021
2042 3081
2042 3086
2042 3094
2042 3118
2042 3120
2042 3138
2042 3178
2042 3183
2042 3207
2042 3258
2042 3264
2042 3274
2042 3316
2042 3332
2042 3339
2042 3370
2042 3399
2042 3405
2042 3430
2042 3450
2042 3465
2042 3482
2042 3504
2042 3510
2042 3513
2042 3575
2042 3601
2042 3624
2042 3630
2042 3642
2042 3683
2042 3736
2043 2424
2043 3448
2044 2046
2044 2202
2044 2232
2044 2471
2044 2774
2044 2865
2044 2896
2044 3237
2044 3603
2044 3655
2044 3664
2045 2106
2045 2195
2045 2502
2045 2520
2045 2522
2045 2567
2045 2693
2045 2988
2045 3037
2045 3050
2045 3111
2045 3181
2045 3305
2045 3345
2045 3358
2045 3391
2045 3407
2045 3514
2045 3670
2046 2052
2046 2066
2046 2113
2046 2132
2046 2146
2046 2152
2046 2178
2046 2183
2046 2189
2046 2222
2046 2238
2046 2257
2046 2370
2046 2416
2046 2422
2046 2460
2046 2463
2046 2547
2046 2578
2046 2655
2046 2682
2046 2713
2046 2771
2046 2827
2046 2861
2046 2907
2046 2932
2046 2974
2046 2981
2046 3015
2046 3095
2046 3213
2046 3297
2046 3304
2046 3337
2046 3376
2046 3449
2046 3562
2046 3585
2046 3649
2046 3684
2047 2125
2047 2538
2047 2698
2047 2944
2047 3196
2048 2120
2048 2151
2048 2307
2048 2438
2048 2581
2048 2604
2048 2668
2048 2730
2048 2815
2048 3075
2048 3428
2048 3462
2048 3507
2048 3564
2048 3575
2048 3652
2048 3675
2048 3682
2048 3687
2049 2078
2049 2184
2049 2282
2049 2313
2049 2319
2049 2345
2049 2386
2049 2436
2049 2445
2049 2481
2049 2625
2049 2666
2049 2677
2049 2732
2049 2813
2049 2827
2049 2833
2049 2843
2049 2871
2049 2891
2049 2899
2049 2972
2049 2985
2049 2988
2049 3007
2049 3098
2049 3277
2049 3332
2049 3599
2049 3624
2049 3626
2049 3655
2049 3692
2050 2128
2050 2325
2050 2708
2052 2064
2052 2122
2052 2174
2052 2210
2052 2211
2052 2235
2052 2276
2052 2319
2052 2369
2052 2416
2052 2460
2052 2469
2052 2474
2052 2517
2052 2528
2052 2575
2052 2636
2052 2699
2052 2710
2052 2792
2052 2845
2052 2888
2052 2940
2052 2956
2052 3021
2052 3044
2052 3086
2052 3091
2052 3094
2052 3138
2052 3178
2052 3207
2052 3264
2052 3284
2052 3339
2052 3359
2052 3450
2052 3482
2052 3504
2052 3572
2052 3578
2052 3642
2053 2177
2053 2230
2053 2962
2053 3119
2053 3133
2053 3143
2053 3716
2054 2211
2054 2222
2054 2403
2054 2493
2054 2542
2054 2573
2054 2687
2054 2819
2054 2845
2054 2878
2054 2973
2054 3090
2054 3095
2054 3112
2054 3137
2054 3249
2054 3386
2054 3507
2054 3573
2055 2090
2055 2121
2055 2167
2055 2186
2055 2210
2055 2238
2055 2405
2055 2801
2055 2889
2055 2952
2055 2977
2055 3079
2055 3268
2055 3390
2055 3463
2055 3487
2055 3496
2055 3588
2055 3683
2055 3691
2055 3713
2056 2284
2056 2299
2056 2416
2056 2442
2056 2544
2056 2556
2056 2596
2056 2757
2056 2844
2056 2878
2056 2968
2056 3052
2056 3082
2056 3137
2056 3224
2056 3316
2056 3331
2056 3342
2056 3568
2056 3592
2056 3609
2056 3638
2057 2122
2057 2142
2057 2177
2057 2202
2057 2240
2057 2268
2057 2291
2057 2306
2057 2313
2057 2373
2057 2430
2057 2492
2057 2499
2057 2530
2057 2562
2057 2620
2057 2778
2057 2828
2057 2865
2057 2867
2057 2964
2057 3020
2057 3021
2057 3029
2057 3061
2057 3156
2057 3160
2057 3171
2057 3205
2057 3211
2057 3276
2057 3313
2057 3376
2057 3466
2057 3526
2057 3527
2057 3557
2057 3559
2057 3599
2057 3617
2057 3695
2059 2098
2059 2116
2059 2119
2059 2249
2059 2254
2059 2259
2059 2289
2059 2299
2059 2333
2059 2376
2059 2392
2059 2400
2059 2416
2059 2438
2059 2508
2059 2538
2059 2554
2059 2588
2059 2623
2059 2652
2059 2698
2059 2710
2059 2729
2059 2746
2059 2752
2059 2769
2059 2808
2059 2827
2059 2948
2059 2994
2059 3010
2059 3014
2059 3021
2059 3070
2059 3075
2059 3118
2059 3128
2059 3138
2059 3193
2059 3194
2059 3224
2059 3281
2059 3304
2059 3337
2059 3466
2059 3491
2059 3563
2059 3575
2059 3608
2059 3618
2059 3626
2059 3698
2059 3729
2060 2063
2060 2066
2060 2115
2060 2133
2060 2168
2060 2235
2060 2363
2060 2414
2060 2430
2060 2438
2060 2440
2060 2477
2060 2510
2060 2511
2060 2513
2060 2526
2060 2533
2060 2551
2060 2569
2060 2638
2060 2666
2060 2701
2060 2710
2060 2787
2060 2852
2060 2858
2060 2940
2060 2985
2060 3015
2060 3043
2060 3118
2060 3168
2060 3224
2060 3257
2060 3260
2060 3264
2060 3281
2060 3337
2060 3466
2060 3469
2060 3473
2060 3534
2060 3547
2060 3575
2060 3624
2060 3642
2060 3649
2060 3681
2061 2100
2061 2663
2061 2724
2061 2789
2061 2816
2061 2825
2061 3174
2061 3318
2061 3331
2061 3470
2062 2251
2062 2964
2062 3006
2062 3246
2062 3630
2063 2526
2063 2609
2063 3257
2064 2068
2064 2076
2064 2104
2064 2112
2064 2168
2064 2289
2064 2345
2064 2369
2064 2416
2064 2462
2064 2469
2064 2474
2064 2510
2064 2521
2064 2528
2064 2554
2064 2601
2064 2617
2064 2636
2064 2699
2064 2710
2064 2770
2064 2842
2064 2845
2064 2861
2064 2920
2064 2956
2064 2973
2064 3000
2064 3021
2064 3094
2064 3103
2064 3138
2064 3183
2064 3193
2064 3207
2064 3224
2064 3332
2064 3339
2064 3430
2064 3450
2064 3465
2064 3510
2064 3513
2064 3557
2064 3599
2064 3624
2064 3638
2064 3672
2064 3681
2065 2279
2065 2550
2065 3088
2065 3294
2066 2141
2066 2142
2066 2146
2066 2219
2066 2300
2066 2360
2066 2384
2066 2404
2066 2418
2066 2438
2066 2469
2066 2508
2066 2559
2066 2583
2066 2640
2066 2655
2066 2696
2066 2791
2066 2808
2066 2827
2066 2831
2066 2849
2066 3029
2066 3070
2066 3109
2066 3139
2066 3226
2066 3230
2066 3234
2066 3243
2066 3272
2066 3385
2066 3386
2066 3405
2066 3424
2066 3466
2066 3534
2066 3562
2066 3575
2066 3635
2066 3689
2066 3737
2066 3745
2067 2242
2067 2323
2067 2648
2067 2687
2067 2738
2067 2852
2067 2877
2067 2963
2067 3112
2067 3390
2067 3453
2067 3637
2067 3645
2067 3718
2067 3741
2068 2079
2068 2104
2068 2112
2068 2125
2068 2218
2068 2289
2068 2321
2068 2514
2068 2521
2068 2582
2068 2601
2068 2659
2068 2755
2068 2804
2068 2842
2068 2895
2068 2941
2068 2998
2068 3007
2068 3021
2068 3086
2068 3138
2068 3161
2068 3183
2068 3245
2068 3259
2068 3274
2068 3332
2068 3339
2068 3386
2068 3450
2068 3510
2068 3557
2068 3638
2069 2520
2069 2522
2069 2567
2069 2613
2069 2684
2069 2693
2069 2751
2069 2988
2069 3111
2069 3130
2069 3141
2069 3265
2069 3345
2069 3407
2069 3514
2069 3641
2070 3300
2070 3499
2070 3684
2071 2084
2071 2104
2071 2164
2071 2238
2071 2309
2071 2445
2071 2461
2071 2495
2071 2625
2071 2655
2071 2703
2071 2777
2071 2808
2071 2941
2071 3265
2071 3535
2071 3575
2071 3703
2072 2948
2072 3026
2072 3204
2073 2209
2073 2570
2073 2660
2073 3083
2073 3093
2073 3520
2073 3688
2073 3731
2074 3119
2074 3573
2075 2133
2075 2150
2075 2210
2075 2274
2075 2403
2075 2440
2075 2448
2075 2474
2075 2506
2075 2570
2075 2605
2075 2648
2075 2653
2075 2680
2075 2845
2075 2880
2075 3028
2075 3034
2075 3110
2075 3120
2075 3207
2075 3288
2075 3423
2075 3436
2075 3444
2075 3536
2075 3564
2075 3668
2076 2289
2076 2312
2076 2416
2076 2440
2076 2464
2076 2510
2076 2511
2076 2519
2076 2521
2076 2539
2076 2710
2076 2842
2076 2920
2076 2937
2076 3000
2076 3021
2076 3103
2076 3138
2076 3183
2076 3193
2076 3207
2076 3224
2076 3394
2076 3465
2076 3469
2076 3510
2076 3554
2076 3561
2076 3641
2076 3672
2077 2092
2077 2371
2077 2531
2077 2580
2077 2591
2077 2628
2077 2656
2077 2661
2077 2744
2077 2810
2077 2823
2077 2869
2077 2888
2077 2890
2077 2911
2077 2956
2077 3150
2077 3223
2077 3241
2077 3278
2077 3280
2077 3474
2077 3476
2077 3686
2078 2436
2078 2440
2078 2511
2078 2657
2078 2703
2078 2710
2078 2787
2078 2871
2078 2899
2078 3007
2078 3081
2078 3183
2078 3332
2078 3430
2078 3554
2079 2091
2079 2262
2079 2327
2079 2412
2079 2601
2079 2619
2079 2659
2079 2804
2079 2842
2079 2994
2079 3193
2079 3220
2079 3224
2079 3531
2079 3557
2079 3599
2079 3608
2079 3659
2080 2298
2080 2300
2080 2527
2080 2763
2080 2771
2080 2908
2080 3234
2080 3347
2080 3489
2081 2238
2081 2396
2081 2405
2081 2440
2081 2464
2081 2488
2081 2511
2081 2660
2081 2836
2081 2955
2081 3018
2081 3037
2081 3081
2081 3145
2081 3251
2081 3275
2081 3332
2081 3510
2081 3561
2081 3677
2081 3719
2082 3586
2083 2200
2083 2677
2083 2975
2083 3021
2083 3081
2083 3176
2083 3546
2084 2238
2084 2377
2084 2419
2084 2670
2084 2749
2084 2790
2084 2812
2084 3042
2084 3265
2084 3478
2084 3498
2084 3576
2085 3514
2086 2219
2086 2454
2086 2612
2086 2940
2086 3277
2086 3349
2086 3382
2086 3717
2087 2291
2087 2455
2087 2478
2087 2483
2087 2533
2087 2553
2087 2554
2087 2571
2087 2703
2087 2745
2087 2846
2087 2867
2087 2907
2087 2942
2087 3068
2087 3242
2087 3301
2087 3349
2087 3466
2087 3695
2088 2715
2088 3039
2088 3560
2089 2122
2089 2319
2089 2695
2089 2733
2089 2898
2089 3006
2089 3643
2089 3659
2090 2116
2090 2121
2090 2242
2090 2246
2090 2344
2090 2392
2090 2565
2090 2630
2090 2703
2090 2713
2090 2956
2090 3075
2090 3190
2090 3268
2090 3269
2090 3324
2090 3390
2090 3455
2090 3463
2090 3496
2090 3588
2090 3691
2090 3703
2091 2390
2091 2479
2091 2517
2091 2730
2091 2842
2091 3043
2091 3096
2091 3184
2091 3224
2091 3227
2091 3608
2092 2356
2092 2371
2092 2393
2092 2399
2092 2656
2092 2661
2092 2771
2092 2773
2092 2823
2092 2829
2092 2888
2092 2911
2092 2954
2092 2956
2092 3150
2092 3278
2092 3422
2092 3456
2092 3548
2093 2357
2093 2379
2093 2484
2093 2565
2093 2973
2093 3215
2093 3235
2094 2112
2094 2176
2094 2329
2094 2369
2094 2390
2094 2406
2094 2427
2094 2469
2094 2601
2094 2636
2094 2877
2094 2895
2094 2986
2094 3015
2094 3021
2094 3143
2094 3152
2094 3230
2094 3274
2094 3399
2094 3450
2094 3466
2094 3597
2094 3640
2094 3744
2095 2141
2095 2181
2095 2205
2095 2212
2095 2361
2095 2489
2095 2520
2095 2653
2095 2668
2095 2757
2095 2857
2095 2878
2095 2907
2095 2989
2095 3028
2095 3137
2095 3223
2095 3278
2095 3298
2095 3342
2095 3423
2095 3456
2095 3488
2095 3546
2095 3568
2095 3598
2095 3603
2095 3636
2095 3702
2095 3736
2095 3742
2096 2927
2096 3019
2098 2119
2098 2201
2098 2249
2098 2333
2098 2438
2098 2538
2098 2564
2098 2666
2098 2808
2098 2948
2098 2966
2098 3070
2098 3075
2098 3128
2098 3131
2098 3166
2098 3188
2098 3194
2098 3491
2098 3514
2098 3516
2098 3520
2098 3563
2098 3594
2098 3618
2098 3714
2099 2156
2099 2229
2099 2360
2099 2753
2099 2797
2099 2912
2099 3226
2099 3388
2100 2489
2100 2816
2100 2853
2100 2931
2100 3174
2100 3470
2101 2287
2101 3069
2101 3179
2101 3730
2102 2134
2102 2287
2102 2436
2102 2438
2102 2512
2102 2733
2102 2871
2102 2899
2102 2906
2102 3059
2102 3097
2102 3220
2102 3376
2102 3547
2102 3666
2103 2118
2103 3222
2103 3574
2104 2112
2104 2250
2104 2289
2104 2308
2104 2362
2104 2374
2104 2390
2104 2404
2104 2507
2104 2508
2104 2513
2104 2515
2104 2582
2104 2596
2104 2636
2104 2682
2104 2727
2104 2755
2104 2804
2104 2821
2104 2842
2104 2845
2104 2899
2104 2941
2104 3021
2104 3030
2104 3086
2104 3098
2104 3138
2104 3145
2104 3167
2104 3183
2104 3193
2104 3212
2104 3274
2104 3301
2104 3316
2104 3408
2104 3450
2104 3465
2104 3510
2104 3638
2104 3705
2105 2125
2105 2218
2105 2469
2105 2783
2105 2804
2105 2842
2105 3458
2105 3557
2106 2396
2106 3391
2107 2250
2107 2251
2107 2284
2107 2544
2107 2556
2107 2589
2107 2815
2107 3252
2107 3382
2108 2409
2108 2925
2108 3038
2108 3431
2108 3546
2109 2333
2109 2392
2109 2509
2109 2581
2109 2631
2109 2713
2109 3108
2109 3124
2109 3146
2109 3273
2109 3376
2109 3665
2109 3679
2110 2174
2110 2191
2110 2210
2110 2371
2110 2372
2110 2408
2110 2536
2110 2591
2110 2628
2110 2661
2110 2695
2110 2716
2110 2954
2110 3223
2110 3241
2110 3580
2111 2352
2111 2394
2111 2474
2111 2619
2111 2635
2111 2799
2111 2838
2111 2916
2111 2943
2111 3077
2111 3117
2111 3371
2111 3462
2111 3531
2111 3659
2111 3675
2111 3718
2112 2168
2112 2176
2112 2329
2112 2369
2112 2390
2112 2469
2112 2601
2112 2636
2112 2755
2112 2821
2112 2842
2112 2859
2112 2895
2112 2941
2112 3007
2112 3021
2112 3086
2112 3129
2112 3178
2112 3183
2112 3258
2112 3332
2112 3399
2112 3405
2112 3430
2112 3450
2112 3465
2112 3510
2112 3638
2112 3640
2112 3641
2113 2158
2113 2178
2113 2189
2113 2416
2113 2460
2113 2547
2113 2682
2113 2741
2113 2771
2113 2974
2113 2981
2113 3010
2113 3211
2113 3297
2113 3304
2113 3439
2113 3562
2113 3585
2114 2224
2114 2440
2114 2452
2114 2464
2114 2511
2114 2660
2114 2731
2114 2755
2114 2859
2114 2920
2114 2986
2114 3021
2114 3031
2114 3081
2114 3129
2114 3248
2114 3275
2114 3280
2114 3399
2114 3414
2114 3450
2114 3464
2114 3469
2114 3470
2114 3481
2114 3532
2114 3554
2114 3561
2114 3571
2114 3597
2114 3624
2114 3640
2114 3709
2114 3712
2115 2237
2115 2256
2115 2304
2115 2401
2115 2503
2115 2507
2115 2763
2115 2792
2115 2811
2115 2882
2115 2948
2115 3043
2115 3066
2115 3117
2115 3118
2115 3128
2115 3184
2115 3226
2115 3240
2115 3257
2115 3260
2115 3339
2115 3364
2115 3412
2115 3425
2115 3514
2115 3518
2115 3619
2115 3714
2115 3716
2115 3718
2116 2147
2116 2156
2116 2188
2116 2235
2116 2308
2116 2503
2116 2588
2116 2606
2116 2612
2116 2627
2116 2630
2116 2809
2116 2852
2116 2940
2116 2949
2116 2978
2116 3015
2116 3043
2116 3048
2116 3107
2116 3117
2116 3184
2116 3226
2116 3257
2116 3417
2116 3431
2116 3523
2116 3569
2116 3616
2116 3655
2116 3704
2117 2142
2117 2999
2117 3153
2118 2396
2118 2525
2118 2975
2118 3222
2118 3418
2118 3638
2119 2131
2119 2133
2119 2206
2119 2323
2119 2363
2119 2438
2119 2933
2119 2938
2119 2948
2119 2999
2119 3003
2119 3075
2119 3128
2119 3131
2119 3193
2119 3563
2119 3618
2119 3698
2120 2219
2120 2307
2120 2357
2120 2604
2120 2668
2120 2815
2120 2907
2120 3000
2120 3093
2120 3224
2120 3296
2120 3428
2120 3507
2120 3536
2120 3575
2120 3652
2121 2238
2121 2251
2121 2516
2121 2544
2121 2556
2121 2815
2121 2911
2121 2973
2121 3055
2121 3288
2121 3306
2121 3317
2121 3346
2121 3382
2121 3478
2121 3656
2121 3687
2122 2174
2122 2177
2122 2191
2122 2235
2122 2293
2122 2319
2122 2377
2122 2430
2122 2460
2122 2482
2122 2597
2122 2648
2122 2650
2122 2689
2122 2733
2122 2877
2122 2964
2122 2974
2122 3006
2122 3061
2122 3160
2122 3376
2122 3392
2122 3516
2122 3606
2122 3695
2123 2302
2123 3697
2124 2440
2124 2511
2124 3275
2125 2174
2125 2218
2125 2259
2125 2273
2125 2290
2125 2292
2125 2321
2125 2324
2125 2378
2125 2478
2125 2492
2125 2507
2125 2551
2125 2582
2125 2620
2125 2640
2125 2664
2125 2730
2125 2734
2125 2745
2125 2766
2125 2791
2125 2794
2125 2804
2125 2856
2125 2879
2125 2961
2125 3021
2125 3029
2125 3047
2125 3068
2125 3070
2125 3071
2125 3096
2125 3106
2125 3116
2125 3139
2125 3147
2125 3180
2125 3183
2125 3227
2125 3245
2125 3272
2125 3301
2125 3349
2125 3366
2125 3370
2125 3386
2125 3415
2125 3451
2125 3458
2125 3466
2125 3477
2125 3534
2125 3540
2125 3557
2125 3599
2125 3635
2125 3689
2125 3717
2125 3734
2126 2387
2126 2516
2126 2667
2126 2853
2126 3022
2126 3032
2126 3316
2126 3382
2126 3529
2128 2148
2128 2235
2128 2325
2128 2330
2128 2359
2128 2645
2128 2708
2128 2710
2128 2782
2128 2804
2128 2866
2128 3193
2128 3203
2128 3212
2128 3339
2128 3364
2128 3449
2128 3473
2128 3491
2128 3545
2128 3692
2129 2170
2129 2210
2129 2297
2129 2378
2129 2429
2129 2485
2129 2564
2129 2583
2129 2605
2129 2607
2129 2648
2129 2680
2129 2703
2129 2741
2129 2749
2129 2751
2129 2766
2129 2808
2129 2960
2129 2984
2129 2999
2129 3071
2129 3098
2129 3190
2129 3194
2129 3359
2129 3389
2129 3440
2129 3575
2129 3661
2129 3669
2129 3695
2129 3696
2129 3718
2130 2358
2130 2508
2130 2575
2130 2933
2130 3194
2130 3399
2130 3455
2130 3588
2130 3618
2130 3651
2131 2316
2131 2414
2131 2605
2131 2999
2131 3259
2131 3312
2131 3404
2132 2148
2132 2174
2132 2177
2132 2256
2132 2323
2132 2363
2132 2438
2132 2449
2132 2583
2132 2666
2132 2669
2132 2679
2132 2881
2132 2902
2132 3010
2132 3043
2132 3279
2132 3376
2132 3404
2132 3452
2132 3585
2132 3613
2133 2157
2133 2206
2133 2262
2133 2339
2133 2372
2133 2413
2133 2429
2133 2473
2133 2553
2133 2608
2133 2622
2133 2721
2133 2728
2133 2869
2133 2907
2133 2950
2133 3020
2133 3053
2133 3101
2133 3121
2133 3190
2133 3194
2133 3259
2133 3444
2133 3603
2133 3674
2133 3702
2133 3705
2133 3724
2134 2264
2134 2265
2134 2287
2134 2295
2134 2438
2134 2455
2134 2495
2134 2559
2134 2640
2134 2649
2134 2664
2134 2733
2134 2791
2134 2856
2134 2906
2134 2908
2134 2988
2134 3047
2134 3075
2134 3097
2134 3124
2134 3139
2134 3220
2134 3239
2134 3245
2134 3272
2134 3312
2134 3396
2134 3452
2134 3466
2134 3547
2134 3666
2134 3689
2135 2141
2135 2174
2135 2201
2135 2224
2135 2237
2135 2242
2135 2406
2135 2437
2135 2438
2135 2497
2135 2540
2135 2575
2135 2648
2135 2825
2135 2946
2135 2951
2135 3222
2135 3234
2135 3271
2135 3349
2135 3389
2135 3396
2135 3404
2135 3492
2135 3523
2135 3528
2135 3562
2135 3575
2135 3578
2135 3645
2135 3649
2135 3659
2135 3718
2136 2151
2136 2201
2136 2281
2136 2282
2136 2300
2136 2323
2136 2346
2136 2362
2136 2642
2136 2654
2136 2687
2136 2700
2136 2790
2136 2805
2136 2812
2136 2956
2136 3016
2136 3265
2136 3288
2136 3290
2136 3317
2136 3404
2136 3523
2136 3656
2136 3691
2136 3739
2137 2253
2137 2279
2137 2356
2137 2656
2137 2706
2137 2772
2137 2829
2137 2917
2137 2966
2137 2991
2137 3324
2137 3360
2137 3413
2137 3585
2137 3622
2137 3686
2138 2147
2138 2259
2138 2308
2138 2404
2138 2410
2138 2412
2138 2416
2138 2473
2138 2554
2138 2557
2138 2703
2138 2737
2138 2745
2138 2809
2138 2912
2138 2956
2138 2962
2138 2964
2138 3007
2138 3015
2138 3034
2138 3120
2138 3138
2138 3301
2138 3309
2138 3332
2138 3339
2138 3399
2138 3455
2138 3466
2138 3585
2138 3595
2138 3687
2138 3744
2139 2152
2139 2234
2139 2333
2139 2360
2139 2462
2139 2485
2139 2543
2139 2667
2139 2713
2139 2809
2139 2827
2139 2905
2139 2912
2139 3226
2139 3377
2139 3424
2139 3478
2139 3528
2139 3600
2139 3695
2139 3714
2140 2360
2140 2400
2140 2717
2140 2761
2140 2919
2140 3013
2140 3196
2140 3225
2140 3423
2140 3715
2141 2152
2141 2174
2141 2177
2141 2219
2141 2406
2141 2408
2141 2438
2141 2498
2141 2528
2141 2575
2141 2605
2141 2658
2141 2696
2141 2743
2141 2763
2141 2809
2141 2825
2141 2877
2141 2908
2141 2944
2141 2948
2141 2998
2141 3012
2141 3075
2141 3109
2141 3115
2141 3139
2141 3159
2141 3227
2141 3234
2141 3349
2141 3376
2141 3385
2141 3389
2141 3424
2141 3513
2141 3547
2141 3575
2141 3578
2141 3649
2141 3729
2142 2167
2142 2177
2142 2202
2142 2222
2142 2229
2142 2418
2142 2460
2142 2652
2142 2734
2142 2778
2142 2865
2142 2933
2142 2964
2142 2974
2142 3014
2142 3061
2142 3160
2142 3205
2142 3339
2142 3376
2142 3417
2142 3466
2142 3526
2142 3559
2142 3617
2143 3659
2144 2229
2144 2240
2144 2250
2144 2363
2144 2374
2144 2445
2144 2460
2144 2466
2144 2480
2144 2515
2144 2564
2144 2648
2144 2695
2144 2721
2144 2751
2144 2766
2144 2791
2144 2877
2144 2884
2144 2889
2144 2899
2144 2944
2144 2971
2144 3003
2144 3065
2144 3189
2144 3223
2144 3296
2144 3355
2144 3623
2144 3661
2144 3683
2146 2210
2146 2238
2146 2293
2146 2308
2146 2320
2146 2337
2146 2400
2146 2474
2146 2482
2146 2597
2146 2682
2146 2713
2146 2767
2146 2814
2146 2882
2146 2962
2146 2998
2146 3012
2146 3021
2146 3044
2146 3057
2146 3093
2146 3109
2146 3167
2146 3211
2146 3261
2146 3424
2146 3446
2146 3528
2146 3534
2146 3641
2146 3683
2146 3716
2147 2234
2147 2238
2147 2333
2147 2474
2147 2492
2147 2510
2147 2544
2147 2809
2147 2912
2147 2942
2147 3203
2147 3226
2147 3386
2147 3417
2147 3449
2147 3466
2147 3510
2147 3518
2147 3594
2147 3641
2147 3695
2147 3700
2148 2174
2148 2201
2148 2447
2148 2449
2148 2496
2148 2540
2148 2645
2148 2648
2148 2688
2148 2782
2148 2802
2148 2804
2148 2866
2148 2877
2148 3010
2148 3091
2148 3092
2148 3117
2148 3122
2148 3127
2148 3128
2148 3164
2148 3179
2148 3203
2148 3265
2148 3354
2148 3404
2148 3491
2148 3654
2148 3691
2148 3692
2148 3718
2149 2337
2149 2408
2149 2609
2149 2710
2149 2752
2149 2994
2149 3057
2149 3059
2149 3718
2150 2213
2150 2681
2150 2695
2150 2728
2150 3015
2150 3167
2150 3214
2150 3335
2150 3408
2150 3424
2150 3436
2150 3726
2150 3743
2151 2177
2151 2205
2151 2229
2151 2307
2151 2314
2151 2432
2151 2509
2151 2583
2151 2700
2151 2760
2151 2763
2151 2790
2151 2840
2151 3016
2151 3119
2151 3316
2151 3368
2151 3457
2151 3507
2151 3599
2151 3630
2151 3652
2151 3696
2151 3729
2151 3731
2151 3739
2152 2242
2152 2333
2152 2367
2152 2418
2152 2462
2152 2485
2152 2575
2152 2632
2152 2672
2152 2713
2152 2772
2152 2801
2152 2828
2152 2830
2152 2869
2152 2946
2152 2966
2152 3012
2152 3026
2152 3160
2152 3209
2152 3330
2152 3364
2152 3376
2152 3377
2152 3516
2152 3520
2152 3528
2152 3538
2152 3568
2152 3600
2152 3703
2152 3714
2153 2443
2153 2784
2154 2219
2154 2463
2154 2474
2154 2752
2154 2795
2154 2920
2155 2788
2155 2964
2155 3210
2155 3575
2155 3625
2156 2234
2156 2237
2156 2262
2156 2360
2156 2410
2156 2467
2156 2631
2156 2793
2156 2808
2156 2809
2156 2912
2156 3045
2156 3073
2156 3080
2156 3102
2156 3109
2156 3226
2156 3247
2156 3359
2156 3388
2156 3449
2156 3573
2156 3594
2156 3603
2156 3620
2156 3720
2156 3721
2156 3728
2157 2602
2157 2746
2157 2956
2157 3243
2157 3405
2157 3513
2157 3534
2157 3681
2158 2209
2158 2362
2158 2416
2158 2432
2158 2445
2158 2478
2158 2507
2158 2582
2158 2589
2158 2595
2158 2615
2158 2617
2158 2625
2158 2682
2158 2703
2158 2705
2158 2710
2158 2730
2158 2741
2158 2751
2158 2767
2158 2774
2158 2808
2158 2911
2158 2956
2158 2973
2158 3055
2158 3093
2158 3096
2158 3106
2158 3108
2158 3150
2158 3173
2158 3183
2158 3193
2158 3212
2158 3300
2158 3304
2158 3339
2158 3370
2158 3430
2158 3458
2158 3540
2158 3575
2158 3624
2158 3681
2158 3688
2158 3689
2158 3695
2158 3721
2158 3726
2158 3731
2159 2179
2159 2356
2159 2520
2159 2544
2159 2581
2159 2605
2159 2628
2159 2693
2159 2723
2159 2852
2159 2972
2159 2973
2159 3037
2159 3087
2159 3112
2159 3166
2159 3186
2159 3192
2159 3376
2159 3385
2159 3419
2159 3446
2159 3516
2159 3668
2159 3684
2159 3686
2159 3729
2160 2178
2160 2347
2160 2369
2160 2425
2160 2677
2160 2687
2160 2746
2160 2821
2160 2920
2160 2941
2160 2973
2160 3021
2160 3078
2160 3086
2160 3105
2160 3129
2160 3183
2160 3224
2160 3430
2160 3450
2160 3465
2160 3638
2161 2232
2161 2364
2161 2471
2161 2544
2161 2680
2161 2810
2161 2908
2161 3120
2161 3172
2161 3237
2161 3364
2161 3414
2161 3587
2161 3603
2161 3628
2161 3664
2161 3675
2161 3711
2162 2635
2162 3171
2162 3724
2163 2353
2163 2866
2163 2956
2163 3203
2164 2176
2164 2639
2164 2924
2164 2982
2164 3028
2164 3535
2164 3603
2165 2251
2165 2392
2165 2406
2165 2567
2165 2628
2165 2689
2165 2723
2165 2771
2165 2883
2165 2884
2165 3364
2165 3371
2165 3638
2166 2229
2166 2245
2166 2368
2166 2555
2166 2615
2166 2795
2166 2956
2166 3016
2166 3070
2166 3102
2166 3237
2166 3303
2166 3569
2166 3620
2166 3703
2167 2440
2167 2878
2167 3081
2167 3268
2167 3427
2167 3463
2168 2289
2168 2345
2168 2412
2168 2510
2168 2538
2168 2601
2168 2617
2168 2707
2168 2710
2168 2755
2168 2842
2168 2973
2168 3000
2168 3021
2168 3138
2168 3188
2168 3224
2168 3274
2168 3316
2168 3370
2168 3450
2168 3451
2168 3585
2168 3599
2168 3624
2168 3718
2169 2439
2169 2536
2169 2628
2169 2817
2169 3361
2169 3372
2169 3703
2170 2219
2170 2257
2170 2265
2170 2287
2170 2337
2170 2356
2170 2397
2170 2400
2170 2455
2170 2559
2170 2648
2170 2655
2170 2703
2170 2706
2170 2772
2170 2773
2170 2781
2170 2808
2170 2809
2170 2813
2170 2822
2170 2827
2170 2888
2170 2933
2170 2956
2170 3009
2170 3012
2170 3059
2170 3111
2170 3124
2170 3145
2170 3146
2170 3150
2170 3194
2170 3243
2170 3278
2170 3297
2170 3337
2170 3359
2170 3385
2170 3413
2170 3456
2170 3491
2170 3563
2170 3575
2170 3578
2170 3618
2170 3621
2170 3695
2170 3696
2170 3721
2171 2370
2171 2416
2171 2514
2171 2609
2171 2710
2171 2752
2171 2994
2171 3057
2171 3071
2171 3513
2172 2964
2174 2177
2174 2183
2174 2197
2174 2201
2174 2219
2174 2230
2174 2235
2174 2242
2174 2287
2174 2316
2174 2319
2174 2352
2174 2392
2174 2406
2174 2408
2174 2428
2174 2438
2174 2460
2174 2474
2174 2476
2174 2528
2174 2540
2174 2559
2174 2575
2174 2581
2174 2608
2174 2617
2174 2619
2174 2640
2174 2649
2174 2658
2174 2665
2174 2679
2174 2696
2174 2733
2174 2780
2174 2802
2174 2809
2174 2812
2174 2839
2174 2850
2174 2877
2174 2916
2174 2933
2174 2944
2174 2961
2174 2985
2174 3004
2174 3006
2174 3010
2174 3021
2174 3075
2174 3091
2174 3092
2174 3096
2174 3098
2174 3122
2174 3127
2174 3131
2174 3134
2174 3151
2174 3227
2174 3234
2174 3265
2174 3282
2174 3349
2174 3354
2174 3376
2174 3389
2174 3392
2174 3396
2174 3404
2174 3408
2174 3435
2174 3446
2174 3492
2174 3497
2174 3523
2174 3528
2174 3531
2174 3547
2174 3566
2174 3578
2174 3629
2174 3645
2174 3649
2174 3654
2174 3662
2174 3689
2174 3712
2174 3718
2175 2872
2176 2225
2176 2309
2176 2369
2176 2390
2176 2406
2176 2423
2176 2445
2176 2469
2176 2601
2176 2636
2176 2650
2176 2686
2176 2755
2176 2821
2176 2895
2176 2982
2176 2986
2176 3021
2176 3086
2176 3128
2176 3129
2176 3152
2176 3230
2176 3258
2176 3274
2176 3316
2176 3399
2176 3450
2176 3597
2176 3640
2176 3744
2177 2201
2177 2202
2177 2222
2177 2230
2177 2256
2177 2319
2177 2350
2177 2352
2177 2363
2177 2373
2177 2422
2177 2513
2177 2556
2177 2575
2177 2583
2177 2593
2177 2648
2177 2655
2177 2778
2177 2828
2177 2865
2177 2877
2177 2881
2177 2933
2177 2964
2177 2973
2177 3061
2177 3110
2177 3119
2177 3199
2177 3205
2177 3234
2177 3265
2177 3316
2177 3376
2177 3404
2177 3528
2177 3559
2177 3606
2177 3662
2177 3692
2177 3695
2177 3718
2177 3729
2178 2333
2178 2425
2178 2631
2178 2973
2178 3108
2178 3129
2178 3568
2178 3585
2178 3638
2179 2502
2179 2581
2179 2661
2179 2693
2179 2723
2179 2972
2179 3087
2179 3166
2179 3234
2179 3376
2179 3390
2179 3446
2179 3516
2179 3668
2179 3684
2179 3686
2179 3711
2180 2294
2180 2548
2180 3162
2181 2263
2181 2338
2181 2361
2181 2472
2181 2965
2181 3546
2182 2762
2182 2875
2182 3021
2183 2839
2183 2922
2183 2941
2183 3179
2183 3192
2183 3412
2183 3562
2184 2314
2184 2386
2184 2459
2184 2625
2184 2647
2184 2677
2184 2827
2184 3007
2184 3098
2184 3119
2184 3626
2184 3630
2185 2243
2185 2273
2185 2671
2185 2955
2185 3051
2185 3321
2186 2217
2186 2229
2186 2250
2186 2300
2186 2306
2186 2321
2186 2404
2186 2513
2186 2578
2186 2582
2186 2741
2186 2915
2186 2981
2186 3018
2186 3021
2186 3029
2186 3030
2186 3055
2186 3074
2186 3120
2186 3251
2186 3253
2186 3266
2186 3306
2186 3323
2186 3325
2186 3337
2186 3349
2186 3379
2186 3416
2186 3444
2186 3465
2186 3536
2186 3687
2186 3719
2186 3726
2186 3745
2187 2282
2187 2388
2187 2656
2187 2725
2187 2819
2187 2844
2187 2907
2187 2988
2187 3095
2187 3314
2187 3445
2187 3564
2187 3605
2187 3628
2187 3641
2188 2224
2188 2394
2188 2407
2188 2410
2188 2416
2188 2571
2188 2608
2188 2682
2188 2791
2188 2794
2188 2808
2188 2826
2188 2882
2188 3041
2188 3101
2188 3153
2188 3301
2188 3312
2188 3415
2188 3417
2188 3639
2189 2429
2189 2481
2189 2559
2189 2639
2189 2751
2189 2763
2189 2791
2189 2838
2189 2908
2189 2981
2189 3145
2189 3297
2189 3538
2189 3569
2189 3601
2189 3603
2189 3696
2190 2271
2190 2287
2190 2408
2190 2559
2190 2775
2190 2887
2190 2923
2190 2984
2190 3066
2190 3128
2190 3210
2190 3240
2190 3632
2190 3704
2190 3715
2191 2323
2191 2460
2191 2536
2191 2591
2191 2611
2191 2628
2191 2683
2191 2836
2191 3112
2191 3192
2191 3241
2191 3280
2191 3474
2191 3554
2191 3569
2191 3598
2192 2279
2193 3503
2194 2387
2194 3251
2194 3306
2194 3667
2195 3081
2195 3365
2195 3391
2196 2323
2197 2242
2197 2699
2197 3228
2197 3507
2197 3645
2197 3654
2199 3312
2199 3415
2200 2489
2200 2677
2200 2737
2200 3104
2201 2219
2201 2222
2201 2242
2201 2271
2201 2293
2201 2333
2201 2346
2201 2356
2201 2392
2201 2406
2201 2419
2201 2447
2201 2540
2201 2581
2201 2583
2201 2595
2201 2615
2201 2619
2201 2642
2201 2648
2201 2658
2201 2666
2201 2679
2201 2687
2201 2700
2201 2713
2201 2779
2201 2790
2201 2802
2201 2812
2201 2827
2201 2877
2201 2881
2201 2956
2201 2973
2201 3004
2201 3006
2201 3091
2201 3112
2201 3122
2201 3127
2201 3153
2201 3190
2201 3253
2201 3265
2201 3273
2201 3354
2201 3385
2201 3392
2201 3396
2201 3404
2201 3435
2201 3514
2201 3575
2201 3654
2201 3659
2201 3698
2201 3704
2201 3718
2201 3736
2201 3739
2202 2655
2202 2778
2202 2808
2202 2828
2202 2865
2202 2964
2202 3015
2202 3061
2202 3205
2202 3526
2202 3559
2203 2237
2203 2356
2203 2452
2203 2611
2203 2776
2203 3150
2203 3271
2203 3298
2203 3333
2203 3351
2203 3365
2203 3467
2203 3487
2204 2298
2204 2323
2204 2422
2204 2481
2204 2492
2204 2547
2204 2804
2204 2881
2204 2882
2204 2907
2204 2919
2204 2966
2204 3151
2204 3649
2205 2206
2205 2210
2205 2251
2205 2548
2205 2560
2205 2666
2205 2878
2205 2944
2205 2989
2205 3016
2205 3079
2205 3153
2205 3265
2205 3382
2205 3423
2205 3573
2205 3598
2205 3601
2205 3612
2205 3641
2205 3726
2205 3736
2206 2219
2206 2249
2206 2251
2206 2303
2206 2324
2206 2363
2206 2452
2206 2514
2206 2548
2206 2717
2206 2827
2206 2877
2206 2881
2206 2944
2206 2960
2206 3030
2206 3043
2206 3046
2206 3054
2206 3058
2206 3075
2206 3121
2206 3131
2206 3142
2206 3185
2206 3259
2206 3339
2206 3410
2206 3426
2206 3460
2206 3522
2206 3575
2206 3584
2206 3690
2206 3693
2206 3734
2206 3745
2207 2516
2207 2973
2207 3466
2207 3496
2208 2540
2208 2573
2208 2780
2208 2790
2208 2839
2208 3484
2208 3606
2209 2371
2209 2574
2209 2615
2209 2730
2209 2767
2209 2773
2209 2774
2209 2819
2209 2836
2209 2861
2209 2911
2209 2956
2209 2967
2209 3016
2209 3093
2209 3096
2209 3106
2209 3150
2209 3183
2209 3207
2209 3540
2209 3561
2209 3682
2209 3683
2209 3688
2209 3689
2209 3731
2210 2316
2210 2337
2210 2429
2210 2430
2210 2462
2210 2474
2210 2544
2210 2553
2210 2559
2210 2615
2210 2639
2210 2668
2210 2683
2210 2687
2210 2703
2210 2808
2210 2836
2210 2882
2210 2907
2210 2944
2210 2966
2210 2973
2210 3083
2210 3129
2210 3150
2210 3169
2210 3266
2210 3342
2210 3476
2210 3521
2210 3534
2210 3562
2210 3575
2210 3603
2210 3639
2210 3675
2210 3682
2210 3702
2210 3717
2210 3721
2210 3737
2211 2222
2211 2370
2211 2372
2211 2528
2211 2544
2211 2626
2211 2699
2211 2771
2211 2790
2211 2884
2211 2888
2211 2956
2211 2974
2211 3094
2211 3249
2211 3339
2211 3406
2211 3482
2211 3504
2211 3513
2211 3578
2211 3642
2212 2241
2212 2372
2212 2374
2212 2440
2212 2442
2212 2771
2212 2878
2212 2884
2212 3003
2212 3137
2212 3223
2212 3278
2212 3423
2212 3456
2212 3477
2212 3509
2212 3598
2212 3636
2212 3683
2212 3742
2213 2252
2213 2319
2213 2416
2213 2474
2213 2625
2213 2700
2213 2808
2213 2885
2213 3070
2213 3173
2213 3214
2213 3349
2213 3399
2213 3478
2213 3573
2213 3726
2213 3736
2213 3743
2214 3567
2215 2625
2215 3007
2215 3158
2215 3332
2216 2791
2216 2944
2216 3171
2216 3196
2216 3259
2216 3383
2216 3400
2216 3584
2216 3727
2217 2266
2217 2289
2217 2334
2217 2387
2217 2431
2217 2440
2217 2452
2217 2489
2217 2539
2217 2554
2217 2634
2217 2660
2217 2685
2217 2724
2217 2731
2217 2770
2217 2782
2217 2789
2217 2836
2217 2986
2217 3021
2217 3031
2217 3053
2217 3055
2217 3081
2217 3197
2217 3238
2217 3248
2217 3251
2217 3271
2217 3275
2217 3306
2217 3420
2217 3465
2217 3487
2217 3533
2217 3554
2217 3603
2217 3667
2217 3682
2217 3693
2218 2229
2218 2321
2218 2512
2218 2582
2218 2664
2218 2745
2218 2766
2218 2804
2218 3184
2218 3325
2218 3386
2218 3415
2218 3445
2218 3599
2219 2221
2219 2229
2219 2235
2219 2236
2219 2250
2219 2257
2219 2287
2219 2291
2219 2292
2219 2316
2219 2319
2219 2321
2219 2326
2219 2337
2219 2365
2219 2397
2219 2408
2219 2414
2219 2418
2219 2430
2219 2438
2219 2445
2219 2455
2219 2474
2219 2485
2219 2492
2219 2512
2219 2513
2219 2528
2219 2547
2219 2551
2219 2559
2219 2583
2219 2617
2219 2620
2219 2635
2219 2638
2219 2640
2219 2648
2219 2649
2219 2658
2219 2696
2219 2703
2219 2724
2219 2741
2219 2745
2219 2751
2219 2763
2219 2767
2219 2783
2219 2791
2219 2792
2219 2804
2219 2805
2219 2808
2219 2848
2219 2856
2219 2877
2219 2879
2219 2901
2219 2944
2219 2956
2219 2962
2219 2967
2219 2973
2219 3008
2219 3015
2219 3023
2219 3026
2219 3030
2219 3047
2219 3068
2219 3070
2219 3075
2219 3098
2219 3101
2219 3115
2219 3124
2219 3136
2219 3139
2219 3145
2219 3147
2219 3150
2219 3153
2219 3164
2219 3169
2219 3191
2219 3227
2219 3234
2219 3243
2219 3253
2219 3261
2219 3317
2219 3325
2219 3337
2219 3339
2219 3349
2219 3366
2219 3385
2219 3386
2219 3389
2219 3396
2219 3426
2219 3433
2219 3452
2219 3466
2219 3477
2219 3489
2219 3510
2219 3516
2219 3518
2219 3531
2219 3553
2219 3558
2219 3562
2219 3573
2219 3575
2219 3578
2219 3592
2219 3601
2219 3611
2219 3617
2219 3620
2219 3629
2219 3639
2219 3649
2219 3675
2219 3687
2219 3715
2219 3717
2219 3721
2219 3734
2219 3745
2219 3746
2220 2464
2220 2660
2220 2838
2220 2865
2220 3083
2220 3163
2220 3176
2221 2236
2221 2291
2221 2292
2221 2316
2221 2326
2221 2360
2221 2365
2221 2414
2221 2418
2221 2430
2221 2455
2221 2551
2221 2555
2221 2596
2221 2615
2221 2620
2221 2771
2221 2783
2221 2791
2221 2849
2221 2879
2221 2912
2221 2956
2221 3023
2221 3102
2221 3153
2221 3169
2221 3191
2221 3226
2221 3253
2221 3359
2221 3449
2221 3466
2221 3477
2221 3553
2221 3558
2221 3575
2221 3611
2221 3617
2221 3629
2221 3638
2221 3721
2222 2256
2222 2333
2222 2350
2222 2372
2222 2460
2222 2463
2222 2493
2222 2593
2222 2623
2222 2734
2222 2771
2222 2788
2222 2877
2222 2878
2222 2933
2222 2974
2222 3122
2222 3137
2222 3249
2222 3329
2222 3443
2222 3453
2222 3462
2222 3504
2222 3573
2222 3659
2222 3680
2223 2232
2223 2347
2223 2454
2223 2531
2223 2568
2223 2604
2223 2807
2223 2908
2223 3027
2223 3034
2223 3078
2223 3137
2223 3266
2223 3277
2223 3288
2223 3571
2223 3600
2224 2396
2224 2608
2224 2680
2224 2724
2224 2825
2224 2826
2224 2975
2224 3008
2224 3081
2224 3222
2224 3301
2224 3312
2224 3459
2224 3546
2224 3586
2225 2390
2225 2412
2225 2601
2225 2842
2225 2895
2225 3021
2225 3047
2225 3274
2225 3450
2225 3466
2225 3534
2225 3585
2225 3640
2226 2276
2226 2370
2226 2408
2226 2443
2226 2689
2226 3076
2226 3504
2229 2240
2229 2250
2229 2254
2229 2321
2229 2367
2229 2369
2229 2404
2229 2429
2229 2445
2229 2513
2229 2551
2229 2553
2229 2564
2229 2578
2229 2582
2229 2588
2229 2622
2229 2681
2229 2703
2229 2705
2229 2741
2229 2745
2229 2751
2229 2753
2229 2755
2229 2766
2229 2797
2229 2808
2229 2848
2229 2889
2229 2915
2229 2944
2229 2959
2229 2981
2229 2989
2229 3021
2229 3029
2229 3030
2229 3054
2229 3059
2229 3068
2229 3071
2229 3075
2229 3098
2229 3131
2229 3136
2229 3169
2229 3209
2229 3259
2229 3309
2229 3323
2229 3325
2229 3337
2229 3349
2229 3359
2229 3373
2229 3410
2229 3444
2229 3445
2229 3477
2229 3511
2229 3544
2229 3547
2229 3562
2229 3575
2229 3601
2229 3669
2229 3674
2229 3683
2229 3687
2229 3745
2230 2352
2230 2370
2230 2547
2230 2648
2230 2916
2230 3649
2230 3662
2231 2486
2231 3374
2232 2364
2232 2471
2232 2531
2232 2544
2232 2807
2232 2810
2232 2829
2232 2989
2232 3027
2232 3038
2232 3237
2232 3361
2232 3371
2232 3507
2232 3523
2232 3587
2232 3603
2232 3664
2232 3703
2232 3711
2232 3741
2233 2473
2233 2780
2233 3072
2233 3270
2233 3603
2234 2360
2234 2555
2234 2655
2234 2787
2234 2808
2234 2809
2234 2865
2234 2912
2234 3102
2234 3193
2234 3212
2234 3226
2234 3388
2234 3449
2234 3575
2234 3594
2234 3608
2234 3720
2234 3721
2235 2264
2235 2276
2235 2295
2235 2319
2235 2325
2235 2359
2235 2430
2235 2438
2235 2455
2235 2492
2235 2640
2235 2662
2235 2665
2235 2708
2235 2791
2235 2846
2235 2850
2235 2856
2235 2882
2235 2971
2235 3010
2235 3015
2235 3021
2235 3040
2235 3061
2235 3108
2235 3164
2235 3171
2235 3184
2235 3245
2235 3260
2235 3382
2235 3386
2235 3463
2235 3466
2235 3524
2235 3534
2235 3547
2235 3578
2235 3585
2235 3635
2235 3640
2235 3689
2235 3718
2236 2250
2236 2251
2236 2291
2236 2316
2236 2326
2236 2353
2236 2363
2236 2365
2236 2414
2236 2418
2236 2430
2236 2455
2236 2513
2236 2515
2236 2551
2236 2596
2236 2620
2236 2638
2236 2745
2236 2763
2236 2783
2236 2791
2236 2849
2236 2856
2236 2879
2236 2899
2236 2944
2236 2956
2236 2973
2236 3002
2236 3023
2236 3030
2236 3047
2236 3070
2236 3115
2236 3123
2236 3137
2236 3147
2236 3153
2236 3167
2236 3169
2236 3171
2236 3191
2236 3227
2236 3234
2236 3253
2236 3259
2236 3343
2236 3466
2236 3477
2236 3479
2236 3516
2236 3553
2236 3558
2236 3575
2236 3611
2236 3617
2236 3629
2236 3639
2237 2262
2237 2266
2237 2319
2237 2337
2237 2410
2237 2467
2237 2474
2237 2515
2237 2579
2237 2645
2237 2723
2237 2793
2237 2832
2237 2856
2237 2870
2237 2904
2237 2928
2237 2960
2237 2985
2237 3045
2237 3117
2237 3124
2237 3146
2237 3192
2237 3199
2237 3210
2237 3234
2237 3247
2237 3278
2237 3368
2237 3389
2237 3392
2237 3420
2237 3466
2237 3528
2237 3603
2237 3632
2237 3639
2237 3683
2237 3728
2238 2251
2238 2300
2238 2317
2238 2443
2238 2516
2238 2544
2238 2556
2238 2570
2238 2627
2238 2687
2238 2772
2238 2790
2238 2795
2238 2811
2238 2815
2238 2829
2238 2882
2238 2921
2238 2956
2238 2975
2238 2998
2238 3004
2238 3266
2238 3277
2238 3296
2238 3306
2238 3324
2238 3348
2238 3382
2238 3535
2238 3537
2238 3546
2238 3548
2238 3594
2238 3664
2238 3684
2238 3687
2238 3691
2240 2254
2240 2265
2240 2445
2240 2530
2240 2564
2240 2578
2240 2588
2240 2721
2240 2741
2240 2745
2240 2751
2240 2766
2240 2804
2240 2843
2240 2848
2240 2866
2240 2889
2240 2959
2240 3071
2240 3101
2240 3125
2240 3138
2240 3145
2240 3211
2240 3220
2240 3410
2240 3426
2240 3514
2240 3521
2240 3534
2240 3544
2240 3623
2240 3674
2240 3676
2240 3721
2241 2256
2241 3156
2241 3367
2242 2246
2242 2323
2242 2337
2242 2522
2242 2549
2242 2609
2242 2625
2242 2648
2242 2666
2242 2687
2242 2703
2242 2713
2242 2738
2242 2749
2242 2808
2242 2852
2242 2877
2242 2946
2242 2963
2242 3112
2242 3390
2242 3404
2242 3538
2242 3637
2242 3718
2242 3721
2242 3741
2243 2273
2243 2473
2243 2635
2243 2646
2243 2671
2243 2717
2243 2782
2243 2824
2243 2955
2243 2998
2243 3021
2243 3051
2243 3063
2243 3077
2243 3191
2243 3240
2243 3261
2243 3321
2243 3332
2243 3411
2243 3431
2243 3522
2243 3569
2243 3634
2243 3704
2244 2653
2245 2246
2245 2368
2245 2543
2245 2555
2245 2615
2245 3102
2245 3136
2245 3226
2245 3449
2245 3562
2246 2353
2246 2553
2246 2625
2246 2713
2246 2808
2246 2866
2246 3024
2246 3132
2246 3173
2246 3203
2246 3538
2246 3575
2246 3588
2246 3703
2247 2415
2247 2452
2247 3062
2248 2801
2249 2404
2249 2480
2249 2682
2249 2787
2249 2808
2249 2912
2249 2915
2249 2944
2249 2989
2249 3046
2249 3054
2249 3121
2249 3266
2249 3388
2249 3426
2249 3521
2249 3575
2249 3656
2249 3739
2249 3745
2250 2251
2250 2264
2250 2267
2250 2284
2250 2316
2250 2319
2250 2320
2250 2321
2250 2360
2250 2404
2250 2408
2250 2480
2250 2513
2250 2515
2250 2555
2250 2613
2250 2631
2250 2678
2250 2703
2250 2741
2250 2763
2250 2791
2250 2818
2250 2899
2250 2908
2250 2944
2250 2973
2250 3030
2250 3087
2250 3111
2250 3119
2250 3173
2250 3225
2250 3316
2250 3323
2250 3325
2250 3334
2250 3337
2250 3358
2250 3382
2250 3406
2250 3408
2250 3444
2250 3573
2250 3584
2250 3641
2250 3668
2250 3686
2250 3687
2250 3690
2250 3745
2251 2311
2251 2387
2251 2492
2251 2515
2251 2544
2251 2556
2251 2589
2251 2707
2251 2793
2251 2815
2251 2896
2251 2897
2251 2899
2251 2908
2251 2944
2251 2973
2251 3022
2251 3030
2251 3194
2251 3246
2251 3296
2251 3382
2251 3515
2251 3575
2251 3584
2251 3737
2252 2271
2252 2456
2252 2646
2252 2725
2252 2907
2252 2926
2252 2934
2252 2935
2252 3214
2252 3726
2252 3743
2253 2706
2253 2829
2253 2917
2253 3324
2253 3360
2254 2395
2254 2438
2254 2445
2254 2553
2254 2564
2254 2588
2254 2721
2254 2741
2254 2745
2254 2751
2254 2766
2254 2791
2254 2848
2254 2849
2254 2866
2254 2963
2254 3015
2254 3071
2254 3075
2254 3098
2254 3101
2254 3125
2254 3145
2254 3203
2254 3209
2254 3243
2254 3297
2254 3330
2254 3337
2254 3404
2254 3410
2254 3412
2254 3426
2254 3466
2254 3521
2254 3544
2254 3575
2254 3623
2254 3682
2254 3687
2254 3695
2254 3721
2255 2362
2255 2975
2255 3381
2256 2271
2256 2449
2256 2507
2256 2730
2256 2877
2256 2909
2256 2940
2256 3003
2256 3043
2256 3156
2256 3367
2256 3376
2256 3408
2256 3479
2256 3528
2256 3545
2256 3662
2256 3738
2257 2264
2257 2265
2257 2287
2257 2326
2257 2397
2257 2430
2257 2551
2257 2559
2257 2583
2257 2733
2257 2827
2257 2944
2257 3124
2257 3127
2257 3194
2257 3243
2257 3721
2259 2438
2259 2804
2259 3075
2259 3139
2259 3332
2260 2637
2261 2852
2262 2319
2262 2327
2262 2357
2262 2410
2262 2412
2262 2467
2262 2625
2262 2649
2262 2763
2262 2793
2262 3045
2262 3147
2262 3247
2262 3281
2262 3412
2262 3426
2262 3603
2262 3728
2263 2338
2263 2420
2263 2434
2263 2443
2263 2685
2263 2834
2263 3562
2264 2265
2264 2287
2264 2295
2264 2404
2264 2438
2264 2455
2264 2480
2264 2515
2264 2733
2264 2791
2264 2899
2264 2906
2264 2908
2264 3021
2264 3077
2264 3139
2264 3153
2264 3220
2264 3245
2264 3395
2264 3547
2264 3585
2264 3648
2264 3666
2265 2287
2265 2295
2265 2337
2265 2356
2265 2378
2265 2397
2265 2445
2265 2559
2265 2620
2265 2665
2265 2721
2265 2733
2265 2769
2265 2791
2265 2906
2265 2940
2265 2944
2265 3124
2265 3125
2265 3131
2265 3145
2265 3146
2265 3194
2265 3243
2265 3477
2265 3534
2265 3547
2265 3562
2265 3572
2265 3575
2265 3666
2265 3675
2265 3676
2265 3689
2265 3695
2265 3721
2266 2554
2266 2770
2266 3234
2266 3238
2267 2387
2267 2613
2267 2667
2267 2806
2267 2858
2267 3015
2267 3141
2267 3181
2267 3478
2268 2435
2268 2494
2268 2846
2268 3259
2268 3599
2268 3615
2268 3699
2269 2386
2269 2445
2269 2464
2269 2474
2269 2625
2269 2737
2269 2770
2269 2838
2269 2985
2269 2992
2269 3007
2269 3083
2269 3163
2269 3418
2269 3677
2270 2424
2270 2433
2270 2741
2270 3059
2270 3071
2270 3082
2270 3246
2270 3261
2270 3359
2270 3684
2270 3696
2270 3734
2271 2295
2271 2370
2271 2400
2271 2408
2271 2456
2271 2514
2271 2552
2271 2576
2271 2646
2271 2674
2271 2679
2271 2722
2271 2725
2271 2752
2271 2809
2271 2846
2271 2877
2271 2926
2271 2935
2271 2994
2271 3041
2271 3043
2271 3046
2271 3065
2271 3249
2271 3404
2271 3412
2271 3419
2271 3461
2271 3503
2271 3609
2272 3671
2273 2372
2273 2635
2273 2671
2273 2716
2273 2955
2273 3051
2273 3321
2273 3332
2273 3411
2273 3466
2273 3624
2274 2419
2274 3110
2274 3515
2274 3536
2274 3564
2274 3668
2276 2319
2276 2337
2276 2368
2276 2369
2276 2408
2276 2424
2276 2469
2276 2517
2276 2525
2276 2528
2276 2555
2276 2575
2276 2583
2276 2626
2276 2635
2276 2657
2276 2699
2276 2721
2276 2788
2276 2792
2276 2809
2276 2841
2276 2901
2276 2956
2276 2985
2276 2998
2276 3012
2276 3077
2276 3094
2276 3101
2276 3102
2276 3284
2276 3378
2276 3385
2276 3388
2276 3417
2276 3449
2276 3500
2276 3504
2276 3513
2276 3569
2276 3578
2276 3586
2276 3599
2276 3624
2276 3642
2276 3685
2276 3690
2276 3709
2279 2328
2279 2356
2279 2452
2279 3294
2280 2984
2280 3447
2281 2346
2281 2642
2281 3278
2281 3626
2281 3704
2282 2323
2282 2346
2282 2372
2282 2413
2282 2417
2282 2544
2282 2654
2282 2771
2282 2809
2282 2817
2282 2819
2282 2821
2282 2884
2282 2911
2282 2918
2282 2925
2282 2963
2282 2973
2282 2988
2282 3012
2282 3016
2282 3137
2282 3139
2282 3172
2282 3183
2282 3234
2282 3288
2282 3306
2282 3368
2282 3372
2282 3437
2282 3628
2282 3638
2282 3687
2282 3691
2282 3728
2283 2340
2283 2514
2283 2544
2283 2687
2283 3224
2283 3342
2283 3360
2283 3677
2284 2387
2284 2460
2284 2516
2284 2589
2284 2812
2284 2815
2284 2878
2284 3022
2284 3059
2284 3252
2284 3300
2284 3316
2284 3382
2284 3479
2284 3513
2284 3529
2284 3598
2284 3684
2284 3686
2284 3692
2285 2891
2285 2942
2285 3048
2285 3096
2285 3336
2286 3391
2287 2295
2287 2299
2287 2352
2287 2363
2287 2397
2287 2428
2287 2438
2287 2445
2287 2447
2287 2455
2287 2476
2287 2478
2287 2482
2287 2507
2287 2512
2287 2517
2287 2528
2287 2540
2287 2547
2287 2551
2287 2559
2287 2583
2287 2588
2287 2640
2287 2648
2287 2649
2287 2664
2287 2665
2287 2699
2287 2733
2287 2769
2287 2775
2287 2791
2287 2827
2287 2850
2287 2871
2287 2906
2287 2923
2287 2939
2287 2942
2287 2944
2287 2961
2287 2980
2287 3010
2287 3069
2287 3070
2287 3077
2287 3097
2287 3117
2287 3124
2287 3134
2287 3145
2287 3146
2287 3153
2287 3164
2287 3191
2287 3220
2287 3227
2287 3243
2287 3245
2287 3264
2287 3270
2287 3273
2287 3323
2287 3336
2287 3349
2287 3386
2287 3396
2287 3404
2287 3435
2287 3452
2287 3493
2287 3531
2287 3534
2287 3547
2287 3557
2287 3575
2287 3578
2287 3621
2287 3648
2287 3649
2287 3666
2287 3669
2287 3675
2287 3689
2287 3695
2287 3717
2288 2323
2288 2399
2288 2408
2288 2661
2288 2954
2288 2956
2288 3120
2288 3195
2288 3278
2288 3289
2288 3418
2289 2369
2289 2374
2289 2416
2289 2432
2289 2440
2289 2469
2289 2510
2289 2521
2289 2539
2289 2601
2289 2710
2289 2829
2289 2842
2289 2845
2289 2920
2289 2937
2289 2973
2289 3000
2289 3007
2289 3021
2289 3076
2289 3103
2289 3120
2289 3129
2289 3138
2289 3145
2289 3183
2289 3193
2289 3207
2289 3212
2289 3224
2289 3332
2289 3394
2289 3430
2289 3465
2289 3510
2289 3599
2289 3624
2289 3638
2289 3672
2289 3728
2290 2378
2290 2478
2290 2601
2290 2636
2290 2755
2290 2804
2290 2842
2290 2895
2290 3021
2290 3029
2290 3116
2290 3178
2290 3180
2290 3274
2290 3450
2290 3557
2290 3640
2290 3648
2291 2316
2291 2326
2291 2365
2291 2413
2291 2414
2291 2418
2291 2430
2291 2445
2291 2455
2291 2492
2291 2551
2291 2596
2291 2620
2291 2658
2291 2724
2291 2745
2291 2783
2291 2791
2291 2805
2291 2809
2291 2849
2291 2879
2291 2901
2291 2942
2291 2956
2291 2973
2291 3015
2291 3023
2291 3047
2291 3070
2291 3071
2291 3137
2291 3139
2291 3169
2291 3171
2291 3183
2291 3227
2291 3253
2291 3272
2291 3349
2291 3386
2291 3466
2291 3477
2291 3553
2291 3558
2291 3575
2291 3585
2291 3601
2291 3611
2291 3617
2291 3629
2291 3630
2291 3666
2291 3689
2292 2430
2292 2640
2292 2648
2292 2791
2292 2856
2292 2944
2292 3047
2292 3070
2292 3147
2292 3153
2292 3234
2292 3245
2292 3349
2292 3366
2292 3386
2292 3396
2292 3435
2292 3466
2292 3578
2292 3635
2293 2323
2293 2422
2293 2447
2293 2474
2293 2482
2293 2581
2293 2856
2293 2881
2293 3083
2293 3163
2293 3376
2293 3384
2293 3536
2293 3575
2293 3603
2293 3702
2293 3718
2294 2548
2294 2611
2294 2722
2294 2835
2294 3162
2294 3419
2295 2337
2295 2438
2295 2455
2295 2513
2295 2514
2295 2515
2295 2559
2295 2599
2295 2645
2295 2649
2295 2725
2295 2733
2295 2791
2295 2835
2295 2906
2295 2908
2295 2988
2295 3077
2295 3124
2295 3139
2295 3145
2295 3153
2295 3194
2295 3210
2295 3243
2295 3245
2295 3312
2295 3336
2295 3396
2295 3519
2295 3547
2295 3575
2295 3666
2295 3676
2296 2450
2296 3110
2297 2323
2297 2973
2298 2406
2298 2421
2298 2458
2298 2547
2298 2612
2298 2648
2298 2792
2298 2809
2298 2919
2298 2940
2298 2988
2298 3072
2298 3264
2298 3482
2298 3504
2298 3560
2298 3647
2298 3649
2298 3650
2298 3722
2299 2319
2299 2330
2299 2333
2299 2337
2299 2394
2299 2400
2299 2401
2299 2406
2299 2438
2299 2483
2299 2554
2299 2559
2299 2596
2299 2613
2299 2668
2299 2732
2299 2751
2299 2763
2299 2791
2299 2811
2299 2827
2299 2868
2299 2912
2299 2951
2299 3000
2299 3075
2299 3076
2299 3096
2299 3098
2299 3108
2299 3179
2299 3181
2299 3231
2299 3234
2299 3257
2299 3349
2299 3364
2299 3389
2299 3489
2299 3518
2299 3575
2299 3578
2299 3595
2299 3605
2299 3619
2299 3649
2299 3674
2299 3690
2299 3734
2299 3746
2300 2307
2300 2317
2300 2347
2300 2364
2300 2422
2300 2461
2300 2543
2300 2568
2300 2622
2300 2642
2300 2669
2300 2687
2300 2751
2300 2819
2300 2935
2300 2973
2300 3018
2300 3078
2300 3120
2300 3230
2300 3266
2300 3288
2300 3317
2300 3364
2300 3496
2300 3575
2300 3652
2300 3711
2300 3739
2301 2640
2301 2978
2301 3164
2301 3669
2302 2724
2302 3008
2302 3375
2303 2452
2303 2944
2303 3121
2303 3201
2303 3460
2303 3584
2304 2308
2304 2381
2304 2480
2304 3021
2304 3066
2304 3090
2304 3189
2304 3388
2305 2816
2305 3663
2306 2751
2306 2804
2306 3045
2306 3096
2306 3156
2306 3330
2306 3433
2306 3514
2307 2544
2307 2604
2307 2668
2307 2815
2307 2947
2307 3093
2307 3112
2307 3145
2307 3182
2307 3219
2307 3266
2307 3292
2307 3395
2307 3426
2307 3428
2307 3462
2307 3507
2307 3575
2307 3652
2307 3675
2307 3683
2307 3687
2307 3716
2308 2336
2308 2404
2308 2445
2308 2508
2308 2557
2308 2596
2308 2597
2308 2809
2308 2912
2308 2962
2308 3015
2308 3143
2308 3145
2308 3193
2308 3199
2308 3211
2308 3212
2308 3226
2308 3585
2308 3616
2308 3640
2308 3661
2308 3716
2309 2445
2309 2650
2309 2672
2309 2808
2309 2830
2309 3152
2309 3640
2309 3682
2310 2364
2310 2418
2310 2522
2310 3111
2310 3141
2310 3345
2310 3358
2310 3407
2311 2337
2311 2396
2311 2474
2311 2763
2311 2908
2311 2922
2311 3009
2311 3123
2311 3234
2311 3296
2311 3546
2311 3638
2311 3714
2311 3745
2312 2710
2313 2499
2313 2530
2313 2867
2313 2942
2313 2944
2313 3260
2313 3334
2313 3599
2313 3724
2314 2406
2314 2438
2314 2509
2314 2556
2314 2583
2314 2710
2314 2734
2314 2760
2314 2787
2314 2790
2314 2840
2314 3119
2314 3126
2314 3133
2314 3234
2314 3316
2314 3318
2314 3349
2314 3457
2314 3578
2314 3630
2314 3696
2314 3729
2315 2333
2315 2971
2315 3360
2315 3442
2315 3466
2315 3543
2316 2365
2316 2406
2316 2408
2316 2413
2316 2414
2316 2418
2316 2430
2316 2544
2316 2551
2316 2565
2316 2604
2316 2617
2316 2620
2316 2667
2316 2743
2316 2783
2316 2791
2316 2809
2316 2849
2316 2879
2316 2912
2316 2973
2316 3015
2316 3047
2316 3075
2316 3093
2316 3098
2316 3137
2316 3145
2316 3169
2316 3214
2316 3220
2316 3235
2316 3253
2316 3349
2316 3426
2316 3466
2316 3478
2316 3553
2316 3558
2316 3575
2316 3611
2316 3617
2316 3629
2316 3687
2316 3721
2316 3734
2317 2347
2317 2568
2317 3078
2317 3266
2318 3137
2319 2401
2319 2408
2319 2412
2319 2485
2319 2496
2319 2508
2319 2531
2319 2534
2319 2570
2319 2583
2319 2649
2319 2662
2319 2666
2319 2688
2319 2753
2319 2779
2319 2849
2319 2850
2319 2877
2319 2944
2319 2951
2319 2964
2319 2966
2319 2985
2319 2999
2319 3026
2319 3043
2319 3083
2319 3119
2319 3143
2319 3231
2319 3243
2319 3270
2319 3334
2319 3347
2319 3354
2319 3364
2319 3382
2319 3429
2319 3491
2319 3518
2319 3530
2319 3536
2319 3573
2319 3599
2319 3613
2319 3617
2319 3619
2319 3630
2319 3684
2319 3695
2319 3704
2319 3713
2319 3715
2319 3718
2319 3729
2320 2378
2320 2485
2320 2515
2320 2808
2320 2899
2320 2960
2320 3021
2320 3030
2320 3098
2320 3661
2320 3668
2320 3669
2320 3680
2320 3695
2321 2404
2321 2438
2321 2513
2321 2551
2321 2582
2321 2587
2321 2635
2321 2703
2321 2741
2321 2755
2321 2842
2321 3029
2321 3139
2321 3145
2321 3164
2321 3193
2321 3301
2321 3323
2321 3325
2321 3337
2321 3415
2321 3444
2321 3578
2321 3619
2321 3675
2321 3735
2321 3745
2322 2622
2322 2918
2322 2997
2322 3123
2322 3705
2323 2346
2323 2369
2323 2374
2323 2408
2323 2416
2323 2417
2323 2422
2323 2447
2323 2474
2323 2482
2323 2516
2323 2549
2323 2571
2323 2581
2323 2605
2323 2624
2323 2626
2323 2628
2323 2680
2323 2693
2323 2707
2323 2720
2323 2723
2323 2738
2323 2845
2323 2848
2323 2881
2323 2907
2323 2925
2323 2963
2323 3000
2323 3010
2323 3021
2323 3038
2323 3095
2323 3112
2323 3120
2323 3127
2323 3151
2323 3224
2323 3234
2323 3288
2323 3296
2323 3320
2323 3364
2323 3368
2323 3371
2323 3376
2323 3392
2323 3426
2323 3429
2323 3437
2323 3508
2323 3536
2323 3603
2323 3687
2323 3691
2323 3702
2323 3718
2324 2363
2324 2412
2324 2492
2324 2514
2324 2533
2324 2553
2324 2554
2324 2571
2324 2655
2324 2703
2324 2745
2324 2751
2324 2791
2324 2808
2324 2907
2324 2960
2324 3068
2324 3098
2324 3101
2324 3121
2324 3145
2324 3153
2324 3183
2324 3242
2324 3243
2324 3259
2324 3272
2324 3349
2324 3426
2324 3445
2324 3466
2324 3520
2324 3521
2324 3575
2324 3639
2324 3712
2324 3734
2325 2330
2325 2631
2325 2708
2325 2858
2325 2912
2325 3080
2325 3212
2325 3257
2325 3412
2325 3449
2325 3473
2325 3503
2325 3651
2325 3700
2326 2365
2326 2414
2326 2418
2326 2428
2326 2430
2326 2551
2326 2559
2326 2566
2326 2620
2326 2783
2326 2849
2326 2956
2326 3023
2326 3127
2326 3553
2326 3558
2326 3575
2326 3617
2326 3629
2327 2545
2327 2717
2327 2978
2327 3522
2327 3659
2328 3006
2328 3374
2329 2369
2329 2390
2329 2469
2329 2601
2329 2636
2329 2755
2329 2821
2329 2895
2329 3000
2329 3007
2329 3021
2329 3152
2329 3183
2329 3316
2329 3399
2329 3450
2329 3465
2329 3575
2329 3640
2330 2411
2330 2564
2330 2578
2330 2636
2330 2708
2330 2751
2330 2852
2330 2997
2330 3016
2330 3059
2330 3092
2330 3147
2330 3257
2330 3297
2330 3304
2330 3332
2330 3337
2330 3359
2330 3364
2330 3390
2330 3466
2330 3473
2330 3544
2330 3575
2330 3621
2330 3681
2330 3695
2330 3696
2330 3700
2330 3716
2333 2392
2333 2400
2333 2438
2333 2462
2333 2485
2333 2492
2333 2508
2333 2513
2333 2534
2333 2543
2333 2593
2333 2631
2333 2649
2333 2664
2333 2713
2333 2734
2333 2809
2333 2827
2333 2832
2333 2906
2333 2998
2333 3012
2333 3075
2333 3108
2333 3110
2333 3227
2333 3367
2333 3382
2333 3478
2333 3528
2333 3573
2333 3575
2333 3600
2333 3626
2333 3665
2333 3679
2333 3684
2333 3692
2333 3714
2334 2440
2334 2776
2334 3031
2334 3081
2334 3467
2335 2544
2335 2956
2336 2696
2336 3230
2337 2359
2337 2406
2337 2408
2337 2430
2337 2445
2337 2455
2337 2473
2337 2515
2337 2559
2337 2575
2337 2581
2337 2609
2337 2625
2337 2655
2337 2682
2337 2703
2337 2705
2337 2710
2337 2713
2337 2721
2337 2752
2337 2766
2337 2791
2337 2797
2337 2808
2337 2830
2337 2850
2337 2870
2337 2944
2337 2994
2337 3046
2337 3057
2337 3066
2337 3068
2337 3094
2337 3101
2337 3108
2337 3124
2337 3125
2337 3145
2337 3194
2337 3220
2337 3240
2337 3243
2337 3257
2337 3312
2337 3359
2337 3364
2337 3424
2337 3426
2337 3493
2337 3501
2337 3504
2337 3521
2337 3544
2337 3562
2337 3569
2337 3575
2337 3619
2337 3624
2337 3639
2337 3675
2337 3676
2337 3682
2337 3685
2337 3689
2337 3690
2337 3704
2337 3714
2337 3721
2337 3724
2338 2440
2338 3081
2338 3464
2338 3562
2339 2547
2339 2943
2339 3013
2339 3153
2339 3462
2339 3675
2340 2622
2340 2687
2340 2952
2340 3104
2340 3190
2340 3249
2341 2415
2341 2440
2341 2464
2341 2511
2341 2685
2341 2709
2341 2754
2341 2862
2341 3016
2341 3081
2341 3145
2341 3183
2341 3248
2341 3365
2341 3459
2341 3561
2341 3570
2343 2348
2343 3524
2344 2430
2344 2600
2344 2630
2344 2703
2344 2808
2344 3235
2344 3553
2344 3588
2344 3618
2345 2378
2345 2601
2345 2710
2345 2755
2345 2842
2345 3000
2345 3007
2345 3161
2345 3224
2345 3274
2345 3332
2345 3399
2346 2417
2346 2642
2346 2654
2346 2700
2346 2925
2346 3016
2346 3038
2346 3141
2346 3265
2346 3288
2346 3368
2346 3429
2346 3437
2346 3691
2346 3739
2347 2364
2347 2544
2347 2568
2347 2836
2347 2869
2347 2997
2347 3018
2347 3078
2347 3129
2347 3209
2347 3266
2347 3285
2347 3288
2347 3318
2347 3746
2348 3441
2348 3503
2348 3524
2348 3623
2349 2607
2349 3153
2349 3312
2349 3336
2349 3444
2349 3540
2350 2401
2350 2508
2350 2513
2350 2593
2350 2607
2350 2665
2350 2745
2350 2851
2350 2877
2350 2933
2350 3021
2350 3110
2350 3367
2350 3404
2350 3443
2350 3641
2350 3685
2350 3689
2352 2363
2352 2648
2352 2850
2352 2916
2352 3336
2352 3479
2352 3662
2352 3718
2353 2780
2353 2866
2353 3203
2354 2382
2354 2700
2354 3059
2354 3181
2354 3359
2354 3546
2355 2602
2355 2942
2355 3264
2355 3539
2355 3594
2355 3680
2355 3698
2356 2371
2356 2494
2356 2574
2356 2581
2356 2591
2356 2656
2356 2749
2356 2771
2356 2772
2356 2773
2356 2781
2356 2823
2356 2829
2356 2888
2356 2909
2356 2911
2356 2917
2356 2954
2356 2956
2356 3150
2356 3278
2356 3298
2356 3324
2356 3359
2356 3376
2356 3413
2356 3422
2356 3446
2356 3456
2356 3548
2356 3596
2356 3622
2356 3668
2356 3686
2356 3702
2357 2565
2357 2648
2357 2861
2357 2911
2357 2956
2357 2985
2357 3004
2357 3021
2357 3093
2357 3124
2357 3235
2357 3278
2357 3536
2357 3686
2358 2575
2358 2895
2358 3029
2358 3116
2358 3547
2359 2498
2359 2609
2359 2708
2359 2763
2359 2809
2359 2858
2359 2923
2359 2964
2359 2988
2359 3033
2359 3069
2359 3087
2359 3111
2359 3115
2359 3189
2359 3210
2359 3240
2359 3385
2359 3412
2359 3424
2359 3442
2359 3449
2359 3473
2359 3478
2359 3518
2359 3573
2359 3595
2359 3605
2359 3700
2359 3704
2359 3715
2359 3729
2360 2400
2360 2515
2360 2555
2360 2713
2360 2787
2360 2808
2360 2809
2360 2912
2360 3057
2360 3059
2360 3071
2360 3102
2360 3225
2360 3226
2360 3257
2360 3316
2360 3330
2360 3364
2360 3388
2360 3449
2360 3478
2360 3594
2360 3596
2360 3620
2360 3696
2360 3720
2360 3721
2361 2489
2361 3546
2361 3712
2362 2400
2362 2418
2362 2642
2362 2682
2362 2970
2362 3112
2362 3181
2362 3290
2362 3381
2362 3568
2363 2476
2363 2514
2363 2551
2363 2583
2363 2601
2363 2633
2363 2636
2363 2648
2363 2665
2363 2666
2363 2690
2363 2707
2363 2733
2363 2755
2363 2802
2363 2838
2363 2849
2363 2850
2363 2871
2363 2879
2363 2962
2363 3046
2363 3116
2363 3121
2363 3133
2363 3153
2363 3158
2363 3245
2363 3253
2363 3257
2363 3259
2363 3330
2363 3336
2363 3370
2363 3410
2363 3425
2363 3450
2363 3573
2363 3585
2363 3599
2363 3619
2363 3630
2363 3642
2363 3669
2364 2418
2364 2471
2364 2544
2364 2605
2364 2634
2364 2653
2364 2680
2364 2790
2364 2858
2364 2956
2364 2967
2364 3004
2364 3120
2364 3209
2364 3237
2364 3300
2364 3316
2364 3389
2364 3489
2364 3587
2364 3632
2364 3664
2364 3711
2364 3718
2365 2414
2365 2418
2365 2430
2365 2551
2365 2620
2365 2783
2365 2849
2365 2879
2365 2933
2365 3023
2365 3169
2365 3253
2365 3466
2365 3477
2365 3553
2365 3558
2365 3601
2365 3611
2365 3617
2365 3629
2366 2724
2366 3008
2367 2424
2367 2713
2367 2792
2367 2855
2367 3021
2367 3131
2367 3344
2367 3482
2367 3484
2367 3504
2367 3514
2367 3583
2367 3594
2367 3714
2367 3718
2368 2555
2368 2615
2368 2657
2368 2809
2368 2912
2368 3102
2368 3388
2368 3417
2368 3449
2368 3569
2368 3620
2368 3706
2368 3720
2368 3721
2369 2390
2369 2416
2369 2432
2369 2469
2369 2474
2369 2517
2369 2521
2369 2528
2369 2552
2369 2601
2369 2636
2369 2653
2369 2699
2369 2710
2369 2755
2369 2792
2369 2817
2369 2845
2369 2861
2369 2875
2369 2888
2369 2895
2369 2920
2369 2940
2369 2942
2369 2956
2369 2973
2369 3000
2369 3016
2369 3021
2369 3086
2369 3093
2369 3094
2369 3129
2369 3138
2369 3178
2369 3192
2369 3207
2369 3224
2369 3274
2369 3282
2369 3316
2369 3339
2369 3450
2369 3465
2369 3513
2369 3638
2369 3683
2369 3728
2369 3736
2370 2372
2370 2424
2370 2498
2370 2514
2370 2547
2370 2612
2370 2689
2370 2792
2370 2802
2370 2877
2370 2948
2370 3128
2370 3192
2370 3311
2370 3632
2370 3649
2370 3704
2370 3715
2371 2559
2371 2584
2371 2655
2371 2656
2371 2730
2371 2749
2371 2773
2371 2781
2371 2809
2371 2822
2371 2823
2371 2829
2371 2830
2371 2877
2371 2888
2371 2901
2371 2911
2371 2956
2371 3093
2371 3129
2371 3150
2371 3230
2371 3278
2371 3288
2371 3359
2371 3378
2371 3413
2371 3422
2371 3548
2371 3568
2371 3675
2371 3688
2371 3689
2371 3710
2371 3731
2371 3746
2372 2376
2372 2408
2372 2416
2372 2442
2372 2544
2372 2553
2372 2622
2372 2639
2372 2671
2372 2716
2372 2757
2372 2771
2372 2790
2372 2860
2372 2869
2372 2878
2372 2884
2372 2904
2372 2907
2372 2924
2372 2938
2372 2975
2372 3082
2372 3137
2372 3238
2372 3242
2372 3285
2372 3310
2372 3476
2372 3509
2372 3513
2372 3546
2372 3551
2372 3598
2372 3603
2372 3636
2372 3683
2372 3742
2373 2676
2373 2778
2373 2869
2373 2975
2373 3061
2373 3156
2373 3160
2373 3376
2373 3404
2373 3559
2373 3585
2373 3738
2374 2386
2374 2396
2374 2424
2374 2440
2374 2538
2374 2588
2374 2622
2374 2825
2374 2994
2374 3021
2374 3034
2374 3076
2374 3093
2374 3098
2374 3153
2374 3193
2374 3212
2374 3224
2374 3264
2374 3288
2374 3296
2374 3343
2374 3355
2374 3371
2374 3431
2374 3437
2374 3465
2374 3466
2374 3571
2374 3624
2374 3638
2374 3691
2374 3704
2375 3643
2376 2416
2376 2504
2376 2845
2376 2956
2376 3095
2376 3670
2377 2523
2377 2650
2377 2830
2377 3234
2378 2397
2378 2404
2378 2438
2378 2478
2378 2507
2378 2508
2378 2512
2378 2551
2378 2554
2378 2582
2378 2633
2378 2635
2378 2664
2378 2696
2378 2703
2378 2744
2378 2804
2378 2808
2378 2944
2378 2960
2378 2980
2378 3029
2378 3055
2378 3096
2378 3098
2378 3106
2378 3108
2378 3116
2378 3131
2378 3164
2378 3180
2378 3227
2378 3359
2378 3415
2378 3437
2378 3440
2378 3458
2378 3477
2378 3510
2378 3540
2378 3562
2378 3599
2378 3648
2378 3661
2378 3669
2378 3689
2378 3695
2378 3737
2379 2443
2379 2565
2379 2973
2379 3215
2379 3235
2379 3302
2380 2498
2380 2507
2380 2679
2380 3704
2381 2400
2381 2493
2381 2648
2381 2771
2381 2791
2381 2809
2381 2940
2381 3087
2381 3111
2381 3329
2381 3482
2381 3504
2381 3514
2382 3059
2382 3060
2382 3181
2383 3546
2383 3561
2383 3574
2384 2466
2384 2799
2384 3109
2384 3424
2384 3613
2386 2474
2386 2677
2386 2710
2386 2737
2386 2813
2386 2827
2386 2838
2386 3007
2386 3021
2386 3098
2386 3193
2386 3258
2386 3332
2386 3441
2386 3677
2387 2516
2387 2520
2387 2567
2387 2667
2387 2815
2387 2818
2387 2897
2387 3018
2387 3022
2387 3037
2387 3055
2387 3096
2387 3141
2387 3181
2387 3252
2387 3306
2387 3382
2387 3416
2387 3479
2387 3514
2387 3529
2387 3641
2387 3667
2388 2416
2388 2424
2388 2528
2388 2699
2388 2792
2388 2845
2388 2940
2388 2956
2388 2988
2388 3072
2388 3223
2388 3264
2388 3310
2388 3482
2388 3484
2388 3504
2388 3513
2388 3572
2388 3598
2388 3650
2388 3683
2388 3736
2389 2503
2389 2775
2389 2870
2389 3107
2389 3108
2389 3493
2389 3501
2390 2423
2390 2432
2390 2469
2390 2601
2390 2636
2390 2686
2390 2821
2390 2842
2390 2875
2390 2895
2390 3021
2390 3086
2390 3105
2390 3129
2390 3152
2390 3178
2390 3224
2390 3258
2390 3274
2390 3296
2390 3316
2390 3342
2390 3370
2390 3399
2390 3465
2390 3510
2390 3608
2390 3640
2391 2392
2391 2681
2391 3009
2391 3335
2391 3514
2392 2438
2392 2474
2392 2502
2392 2581
2392 2631
2392 2681
2392 2690
2392 2706
2392 2707
2392 2713
2392 2727
2392 2741
2392 2779
2392 2827
2392 2831
2392 2972
2392 3012
2392 3071
2392 3075
2392 3144
2392 3149
2392 3183
2392 3190
2392 3194
2392 3293
2392 3315
2392 3335
2392 3364
2392 3376
2392 3385
2392 3418
2392 3557
2392 3563
2392 3575
2392 3618
2392 3638
2392 3686
2392 3718
2392 3729
2393 2823
2393 3622
2394 2613
2394 2869
2394 2933
2394 2943
2394 3181
2394 3182
2394 3364
2394 3382
2394 3393
2394 3462
2394 3489
2394 3605
2394 3674
2395 2474
2395 2553
2395 2564
2395 2571
2395 2578
2395 2703
2395 2751
2395 3071
2395 3124
2395 3417
2395 3450
2395 3511
2395 3544
2396 2419
2396 2440
2396 3268
2396 3464
2396 3496
2396 3510
2396 3561
2396 3574
2396 3677
2396 3695
2397 2419
2397 2430
2397 2507
2397 2559
2397 2665
2397 2696
2397 2730
2397 2733
2397 2791
2397 2877
2397 2944
2397 3070
2397 3124
2397 3145
2397 3146
2397 3196
2397 3227
2397 3243
2397 3562
2397 3575
2397 3578
2397 3689
2397 3737
2399 2408
2399 2580
2399 2661
2399 2773
2399 2954
2399 3112
2399 3278
2400 2443
2400 2597
2400 2608
2400 2771
2400 2809
2400 2962
2400 2998
2400 3010
2400 3021
2400 3040
2400 3041
2400 3058
2400 3143
2400 3290
2400 3385
2400 3503
2400 3568
2400 3716
2400 3720
2400 3746
2401 2483
2401 2498
2401 2554
2401 2629
2401 2679
2401 2721
2401 2858
2401 2942
2401 2964
2401 3043
2401 3125
2401 3231
2401 3364
2401 3518
2401 3538
2401 3613
2401 3619
2401 3704
2401 3718
2401 3734
2402 2838
2402 3601
2403 3034
2403 3110
2403 3515
2403 3536
2403 3564
2404 2508
2404 2513
2404 2582
2404 2596
2404 2696
2404 2741
2404 2791
2404 3029
2404 3030
2404 3070
2404 3075
2404 3131
2404 3145
2404 3212
2404 3323
2404 3337
2404 3415
2404 3444
2404 3466
2404 3473
2404 3562
2404 3616
2404 3687
2404 3745
2405 2525
2405 2640
2405 2710
2405 2752
2405 2914
2405 3283
2405 3365
2405 3713
2406 2408
2406 2411
2406 2438
2406 2474
2406 2479
2406 2543
2406 2547
2406 2549
2406 2575
2406 2583
2406 2632
2406 2640
2406 2648
2406 2649
2406 2676
2406 2679
2406 2687
2406 2695
2406 2795
2406 2809
2406 2819
2406 2944
2406 2951
2406 3075
2406 3092
2406 3098
2406 3109
2406 3110
2406 3139
2406 3152
2406 3181
2406 3230
2406 3234
2406 3349
2406 3376
2406 3385
2406 3389
2406 3424
2406 3478
2406 3486
2406 3497
2406 3514
2406 3523
2406 3543
2406 3547
2406 3575
2406 3578
2406 3630
2406 3649
2406 3734
2407 2446
2407 2542
2407 2653
2407 2875
2407 2982
2407 3569
2407 3573
2408 2455
2408 2482
2408 2514
2408 2522
2408 2549
2408 2575
2408 2605
2408 2617
2408 2640
2408 2648
2408 2658
2408 2680
2408 2683
2408 2749
2408 2752
2408 2802
2408 2809
2408 2861
2408 2869
2408 2926
2408 2944
2408 2954
2408 2994
2408 3000
2408 3012
2408 3043
2408 3057
2408 3075
2408 3077
2408 3108
2408 3110
2408 3183
2408 3223
2408 3234
2408 3257
2408 3285
2408 3295
2408 3310
2408 3320
2408 3349
2408 3354
2408 3424
2408 3504
2408 3551
2408 3562
2408 3629
2408 3683
2408 3685
2408 3704
2409 3546
2410 2467
2410 2697
2410 2793
2410 2871
2410 2928
2410 3045
2410 3147
2410 3199
2410 3247
2410 3301
2410 3312
2410 3412
2410 3521
2410 3528
2410 3534
2410 3603
2410 3728
2410 3730
2411 2472
2411 2792
2411 3504
2412 2438
2412 2507
2412 2510
2412 2521
2412 2538
2412 2588
2412 2601
2412 2615
2412 2617
2412 2619
2412 2659
2412 2688
2412 2690
2412 2698
2412 2710
2412 2753
2412 2755
2412 2804
2412 2821
2412 2842
2412 2850
2412 2879
2412 2895
2412 2944
2412 2973
2412 3010
2412 3021
2412 3068
2412 3096
2412 3138
2412 3161
2412 3184
2412 3185
2412 3220
2412 3224
2412 3227
2412 3328
2412 3349
2412 3370
2412 3415
2412 3433
2412 3514
2412 3531
2412 3599
2412 3624
2412 3630
2412 3649
2412 3659
2412 3672
2413 2544
2413 2604
2413 2668
2413 2800
2413 2805
2413 2857
2413 2884
2413 2907
2413 2956
2413 2973
2413 3075
2413 3137
2413 3317
2413 3407
2413 3476
2413 3546
2413 3664
2414 2418
2414 2430
2414 2445
2414 2455
2414 2549
2414 2551
2414 2596
2414 2620
2414 2745
2414 2783
2414 2791
2414 2849
2414 2879
2414 2933
2414 2956
2414 3070
2414 3137
2414 3145
2414 3153
2414 3169
2414 3171
2414 3191
2414 3227
2414 3243
2414 3253
2414 3366
2414 3426
2414 3466
2414 3477
2414 3553
2414 3558
2414 3575
2414 3611
2414 3617
2414 3629
2414 3687
2414 3717
2415 2482
2415 3062
2416 2436
2416 2442
2416 2452
2416 2474
2416 2504
2416 2513
2416 2517
2416 2528
2416 2553
2416 2559
2416 2564
2416 2594
2416 2601
2416 2665
2416 2682
2416 2699
2416 2710
2416 2734
2416 2745
2416 2752
2416 2791
2416 2792
2416 2804
2416 2827
2416 2842
2416 2878
2416 2884
2416 2888
2416 2889
2416 2907
2416 2920
2416 2933
2416 2940
2416 2941
2416 2956
2416 2973
2416 2989
2416 2994
2416 3000
2416 3015
2416 3021
2416 3093
2416 3094
2416 3138
2416 3145
2416 3161
2416 3193
2416 3224
2416 3249
2416 3284
2416 3304
2416 3325
2416 3349
2416 3375
2416 3405
2416 3466
2416 3482
2416 3484
2416 3503
2416 3504
2416 3521
2416 3534
2416 3536
2416 3557
2416 3572
2416 3575
2416 3578
2416 3598
2416 3683
2416 3687
2416 3736
2417 2439
2417 2552
2417 2585
2417 2654
2417 2817
2417 2907
2417 2925
2417 2963
2417 3038
2417 3172
2417 3278
2417 3429
2417 3437
2417 3456
2417 3507
2417 3677
2417 3691
2418 2430
2418 2455
2418 2551
2418 2565
2418 2596
2418 2620
2418 2655
2418 2713
2418 2778
2418 2783
2418 2791
2418 2801
2418 2808
2418 2828
2418 2849
2418 2865
2418 2879
2418 2901
2418 2956
2418 2964
2418 3061
2418 3070
2418 3137
2418 3139
2418 3160
2418 3169
2418 3205
2418 3253
2418 3345
2418 3364
2418 3466
2418 3477
2418 3526
2418 3558
2418 3568
2418 3575
2418 3596
2418 3611
2418 3617
2418 3629
2418 3639
2419 2604
2419 2646
2419 2666
2419 2668
2419 2687
2419 2790
2419 2800
2419 2805
2419 2956
2419 2967
2419 2975
2419 3038
2419 3075
2419 3124
2419 3137
2419 3209
2419 3288
2419 3317
2419 3371
2419 3380
2419 3389
2419 3407
2419 3443
2419 3546
2419 3696
2419 3742
2420 2445
2420 2464
2420 2570
2420 2660
2420 3505
2421 2557
2421 2838
2421 2919
2421 2923
2421 3240
2421 3260
2421 3334
2421 3354
2421 3530
2421 3573
2421 3680
2422 2447
2422 2544
2422 2583
2422 2656
2422 2792
2422 2881
2422 3006
2422 3115
2422 3120
2422 3127
2422 3151
2422 3234
2422 3343
2422 3437
2422 3509
2422 3578
2423 2469
2423 2710
2423 2859
2423 2875
2423 2891
2423 2962
2423 2986
2423 3021
2423 3129
2423 3143
2423 3152
2423 3230
2423 3261
2423 3399
2423 3465
2423 3640
2423 3716
2423 3744
2424 2626
2424 2699
2424 2721
2424 2770
2424 2792
2424 2877
2424 2940
2424 3072
2424 3101
2424 3176
2424 3264
2424 3356
2424 3389
2424 3482
2424 3504
2424 3517
2424 3578
2424 3642
2424 3649
2424 3650
2424 3684
2424 3704
2424 3709
2425 3021
2425 3129
2425 3597
2427 2457
2427 2656
2427 2869
2427 2909
2427 3128
2427 3131
2427 3183
2427 3413
2427 3596
2428 2566
2428 2635
2428 2664
2428 2665
2428 3116
2428 3164
2428 3308
2428 3386
2428 3610
2428 3724
2429 2445
2429 2474
2429 2622
2429 2639
2429 2980
2429 3145
2429 3603
2429 3639
2429 3682
2429 3702
2430 2445
2430 2455
2430 2492
2430 2544
2430 2551
2430 2559
2430 2565
2430 2596
2430 2604
2430 2620
2430 2640
2430 2658
2430 2721
2430 2724
2430 2745
2430 2783
2430 2791
2430 2801
2430 2805
2430 2849
2430 2879
2430 2901
2430 2916
2430 2956
2430 3023
2430 3047
2430 3070
2430 3101
2430 3125
2430 3137
2430 3139
2430 3169
2430 3191
2430 3220
2430 3227
2430 3235
2430 3243
2430 3253
2430 3272
2430 3290
2430 3296
2430 3309
2430 3312
2430 3349
2430 3366
2430 3426
2430 3444
2430 3466
2430 3477
2430 3531
2430 3534
2430 3558
2430 3568
2430 3575
2430 3592
2430 3601
2430 3611
2430 3617
2430 3619
2430 3629
2430 3639
2430 3682
2430 3687
2430 3689
2430 3717
2430 3721
2431 2440
2431 2464
2431 2511
2431 2568
2431 2660
2431 3078
2431 3081
2431 3145
2431 3251
2431 3464
2431 3561
2432 2790
2432 2973
2432 3021
2432 3076
2432 3129
2432 3316
2432 3638
2432 3640
2432 3728
2433 3082
2433 3248
2433 3633
2434 2440
2434 3275
2434 3420
2434 3464
2435 2455
2435 2494
2435 2562
2435 2643
2435 2843
2435 2846
2435 3615
2435 3699
2436 2440
2436 2813
2436 2871
2436 2880
2436 2899
2436 3007
2436 3085
2436 3207
2436 3332
2436 3624
2437 2825
2437 2975
2437 3064
2437 3222
2437 3271
2437 3537
2437 3566
2438 2474
2438 2492
2438 2497
2438 2512
2438 2564
2438 2575
2438 2578
2438 2588
2438 2640
2438 2649
2438 2664
2438 2666
2438 2696
2438 2698
2438 2713
2438 2733
2438 2769
2438 2791
2438 2827
2438 2906
2438 2908
2438 2940
2438 2944
2438 2951
2438 2960
2438 3008
2438 3010
2438 3015
2438 3068
2438 3070
2438 3075
2438 3097
2438 3098
2438 3128
2438 3136
2438 3139
2438 3153
2438 3181
2438 3220
2438 3227
2438 3234
2438 3239
2438 3245
2438 3247
2438 3337
2438 3349
2438 3359
2438 3377
2438 3385
2438 3386
2438 3408
2438 3439
2438 3452
2438 3466
2438 3473
2438 3491
2438 3497
2438 3520
2438 3523
2438 3534
2438 3547
2438 3562
2438 3563
2438 3575
2438 3578
2438 3585
2438 3592
2438 3618
2438 3649
2438 3666
2438 3695
2439 2585
2439 2719
2439 2817
2439 3120
2439 3172
2439 3249
2439 3278
2439 3361
2439 3372
2440 2452
2440 2489
2440 2525
2440 2529
2440 2539
2440 2596
2440 2610
2440 2622
2440 2660
2440 2677
2440 2685
2440 2724
2440 2789
2440 2825
2440 2845
2440 2859
2440 2975
2440 2986
2440 3008
2440 3021
2440 3024
2440 3031
2440 3076
2440 3081
2440 3088
2440 3093
2440 3135
2440 3137
2440 3197
2440 3212
2440 3248
2440 3255
2440 3256
2440 3271
2440 3288
2440 3420
2440 3421
2440 3431
2440 3459
2440 3465
2440 3487
2440 3546
2440 3552
2440 3554
2440 3597
2440 3603
2440 3682
2440 3705
2441 2696
2441 2791
2441 2804
2441 3131
2441 3183
2441 3306
2441 3527
2442 2757
2442 2844
2442 2869
2442 2904
2442 2926
2442 3082
2442 3293
2442 3349
2442 3598
2442 3603
2442 3636
2443 2548
2443 2579
2443 2687
2443 2921
2443 2944
2443 3035
2443 3044
2443 3254
2443 3437
2443 3682
2444 3110
2444 3246
2444 3298
2444 3472
2444 3667
2445 2474
2445 2495
2445 2507
2445 2559
2445 2564
2445 2578
2445 2588
2445 2595
2445 2611
2445 2620
2445 2687
2445 2703
2445 2705
2445 2721
2445 2751
2445 2766
2445 2767
2445 2808
2445 2813
2445 2827
2445 2830
2445 2836
2445 2838
2445 2848
2445 2850
2445 2944
2445 3068
2445 3071
2445 3101
2445 3106
2445 3121
2445 3124
2445 3125
2445 3137
2445 3145
2445 3152
2445 3191
2445 3194
2445 3209
2445 3220
2445 3243
2445 3259
2445 3270
2445 3292
2445 3301
2445 3338
2445 3405
2445 3426
2445 3521
2445 3544
2445 3575
2445 3592
2445 3603
2445 3611
2445 3629
2445 3640
2445 3675
2445 3676
2445 3682
2445 3689
2445 3692
2445 3706
2445 3721
2446 2653
2446 2875
2446 3110
2447 2482
2447 2540
2447 2581
2447 2624
2447 2648
2447 2658
2447 2802
2447 2881
2447 2910
2447 2939
2447 3004
2447 3034
2447 3074
2447 3091
2447 3137
2447 3151
2447 3396
2447 3404
2447 3654
2447 3702
2447 3718
2447 3742
2448 2506
2448 2880
2448 3110
2448 3288
2449 2559
2449 2749
2449 2877
2449 2902
2449 3010
2449 3279
2449 3408
2449 3452
2449 3514
2449 3645
2450 3110
2450 3472
2451 3376
2452 2548
2452 2656
2452 2780
2452 2944
2452 3046
2452 3054
2452 3081
2452 3121
2452 3197
2452 3201
2452 3251
2452 3275
2452 3298
2452 3420
2452 3460
2452 3464
2452 3546
2452 3554
2452 3572
2452 3584
2452 3690
2452 3712
2453 2610
2453 3234
2453 3326
2453 3567
2454 2732
2454 2804
2454 3139
2454 3145
2454 3277
2454 3343
2454 3417
2454 3462
2454 3717
2455 2478
2455 2551
2455 2559
2455 2578
2455 2605
2455 2607
2455 2647
2455 2649
2455 2696
2455 2751
2455 2755
2455 2783
2455 2791
2455 2849
2455 2871
2455 2906
2455 2944
2455 2951
2455 2999
2455 3066
2455 3094
2455 3096
2455 3097
2455 3153
2455 3191
2455 3220
2455 3253
2455 3312
2455 3336
2455 3466
2455 3514
2455 3558
2455 3629
2455 3630
2455 3648
2455 3666
2455 3675
2455 3689
2455 3690
2455 3695
2455 3724
2455 3735
2456 2629
2456 2646
2456 2674
2456 2725
2456 2926
2456 2934
2456 2935
2456 3087
2456 3369
2456 3639
2457 2909
2457 3131
2458 2517
2458 2528
2458 2665
2458 2699
2458 2792
2458 2877
2458 2933
2458 2940
2458 3094
2458 3245
2458 3284
2458 3578
2458 3642
2459 2530
2459 2677
2459 2827
2459 2842
2459 3098
2460 2463
2460 2537
2460 2614
2460 2640
2460 2648
2460 2689
2460 2734
2460 2791
2460 2974
2460 3006
2460 3079
2460 3339
2460 3392
2460 3404
2460 3513
2460 3585
2460 3680
2460 3718
2461 2795
2461 2800
2461 2893
2461 2956
2461 3223
2461 3317
2461 3345
2461 3379
2461 3407
2461 3523
2461 3535
2461 3627
2461 3628
2461 3702
2462 2485
2462 2521
2462 2543
2462 2657
2462 2667
2462 2713
2462 2767
2462 2808
2462 2973
2462 3103
2462 3110
2462 3138
2462 3359
2462 3528
2462 3575
2462 3600
2462 3655
2462 3695
2462 3703
2462 3714
2463 2493
2463 2568
2463 2626
2463 2734
2463 2771
2463 2974
2463 3150
2463 3246
2463 3249
2463 3453
2463 3517
2463 3536
2463 3573
2463 3575
2463 3598
2463 3680
2463 3685
2464 2474
2464 2625
2464 2660
2464 2677
2464 2682
2464 2789
2464 2838
2464 2967
2464 3021
2464 3081
2464 3088
2464 3093
2464 3135
2464 3163
2464 3176
2464 3248
2464 3262
2464 3420
2464 3464
2464 3546
2466 2627
2466 2693
2466 2959
2466 2972
2466 3117
2466 3127
2466 3189
2466 3376
2466 3678
2467 2548
2467 2722
2467 2760
2467 2771
2467 2793
2467 2795
2467 2904
2467 3045
2467 3247
2467 3419
2468 2962
2468 3045
2468 3196
2468 3525
2468 3716
2469 2474
2469 2479
2469 2517
2469 2528
2469 2544
2469 2601
2469 2626
2469 2633
2469 2636
2469 2665
2469 2699
2469 2710
2469 2755
2469 2792
2469 2845
2469 2859
2469 2895
2469 2907
2469 2920
2469 2942
2469 2956
2469 3021
2469 3086
2469 3094
2469 3129
2469 3138
2469 3178
2469 3207
2469 3248
2469 3258
2469 3274
2469 3316
2469 3339
2469 3399
2469 3405
2469 3450
2469 3465
2469 3513
2469 3534
2469 3557
2469 3578
2469 3640
2469 3736
2469 3744
2470 2514
2470 3265
2471 2520
2471 2525
2471 2748
2471 2810
2471 2896
2471 2907
2471 2956
2471 3035
2471 3237
2471 3448
2471 3603
2471 3664
2471 3711
2472 3485
2472 3546
2473 2526
2473 2557
2473 2635
2473 3115
2473 3193
2473 3257
2473 3452
2473 3466
2473 3534
2473 3724
2474 2484
2474 2507
2474 2521
2474 2559
2474 2636
2474 2639
2474 2660
2474 2668
2474 2683
2474 2687
2474 2696
2474 2710
2474 2751
2474 2804
2474 2808
2474 2815
2474 2836
2474 2838
2474 2842
2474 2845
2474 2880
2474 2882
2474 2915
2474 2940
2474 2942
2474 2956
2474 2973
2474 2981
2474 2989
2474 2994
2474 2997
2474 3000
2474 3007
2474 3016
2474 3021
2474 3077
2474 3083
2474 3086
2474 3103
2474 3129
2474 3138
2474 3144
2474 3178
2474 3207
2474 3224
2474 3234
2474 3243
2474 3288
2474 3317
2474 3339
2474 3349
2474 3385
2474 3408
2474 3413
2474 3450
2474 3465
2474 3466
2474 3497
2474 3510
2474 3521
2474 3523
2474 3536
2474 3557
2474 3561
2474 3562
2474 3572
2474 3575
2474 3578
2474 3599
2474 3603
2474 3620
2474 3638
2474 3639
2474 3649
2474 3656
2474 3675
2474 3677
2474 3688
2474 3702
2474 3726
2474 3736
2475 3219
2475 3502
2475 3519
2475 3716
2476 2540
2476 2916
2476 3184
2476 3376
2476 3396
2476 3404
2476 3425
2476 3578
2476 3619
2477 3531
2478 2483
2478 2497
2478 2507
2478 2582
2478 2590
2478 2690
2478 2703
2478 2707
2478 2730
2478 2745
2478 2767
2478 2774
2478 2791
2478 2808
2478 2838
2478 2944
2478 2960
2478 3021
2478 3029
2478 3098
2478 3106
2478 3301
2478 3312
2478 3359
2478 3415
2478 3440
2478 3462
2478 3540
2478 3661
2478 3669
2478 3688
2478 3689
2478 3695
2478 3731
2479 2498
2479 2507
2479 2517
2479 2528
2479 2586
2479 2594
2479 2676
2479 2689
2479 2695
2479 2699
2479 2730
2479 2770
2479 2792
2479 2812
2479 2888
2479 2939
2479 2940
2479 2956
2479 2988
2479 3059
2479 3094
2479 3124
2479 3184
2479 3227
2479 3244
2479 3284
2479 3339
2479 3482
2479 3484
2479 3504
2479 3513
2479 3517
2479 3524
2479 3543
2479 3557
2479 3578
2479 3642
2480 2515
2480 2763
2480 2767
2480 2899
2480 2908
2480 3030
2480 3173
2480 3364
2480 3382
2480 3388
2480 3478
2480 3479
2480 3498
2480 3521
2480 3603
2480 3687
2480 3720
2481 2882
2481 2919
2481 3057
2481 3101
2481 3279
2482 2877
2482 2881
2482 2939
2482 3494
2482 3531
2482 3548
2482 3577
2482 3659
2482 3718
2483 2590
2483 2846
2483 2867
2483 3179
2483 3364
2483 3619
2483 3630
2484 2639
2484 3130
2484 3215
2484 3235
2484 3302
2484 3637
2484 3677
2484 3687
2484 3736
2485 2543
2485 2640
2485 2665
2485 2666
2485 2667
2485 2713
2485 2749
2485 2808
2485 2905
2485 2964
2485 2973
2485 3050
2485 3094
2485 3112
2485 3518
2485 3528
2485 3575
2485 3600
2485 3655
2485 3695
2485 3714
2486 3144
2486 3256
2486 3374
2486 3533
2488 2725
2488 3326
2489 2677
2489 2737
2489 2755
2489 3021
2489 3081
2489 3174
2489 3197
2489 3546
2489 3561
2489 3576
2492 2578
2492 2640
2492 2664
2492 2787
2492 2791
2492 2804
2492 2848
2492 2856
2492 2960
2492 3015
2492 3029
2492 3047
2492 3068
2492 3075
2492 3139
2492 3147
2492 3184
2492 3245
2492 3257
2492 3272
2492 3349
2492 3366
2492 3386
2492 3466
2492 3521
2492 3534
2492 3558
2492 3585
2492 3617
2492 3629
2492 3635
2492 3674
2492 3689
2492 3714
2493 2522
2493 2771
2493 2878
2493 2977
2493 3012
2493 3088
2493 3249
2493 3329
2493 3389
2493 3482
2493 3504
2493 3573
2493 3598
2493 3659
2493 3685
2493 3691
2494 2846
2495 2576
2495 3364
2496 2503
2496 2679
2496 2688
2496 2852
2496 3180
2496 3442
2496 3543
2496 3659
2496 3718
2496 3741
2497 2512
2497 2590
2497 2745
2497 2755
2497 2808
2497 2906
2497 2960
2497 3098
2497 3234
2497 3279
2497 3349
2497 3359
2497 3431
2497 3497
2497 3695
2497 3712
2498 2517
2498 2522
2498 2609
2498 2679
2498 2730
2498 2877
2498 2947
2498 2948
2498 3087
2498 3091
2498 3092
2498 3111
2498 3176
2498 3184
2498 3186
2498 3191
2498 3240
2498 3311
2498 3704
2498 3715
2499 2530
2499 2562
2499 2867
2499 2942
2499 3171
2499 3211
2500 2642
2501 2916
2501 3475
2502 2520
2502 2693
2503 2513
2503 2522
2503 2528
2503 2606
2503 2618
2503 2627
2503 2648
2503 2682
2503 2852
2503 2855
2503 2877
2503 2943
2503 2978
2503 3063
2503 3079
2503 3107
2503 3117
2503 3273
2503 3397
2503 3433
2503 3514
2503 3547
2503 3594
2503 3642
2503 3704
2503 3715
2503 3718
2504 2516
2504 2596
2504 2803
2504 2845
2504 2861
2504 2956
2504 3093
2504 3154
2504 3252
2504 3306
2504 3338
2504 3382
2504 3529
2505 2649
2505 3146
2505 3227
2506 2880
2506 2930
2506 3110
2506 3424
2507 2513
2507 2564
2507 2582
2507 2590
2507 2615
2507 2636
2507 2665
2507 2699
2507 2703
2507 2705
2507 2721
2507 2730
2507 2745
2507 2767
2507 2774
2507 2791
2507 2804
2507 2808
2507 2848
2507 2850
2507 2911
2507 2942
2507 2961
2507 3047
2507 3094
2507 3096
2507 3098
2507 3101
2507 3125
2507 3161
2507 3183
2507 3349
2507 3364
2507 3395
2507 3415
2507 3417
2507 3435
2507 3450
2507 3466
2507 3510
2507 3534
2507 3540
2507 3557
2507 3575
2507 3585
2507 3599
2507 3638
2507 3648
2507 3661
2507 3676
2507 3687
2507 3688
2507 3689
2507 3695
2507 3718
2507 3721
2507 3731
2508 2597
2508 2708
2508 2755
2508 2808
2508 2827
2508 2933
2508 2960
2508 2962
2508 2964
2508 3098
2508 3143
2508 3194
2508 3212
2508 3367
2508 3404
2508 3510
2508 3575
2508 3618
2508 3675
2508 3692
2508 3716
2508 3745
2509 3133
2510 2511
2510 2521
2510 2538
2510 2601
2510 2617
2510 2659
2510 2690
2510 2698
2510 2710
2510 2755
2510 2842
2510 2882
2510 2895
2510 2973
2510 3000
2510 3021
2510 3103
2510 3138
2510 3212
2510 3224
2510 3349
2510 3430
2510 3469
2510 3557
2510 3599
2510 3624
2511 2601
2511 2617
2511 2687
2511 2724
2511 2731
2511 2786
2511 2789
2511 2973
2511 2975
2511 3021
2511 3081
2511 3088
2511 3135
2511 3233
2511 3248
2511 3317
2511 3374
2511 3459
2511 3469
2511 3481
2511 3571
2511 3597
2511 3624
2511 3691
2512 2620
2512 2703
2512 2730
2512 2755
2512 2766
2512 2916
2512 2944
2512 2960
2512 2980
2512 3029
2512 3098
2512 3184
2512 3386
2512 3395
2512 3440
2512 3477
2512 3540
2512 3599
2512 3661
2512 3666
2512 3669
2512 3675
2512 3689
2512 3695
2513 2515
2513 2582
2513 2583
2513 2593
2513 2638
2513 2648
2513 2696
2513 2741
2513 2877
2513 2899
2513 2933
2513 2944
2513 3030
2513 3110
2513 3301
2513 3316
2513 3323
2513 3325
2513 3337
2513 3466
2513 3514
2513 3573
2513 3630
2513 3687
2513 3690
2513 3714
2514 2532
2514 2548
2514 2717
2514 2830
2514 2851
2514 2885
2514 2944
2514 3002
2514 3043
2514 3046
2514 3065
2514 3091
2514 3121
2514 3123
2514 3142
2514 3210
2514 3265
2514 3339
2514 3364
2514 3419
2514 3425
2514 3426
2514 3522
2514 3573
2514 3624
2514 3718
2515 2695
2515 2763
2515 2767
2515 2896
2515 2899
2515 2906
2515 2908
2515 2944
2515 2973
2515 3030
2515 3046
2515 3054
2515 3087
2515 3088
2515 3101
2515 3119
2515 3148
2515 3167
2515 3173
2515 3212
2515 3225
2515 3226
2515 3316
2515 3325
2515 3382
2515 3388
2515 3406
2515 3408
2515 3547
2515 3569
2515 3573
2515 3584
2515 3613
2515 3686
2515 3687
2515 3696
2515 3721
2516 2544
2516 2556
2516 2815
2516 2973
2516 3022
2516 3236
2516 3252
2516 3306
2516 3338
2516 3346
2516 3349
2516 3382
2516 3479
2516 3500
2517 2626
2517 2648
2517 2665
2517 2699
2517 2730
2517 2845
2517 2861
2517 2884
2517 2888
2517 2939
2517 2940
2517 2942
2517 2956
2517 3021
2517 3059
2517 3091
2517 3094
2517 3227
2517 3245
2517 3264
2517 3284
2517 3339
2517 3435
2517 3482
2517 3517
2517 3557
2517 3572
2517 3578
2517 3642
2517 3736
2519 2528
2519 2711
2519 3021
2520 2522
2520 2544
2520 2567
2520 2596
2520 2667
2520 2668
2520 2684
2520 2693
2520 2700
2520 2815
2520 2818
2520 2897
2520 2907
2520 2973
2520 3022
2520 3037
2520 3050
2520 3055
2520 3111
2520 3112
2520 3130
2520 3167
2520 3181
2520 3252
2520 3306
2520 3358
2520 3382
2520 3407
2520 3409
2520 3416
2520 3423
2520 3514
2520 3664
2520 3686
2520 3719
2521 2601
2521 2636
2521 2707
2521 2710
2521 2725
2521 2770
2521 2842
2521 2845
2521 2861
2521 2956
2521 2973
2521 3000
2521 3007
2521 3021
2521 3086
2521 3093
2521 3103
2521 3138
2521 3183
2521 3207
2521 3224
2521 3332
2521 3339
2521 3430
2521 3465
2521 3510
2521 3536
2521 3599
2521 3624
2521 3638
2521 3683
2522 2567
2522 2613
2522 2634
2522 2648
2522 2655
2522 2684
2522 2693
2522 2734
2522 2748
2522 2751
2522 2791
2522 2818
2522 2877
2522 2882
2522 2948
2522 2973
2522 3037
2522 3043
2522 3087
2522 3088
2522 3111
2522 3130
2522 3141
2522 3169
2522 3181
2522 3305
2522 3345
2522 3358
2522 3407
2522 3426
2522 3442
2522 3447
2522 3514
2522 3543
2522 3670
2522 3686
2522 3704
2523 2752
2525 2640
2525 2809
2525 2841
2525 2914
2525 3139
2525 3197
2525 3222
2525 3237
2525 3283
2525 3375
2525 3586
2526 2569
2526 2701
2526 3043
2526 3257
2526 3260
2527 2575
2527 2763
2527 2771
2527 2908
2528 2648
2528 2649
2528 2717
2528 2792
2528 2845
2528 2940
2528 2956
2528 3021
2528 3059
2528 3138
2528 3178
2528 3207
2528 3227
2528 3264
2528 3284
2528 3339
2528 3435
2528 3482
2528 3484
2528 3517
2528 3522
2528 3572
2528 3650
2529 2685
2529 2957
2529 3052
2529 3062
2529 3250
2530 2962
2530 3211
2530 3526
2530 3716
2531 2687
2531 2807
2531 2810
2531 2829
2531 2889
2531 2908
2531 2982
2531 3027
2531 3278
2531 3297
2531 3302
2531 3372
2531 3474
2531 3711
2532 2948
2532 3142
2532 3425
2532 3704
2533 2553
2533 2571
2533 2745
2533 2791
2533 2808
2533 2852
2533 2907
2533 2960
2533 2995
2533 3068
2533 3098
2533 3136
2533 3242
2533 3259
2533 3349
2533 3373
2533 3440
2533 3445
2533 3466
2533 3484
2533 3514
2533 3520
2533 3695
2533 3734
2534 2877
2534 3190
2534 3332
2534 3426
2534 3575
2534 3608
2535 3138
2536 2591
2536 2628
2536 2956
2536 2968
2536 3241
2536 3474
2537 2881
2537 3006
2537 3189
2537 3594
2538 2617
2538 2659
2538 2698
2538 2933
2538 2942
2538 2944
2538 2971
2538 2973
2538 3118
2538 3171
2538 3349
2538 3433
2538 3521
2538 3599
2538 3624
2538 3630
2538 3639
2539 3076
2539 3193
2540 2648
2540 2658
2540 2780
2540 2839
2540 2961
2540 2985
2540 3134
2540 3396
2540 3404
2540 3492
2540 3606
2540 3677
2541 3024
2542 2624
2542 2712
2542 2982
2542 2989
2542 3249
2542 3453
2542 3573
2542 3664
2543 2568
2543 2667
2543 2713
2543 2771
2543 2795
2543 2809
2543 2905
2543 3110
2543 3111
2543 3230
2543 3528
2543 3575
2543 3600
2543 3714
2543 3746
2544 2556
2544 2558
2544 2565
2544 2591
2544 2596
2544 2604
2544 2605
2544 2666
2544 2668
2544 2680
2544 2805
2544 2810
2544 2815
2544 2817
2544 2819
2544 2829
2544 2830
2544 2845
2544 2868
2544 2899
2544 2907
2544 2908
2544 2925
2544 2942
2544 2956
2544 2973
2544 2998
2544 3027
2544 3038
2544 3093
2544 3110
2544 3173
2544 3207
2544 3227
2544 3266
2544 3273
2544 3288
2544 3302
2544 3306
2544 3317
2544 3324
2544 3346
2544 3358
2544 3371
2544 3380
2544 3382
2544 3422
2544 3496
2544 3507
2544 3562
2544 3573
2544 3598
2544 3633
2544 3637
2544 3664
2544 3682
2544 3687
2544 3691
2544 3702
2544 3721
2544 3728
2545 2879
2545 3276
2545 3433
2545 3522
2546 2622
2546 2680
2546 2817
2546 2869
2546 3071
2546 3293
2547 2566
2547 2583
2547 2612
2547 2638
2547 2649
2547 2679
2547 2713
2547 2763
2547 2772
2547 2791
2547 2877
2547 2940
2547 2943
2547 3010
2547 3013
2547 3021
2547 3043
2547 3091
2547 3153
2547 3166
2547 3211
2547 3227
2547 3230
2547 3259
2547 3308
2547 3349
2547 3404
2547 3518
2547 3547
2547 3575
2547 3641
2547 3649
2548 2722
2548 2944
2548 3046
2548 3121
2548 3162
2548 3419
2548 3584
2548 3682
2549 2623
2549 2648
2549 2666
2549 2725
2549 2877
2549 2882
2549 2907
2549 2967
2549 3021
2549 3079
2549 3137
2549 3142
2549 3231
2549 3278
2549 3305
2549 3343
2549 3396
2549 3461
2549 3536
2549 3540
2549 3544
2549 3670
2549 3691
2549 3718
2550 2786
2550 3025
2550 3172
2550 3216
2550 3374
2551 2559
2551 2566
2551 2620
2551 2640
2551 2648
2551 2649
2551 2664
2551 2688
2551 2783
2551 2791
2551 2804
2551 2839
2551 2849
2551 2879
2551 2901
2551 2944
2551 3023
2551 3110
2551 3124
2551 3137
2551 3145
2551 3153
2551 3169
2551 3191
2551 3220
2551 3227
2551 3253
2551 3261
2551 3272
2551 3366
2551 3386
2551 3466
2551 3477
2551 3531
2551 3553
2551 3558
2551 3575
2551 3592
2551 3601
2551 3617
2551 3629
2551 3689
2551 3717
2551 3745
2552 2585
2552 2752
2552 2817
2552 2840
2552 2884
2552 3192
2552 3218
2552 3656
2553 2571
2553 2578
2553 2745
2553 2791
2553 2808
2553 2907
2553 2960
2553 2995
2553 3068
2553 3136
2553 3247
2553 3259
2553 3293
2553 3349
2553 3373
2553 3440
2553 3466
2553 3520
2553 3712
2553 3734
2554 2583
2554 2601
2554 2629
2554 2666
2554 2679
2554 2704
2554 2707
2554 2727
2554 2746
2554 2755
2554 2808
2554 2821
2554 2827
2554 2838
2554 2960
2554 2994
2554 3003
2554 3007
2554 3021
2554 3098
2554 3118
2554 3158
2554 3169
2554 3212
2554 3258
2554 3274
2554 3317
2554 3343
2554 3364
2554 3370
2554 3373
2554 3385
2554 3396
2554 3450
2554 3465
2554 3510
2554 3514
2554 3619
2554 3626
2554 3690
2554 3693
2555 2564
2555 2615
2555 2657
2555 2751
2555 2809
2555 2901
2555 2912
2555 3059
2555 3102
2555 3136
2555 3226
2555 3253
2555 3378
2555 3388
2555 3410
2555 3417
2555 3430
2555 3449
2555 3499
2555 3569
2555 3620
2555 3706
2555 3720
2555 3721
2556 2583
2556 2815
2556 2829
2556 2968
2556 2973
2556 3022
2556 3119
2556 3306
2556 3316
2556 3346
2556 3382
2556 3633
2556 3687
2557 2831
2557 2846
2557 3260
2557 3530
2557 3615
2557 3674
2559 2562
2559 2620
2559 2668
2559 2703
2559 2705
2559 2733
2559 2745
2559 2749
2559 2767
2559 2791
2559 2808
2559 2843
2559 2896
2559 2906
2559 2910
2559 2933
2559 2944
2559 2960
2559 3009
2559 3026
2559 3068
2559 3101
2559 3124
2559 3125
2559 3145
2559 3146
2559 3194
2559 3243
2559 3259
2559 3292
2559 3312
2559 3400
2559 3405
2559 3408
2559 3426
2559 3440
2559 3460
2559 3489
2559 3514
2559 3531
2559 3534
2559 3547
2559 3575
2559 3601
2559 3603
2559 3621
2559 3639
2559 3675
2559 3689
2559 3714
2559 3717
2559 3721
2559 3745
2559 3746
2560 3079
2562 2666
2562 2672
2562 2721
2562 2728
2562 2843
2562 2891
2562 2896
2562 2919
2562 3349
2562 3408
2562 3508
2562 3514
2562 3613
2562 3645
2562 3655
2562 3718
2563 3155
2563 3168
2563 3194
2563 3618
2564 2578
2564 2588
2564 2665
2564 2703
2564 2705
2564 2721
2564 2741
2564 2745
2564 2751
2564 2766
2564 2791
2564 2808
2564 2827
2564 2848
2564 2849
2564 2850
2564 2866
2564 2889
2564 2960
2564 2963
2564 2997
2564 3010
2564 3015
2564 3054
2564 3070
2564 3071
2564 3075
2564 3098
2564 3101
2564 3125
2564 3145
2564 3153
2564 3209
2564 3243
2564 3257
2564 3259
2564 3288
2564 3297
2564 3337
2564 3405
2564 3410
2564 3426
2564 3466
2564 3521
2564 3534
2564 3544
2564 3575
2564 3623
2564 3639
2564 3661
2564 3674
2564 3675
2564 3682
2564 3687
2564 3695
2564 3721
2565 2620
2565 2656
2565 2800
2565 2814
2565 2837
2565 2889
2565 2900
2565 2907
2565 2915
2565 2924
2565 2973
2565 2989
2565 3082
2565 3167
2565 3169
2565 3170
2565 3235
2565 3428
2565 3568
2565 3575
2565 3624
2565 3682
2565 3731
2566 2665
2566 3013
2566 3208
2566 3281
2566 3308
2566 3610
2566 3665
2567 2613
2567 2634
2567 2684
2567 2693
2567 2716
2567 2743
2567 2818
2567 2864
2567 2878
2567 2988
2567 3006
2567 3037
2567 3050
2567 3087
2567 3088
2567 3111
2567 3112
2567 3130
2567 3141
2567 3147
2567 3169
2567 3170
2567 3181
2567 3247
2567 3265
2567 3305
2567 3333
2567 3345
2567 3358
2567 3391
2567 3407
2567 3409
2567 3514
2567 3565
2567 3573
2567 3641
2567 3670
2567 3713
2567 3732
2568 2666
2568 2687
2568 2706
2568 2771
2568 2882
2568 2997
2568 3018
2568 3078
2568 3112
2568 3129
2568 3266
2568 3306
2568 3536
2568 3575
2568 3628
2568 3746
2569 2839
2569 3168
2569 3257
2569 3260
2569 3511
2570 2779
2570 2817
2570 3007
2570 3019
2570 3098
2570 3191
2570 3224
2570 3231
2570 3257
2570 3297
2570 3332
2570 3342
2570 3430
2570 3563
2570 3645
2570 3668
2570 3677
2570 3684
2570 3705
2571 2703
2571 2713
2571 2745
2571 2774
2571 2791
2571 2808
2571 2907
2571 2960
2571 2995
2571 3068
2571 3136
2571 3145
2571 3242
2571 3259
2571 3349
2571 3373
2571 3445
2571 3466
2571 3520
2571 3575
2571 3639
2571 3734
2572 2880
2572 3326
2573 2757
2573 2773
2573 2886
2573 2967
2573 3175
2573 3342
2573 3736
2574 2773
2574 2781
2574 2890
2574 2911
2574 2925
2574 2956
2574 2979
2574 3038
2574 3120
2574 3140
2574 3150
2574 3278
2574 3371
2574 3437
2574 3548
2574 3688
2574 3710
2575 2583
2575 2658
2575 2721
2575 2743
2575 2763
2575 2827
2575 2881
2575 2908
2575 2944
2575 2956
2575 2998
2575 3068
2575 3075
2575 3094
2575 3227
2575 3234
2575 3349
2575 3376
2575 3389
2575 3424
2575 3504
2575 3513
2575 3547
2575 3552
2575 3575
2575 3649
2575 3685
2575 3729
2576 2679
2576 3043
2576 3404
2578 2588
2578 2703
2578 2705
2578 2721
2578 2741
2578 2745
2578 2751
2578 2766
2578 2787
2578 2808
2578 2848
2578 2866
2578 2889
2578 2907
2578 2963
2578 3015
2578 3071
2578 3075
2578 3101
2578 3125
2578 3145
2578 3209
2578 3243
2578 3297
2578 3337
2578 3359
2578 3410
2578 3426
2578 3466
2578 3521
2578 3544
2578 3575
2578 3623
2578 3639
2578 3674
2578 3675
2578 3687
2578 3696
2578 3721
2579 2912
2579 3462
2579 3546
2580 2591
2580 2661
2580 2954
2580 3278
2581 2583
2581 2661
2581 2675
2581 2693
2581 2723
2581 2730
2581 2806
2581 2887
2581 2900
2581 2954
2581 2972
2581 3128
2581 3160
2581 3183
2581 3376
2581 3408
2581 3566
2581 3632
2581 3655
2582 2636
2582 2730
2582 2741
2582 2804
2582 2842
2582 3029
2582 3030
2582 3096
2582 3098
2582 3106
2582 3183
2582 3301
2582 3323
2582 3325
2582 3337
2582 3349
2582 3415
2582 3444
2582 3510
2582 3540
2582 3557
2582 3619
2582 3687
2582 3688
2582 3689
2582 3745
2583 2649
2583 2652
2583 2790
2583 2791
2583 2827
2583 2840
2583 2856
2583 2885
2583 2933
2583 2940
2583 3070
2583 3111
2583 3119
2583 3227
2583 3234
2583 3307
2583 3316
2583 3385
2583 3452
2583 3458
2583 3514
2583 3516
2583 3573
2583 3575
2583 3585
2583 3626
2583 3630
2583 3635
2583 3649
2583 3696
2583 3729
2584 2756
2584 2781
2584 2956
2584 3644
2585 2816
2585 2817
2585 3142
2585 3172
2585 3278
2585 3456
2586 2698
2586 3184
2586 3227
2588 2703
2588 2705
2588 2721
2588 2741
2588 2751
2588 2766
2588 2804
2588 2827
2588 2848
2588 2879
2588 2963
2588 2971
2588 3015
2588 3047
2588 3070
2588 3071
2588 3075
2588 3098
2588 3125
2588 3145
2588 3153
2588 3209
2588 3288
2588 3297
2588 3337
2588 3355
2588 3386
2588 3410
2588 3426
2588 3430
2588 3466
2588 3534
2588 3544
2588 3575
2588 3623
2588 3639
2588 3675
2588 3721
2588 3737
2589 2615
2589 2667
2589 2815
2589 2897
2589 3022
2589 3026
2589 3080
2589 3204
2589 3252
2589 3300
2589 3316
2589 3338
2589 3382
2589 3412
2589 3529
2589 3657
2589 3684
2590 2710
2590 3524
2590 3630
2591 2605
2591 2628
2591 2661
2591 2680
2591 2852
2591 2956
2591 2979
2591 3117
2591 3150
2591 3187
2591 3223
2591 3278
2591 3476
2591 3507
2591 3548
2591 3568
2591 3627
2592 3442
2593 2648
2593 2675
2593 2791
2593 2877
2593 2933
2593 3110
2593 3111
2593 3443
2593 3514
2593 3573
2594 2665
2594 2699
2594 2792
2594 2942
2594 2980
2594 3244
2594 3343
2594 3482
2594 3557
2595 2730
2595 2767
2595 2771
2595 2774
2595 2911
2595 3035
2595 3096
2595 3106
2595 3128
2595 3183
2595 3255
2595 3448
2595 3540
2595 3562
2595 3688
2595 3689
2595 3731
2596 2604
2596 2620
2596 2622
2596 2642
2596 2668
2596 2757
2596 2783
2596 2805
2596 2849
2596 2857
2596 2879
2596 3000
2596 3028
2596 3076
2596 3098
2596 3169
2596 3193
2596 3224
2596 3253
2596 3342
2596 3428
2596 3477
2596 3558
2596 3568
2596 3598
2596 3617
2596 3629
2596 3673
2596 3687
2596 3745
2597 2964
2597 3057
2597 3143
2597 3167
2597 3497
2597 3528
2597 3695
2598 3414
2598 3464
2598 3658
2599 2665
2599 3113
2599 3164
2599 3171
2599 3527
2599 3626
2599 3692
2599 3717
2600 2630
2600 2804
2600 2916
2600 3007
2600 3194
2600 3563
2600 3618
2600 3619
2600 3626
2600 3661
2600 3692
2601 2636
2601 2659
2601 2686
2601 2728
2601 2755
2601 2804
2601 2842
2601 2859
2601 2895
2601 2942
2601 2973
2601 3000
2601 3007
2601 3021
2601 3070
2601 3086
2601 3103
2601 3116
2601 3118
2601 3138
2601 3152
2601 3178
2601 3183
2601 3193
2601 3207
2601 3224
2601 3227
2601 3248
2601 3258
2601 3274
2601 3325
2601 3332
2601 3339
2601 3349
2601 3364
2601 3386
2601 3399
2601 3430
2601 3450
2601 3465
2601 3510
2601 3557
2601 3624
2601 3638
2601 3640
2601 3641
2601 3672
2602 2721
2602 2746
2602 3125
2602 3405
2602 3513
2602 3524
2602 3603
2603 3172
2603 3306
2603 3537
2604 2620
2604 2668
2604 2687
2604 2700
2604 2805
2604 2840
2604 2857
2604 2878
2604 2907
2604 2973
2604 3000
2604 3007
2604 3093
2604 3224
2604 3242
2604 3249
2604 3342
2604 3360
2604 3428
2604 3564
2604 3575
2604 3598
2604 3652
2604 3675
2604 3687
2605 2647
2605 2649
2605 2653
2605 2670
2605 2680
2605 2749
2605 2799
2605 2817
2605 2852
2605 2960
2605 2973
2605 2979
2605 2999
2605 3004
2605 3009
2605 3078
2605 3107
2605 3117
2605 3120
2605 3153
2605 3186
2605 3191
2605 3223
2605 3285
2605 3293
2605 3336
2605 3372
2605 3385
2605 3389
2605 3419
2605 3506
2605 3531
2605 3575
2605 3628
2605 3659
2605 3668
2605 3682
2605 3683
2605 3702
2605 3711
2605 3718
2605 3742
2606 2689
2606 2940
2606 3257
2607 2647
2607 2648
2607 2649
2607 2999
2607 3007
2607 3118
2607 3153
2607 3191
2607 3332
2607 3336
2607 3359
2607 3367
2607 3382
2607 3396
2607 3462
2607 3735
2608 2826
2608 3041
2608 3145
2608 3272
2608 3312
2608 3575
2608 3639
2609 2710
2609 2752
2609 2852
2609 2994
2609 3029
2609 3040
2609 3057
2609 3066
2609 3128
2609 3184
2609 3240
2609 3370
2609 3501
2609 3524
2609 3704
2609 3718
2610 3234
2610 3567
2611 2953
2611 3021
2611 3194
2611 3365
2611 3487
2611 3569
2612 2919
2612 2940
2612 3211
2612 3264
2612 3329
2612 3494
2612 3504
2612 3649
2613 2684
2613 2818
2613 2988
2613 3111
2613 3130
2613 3141
2613 3167
2613 3181
2613 3514
2613 3605
2613 3641
2613 3674
2614 2648
2614 2811
2614 2882
2614 2933
2614 3015
2614 3530
2614 3585
2615 2617
2615 2620
2615 2667
2615 2703
2615 2730
2615 2767
2615 2774
2615 2808
2615 2911
2615 2973
2615 3096
2615 3102
2615 3106
2615 3136
2615 3183
2615 3253
2615 3370
2615 3449
2615 3540
2615 3624
2615 3639
2615 3688
2615 3689
2615 3706
2615 3721
2615 3731
2616 3232
2616 3479
2616 3655
2617 2708
2617 2710
2617 2767
2617 2842
2617 2973
2617 3000
2617 3021
2617 3096
2617 3098
2617 3182
2617 3183
2617 3224
2617 3339
2617 3349
2617 3370
2617 3449
2617 3469
2617 3585
2617 3599
2617 3624
2617 3672
2617 3689
2617 3721
2618 3117
2619 2648
2619 3354
2619 3404
2619 3514
2619 3659
2620 2640
2620 2649
2620 2658
2620 2741
2620 2745
2620 2769
2620 2783
2620 2789
2620 2791
2620 2805
2620 2849
2620 2850
2620 2879
2620 2901
2620 2944
2620 3023
2620 3030
2620 3068
2620 3070
2620 3075
2620 3101
2620 3125
2620 3136
2620 3137
2620 3139
2620 3145
2620 3153
2620 3169
2620 3191
2620 3220
2620 3227
2620 3243
2620 3253
2620 3259
2620 3325
2620 3349
2620 3366
2620 3386
2620 3426
2620 3449
2620 3466
2620 3477
2620 3547
2620 3553
2620 3558
2620 3592
2620 3601
2620 3611
2620 3617
2620 3629
2620 3649
2620 3675
2620 3687
2620 3717
2620 3721
2620 3734
2621 3073
2621 3148
2621 3538
2622 2677
2622 2680
2622 2817
2622 2869
2622 2907
2622 2918
2622 2975
2622 3071
2622 3076
2622 3098
2622 3121
2622 3123
2622 3212
2622 3293
2622 3476
2622 3541
2622 3603
2622 3636
2622 3682
2622 3702
2622 3705
2623 2896
2623 2908
2623 2933
2623 3194
2623 3491
2623 3618
2623 3655
2624 2712
2624 3151
2625 2630
2625 2655
2625 2677
2625 2751
2625 2804
2625 2808
2625 2827
2625 2838
2625 2865
2625 3007
2625 3098
2625 3143
2625 3158
2625 3163
2625 3226
2625 3309
2625 3405
2625 3426
2625 3510
2625 3520
2625 3521
2625 3599
2625 3626
2625 3639
2625 3659
2625 3677
2625 3692
2625 3726
2626 2699
2626 2790
2626 2792
2626 2845
2626 2881
2626 2940
2626 2974
2626 3094
2626 3249
2626 3269
2626 3482
2626 3504
2626 3513
2626 3572
2626 3578
2626 3709
2627 2852
2627 2978
2627 3107
2627 3117
2627 3124
2627 3187
2627 3594
2628 2642
2628 2680
2628 2723
2628 2744
2628 2829
2628 2934
2628 2956
2628 2968
2628 3064
2628 3112
2628 3235
2628 3241
2628 3278
2628 3305
2628 3358
2628 3376
2628 3461
2628 3500
2628 3513
2628 3537
2628 3687
2629 2975
2629 3546
2629 3619
2630 2655
2630 2703
2630 2738
2630 2808
2630 3153
2630 3226
2630 3235
2630 3247
2630 3553
2630 3588
2630 3618
2630 3626
2630 3721
2631 2681
2631 2703
2631 2971
2631 3080
2631 3108
2631 3144
2631 3335
2631 3359
2631 3665
2631 3679
2631 3730
2631 3741
2632 3026
2632 3189
2632 3349
2632 3362
2632 3516
2632 3520
2632 3555
2633 2727
2633 2940
2633 3484
2633 3513
2633 3659
2633 3693
2634 2836
2634 3081
2634 3088
2634 3120
2634 3157
2634 3224
2634 3251
2634 3275
2634 3345
2634 3561
2634 3683
2635 2648
2635 2763
2635 2944
2635 2985
2635 3063
2635 3116
2635 3118
2635 3418
2635 3599
2635 3610
2635 3626
2635 3634
2635 3638
2635 3659
2635 3661
2635 3692
2635 3724
2636 2665
2636 2699
2636 2710
2636 2755
2636 2791
2636 2821
2636 2842
2636 2845
2636 2895
2636 2942
2636 2960
2636 3021
2636 3086
2636 3094
2636 3118
2636 3129
2636 3138
2636 3145
2636 3178
2636 3183
2636 3258
2636 3274
2636 3339
2636 3370
2636 3430
2636 3450
2636 3466
2636 3482
2636 3510
2636 3513
2636 3575
2636 3578
2636 3626
2636 3640
2636 3661
2636 3736
2637 3293
2637 3592
2638 2763
2638 2852
2638 2858
2638 2951
2638 2962
2638 2973
2638 3002
2638 3015
2638 3026
2638 3115
2638 3119
2638 3171
2638 3234
2638 3396
2638 3573
2639 2723
2639 2924
2639 2973
2639 3082
2639 3145
2639 3243
2639 3509
2639 3603
2639 3624
2639 3687
2639 3714
2640 2648
2640 2664
2640 2689
2640 2701
2640 2708
2640 2751
2640 2767
2640 2787
2640 2791
2640 2827
2640 2856
2640 2906
2640 2914
2640 2944
2640 3045
2640 3047
2640 3068
2640 3070
2640 3075
2640 3092
2640 3139
2640 3147
2640 3164
2640 3220
2640 3234
2640 3245
2640 3272
2640 3349
2640 3360
2640 3366
2640 3386
2640 3389
2640 3395
2640 3431
2640 3466
2640 3497
2640 3510
2640 3531
2640 3534
2640 3547
2640 3578
2640 3632
2640 3635
2640 3666
2640 3689
2640 3717
2640 3746
2641 3534
2642 2700
2642 2915
2642 2970
2642 3016
2642 3078
2642 3112
2642 3137
2642 3288
2642 3290
2642 3310
2642 3677
2642 3687
2642 3739
2643 2678
2643 2860
2643 2877
2643 3365
2643 3615
2643 3699
2644 3695
2645 2782
2645 2804
2645 3047
2645 3087
2645 3119
2645 3491
2645 3545
2645 3634
2645 3692
2646 2674
2646 2725
2646 2921
2646 2926
2646 2934
2646 2935
2646 2967
2646 3038
2646 3207
2646 3437
2646 3490
2646 3598
2647 2648
2647 2649
2647 2960
2647 2999
2647 3098
2647 3119
2647 3153
2647 3191
2647 3227
2647 3245
2647 3336
2647 3531
2647 3630
2647 3735
2648 2649
2648 2658
2648 2665
2648 2688
2648 2696
2648 2716
2648 2740
2648 2772
2648 2791
2648 2802
2648 2803
2648 2838
2648 2850
2648 2852
2648 2877
2648 2943
2648 3004
2648 3021
2648 3043
2648 3065
2648 3091
2648 3111
2648 3127
2648 3164
2648 3265
2648 3273
2648 3343
2648 3390
2648 3396
2648 3404
2648 3435
2648 3514
2648 3533
2648 3563
2648 3573
2648 3585
2648 3642
2648 3645
2648 3654
2648 3665
2648 3668
2648 3704
2648 3715
2648 3718
2648 3736
2649 2669
2649 2696
2649 2699
2649 2745
2649 2791
2649 2827
2649 2906
2649 2944
2649 2960
2649 2999
2649 3004
2649 3010
2649 3043
2649 3059
2649 3075
2649 3092
2649 3096
2649 3131
2649 3153
2649 3182
2649 3191
2649 3227
2649 3234
2649 3307
2649 3312
2649 3336
2649 3349
2649 3395
2649 3426
2649 3462
2649 3547
2649 3575
2649 3578
2649 3649
2649 3689
2649 3718
2650 2672
2650 2830
2650 3640
2651 2993
2651 3326
2651 3562
2651 3579
2652 2778
2652 2828
2652 2865
2652 2964
2652 3160
2652 3205
2652 3376
2652 3466
2652 3491
2652 3559
2653 2680
2653 3110
2653 3120
2653 3186
2653 3269
2653 3361
2653 3372
2653 3389
2653 3587
2653 3702
2653 3711
2654 2700
2654 2772
2654 3016
2654 3038
2654 3257
2654 3265
2654 3368
2654 3418
2654 3429
2654 3437
2654 3691
2655 2703
2655 2741
2655 2774
2655 2787
2655 2808
2655 2865
2655 2960
2655 2981
2655 3021
2655 3068
2655 3136
2655 3147
2655 3226
2655 3309
2655 3388
2655 3426
2655 3440
2655 3520
2655 3521
2655 3575
2655 3639
2655 3721
2656 2749
2656 2771
2656 2780
2656 2781
2656 2817
2656 2823
2656 2888
2656 2900
2656 2956
2656 3278
2656 3302
2656 3413
2656 3422
2656 3548
2656 3564
2656 3622
2656 3636
2656 3702
2656 3710
2657 2809
2657 2901
2657 3012
2657 3066
2657 3169
2657 3194
2657 3246
2657 3378
2657 3388
2657 3696
2657 3746
2658 2767
2658 2809
2658 2839
2658 2849
2658 2879
2658 2944
2658 3110
2658 3134
2658 3137
2658 3278
2658 3349
2658 3382
2658 3385
2658 3404
2658 3492
2658 3601
2658 3611
2659 2755
2659 2842
2659 3021
2659 3116
2659 3138
2659 3161
2659 3274
2659 3557
2659 3599
2659 3672
2660 2677
2660 2732
2660 2838
2660 3021
2660 3176
2660 3481
2660 3532
2661 2723
2661 2851
2661 2869
2661 2954
2661 2956
2661 2972
2661 3192
2661 3223
2661 3278
2661 3376
2662 2666
2662 3037
2662 3153
2662 3382
2663 3195
2663 3318
2663 3331
2664 2696
2664 2698
2664 2733
2664 2745
2664 2766
2664 2787
2664 2791
2664 2856
2664 2944
2664 2951
2664 3015
2664 3021
2664 3029
2664 3047
2664 3068
2664 3070
2664 3075
2664 3122
2664 3139
2664 3147
2664 3227
2664 3245
2664 3259
2664 3272
2664 3349
2664 3366
2664 3386
2664 3466
2664 3547
2664 3573
2664 3575
2664 3635
2665 2666
2665 2699
2665 2808
2665 2848
2665 2939
2665 2940
2665 2942
2665 2961
2665 2978
2665 3021
2665 3043
2665 3077
2665 3094
2665 3134
2665 3138
2665 3161
2665 3164
2665 3171
2665 3184
2665 3213
2665 3227
2665 3273
2665 3308
2665 3330
2665 3386
2665 3395
2665 3435
2665 3452
2665 3482
2665 3503
2665 3513
2665 3517
2665 3557
2665 3572
2665 3578
2665 3600
2665 3601
2665 3695
2665 3717
2665 3724
2666 2672
2666 2706
2666 2791
2666 2843
2666 2852
2666 2933
2666 2973
2666 3010
2666 3066
2666 3128
2666 3153
2666 3227
2666 3337
2666 3382
2666 3466
2666 3479
2666 3503
2666 3585
2666 3600
2666 3695
2666 3718
2667 2711
2667 2777
2667 2806
2667 2818
2667 2897
2667 2899
2667 2973
2667 3022
2667 3080
2667 3093
2667 3382
2667 3503
2667 3600
2668 2687
2668 2766
2668 2800
2668 2805
2668 2815
2668 2840
2668 2857
2668 2869
2668 2878
2668 2884
2668 2907
2668 2967
2668 2973
2668 3000
2668 3015
2668 3093
2668 3125
2668 3145
2668 3192
2668 3224
2668 3259
2668 3292
2668 3426
2668 3428
2668 3430
2668 3462
2668 3507
2668 3536
2668 3564
2668 3575
2668 3598
2668 3624
2668 3652
2668 3675
2668 3687
2669 2903
2669 3182
2669 3279
2670 3265
2670 3389
2670 3478
2671 2955
2671 3051
2671 3224
2671 3321
2671 3411
2671 3739
2672 2687
2672 2713
2672 2750
2672 2774
2672 2830
2672 2843
2672 2896
2672 3655
2672 3718
2673 3052
2673 3331
2673 3591
2673 3712
2674 2725
2674 2934
2674 2935
2675 2698
2675 2806
2675 2814
2675 2984
2675 3167
2675 3408
2675 3679
2676 2812
2676 3065
2676 3124
2676 3261
2676 3376
2677 2707
2677 2732
2677 2737
2677 2755
2677 2804
2677 2813
2677 2992
2677 3007
2677 3076
2677 3098
2677 3106
2677 3163
2677 3176
2677 3441
2677 3464
2677 3481
2677 3510
2677 3562
2677 3677
2677 3745
2678 2860
2678 2912
2678 2988
2678 3183
2678 3212
2678 3454
2678 3638
2678 3641
2678 3722
2679 2689
2679 2891
2679 2959
2679 2962
2679 3043
2679 3121
2679 3125
2679 3183
2679 3376
2679 3404
2679 3489
2679 3518
2679 3543
2679 3619
2679 3659
2679 3704
2679 3738
2680 2807
2680 2817
2680 2869
2680 2880
2680 2960
2680 2975
2680 2987
2680 3078
2680 3120
2680 3293
2680 3389
2680 3436
2680 3440
2680 3497
2680 3628
2680 3695
2680 3702
2681 2896
2681 3144
2681 3335
2681 3418
2682 2703
2682 2728
2682 2741
2682 2751
2682 2770
2682 2774
2682 2808
2682 2882
2682 2891
2682 2941
2682 2981
2682 3021
2682 3083
2682 3148
2682 3167
2682 3183
2682 3212
2682 3220
2682 3297
2682 3304
2682 3528
2682 3681
2682 3686
2682 3745
2683 2687
2683 2790
2683 2795
2683 2808
2683 2869
2683 2909
2683 2956
2683 3223
2683 3310
2683 3476
2683 3506
2683 3569
2683 3575
2683 3596
2683 3639
2683 3675
2683 3682
2683 3689
2683 3702
2683 3742
2684 2818
2684 2837
2684 2911
2684 3037
2684 3111
2684 3112
2684 3130
2684 3141
2684 3181
2684 3305
2684 3345
2684 3358
2684 3407
2684 3409
2684 3514
2684 3641
2685 2742
2685 2917
2685 3081
2685 3197
2685 3420
2685 3562
2686 2842
2686 2895
2686 3258
2686 3332
2686 3399
2687 2750
2687 2830
2687 2869
2687 2951
2687 2956
2687 3015
2687 3016
2687 3058
2687 3078
2687 3112
2687 3124
2687 3183
2687 3190
2687 3207
2687 3275
2687 3283
2687 3296
2687 3317
2687 3364
2687 3365
2687 3368
2687 3464
2687 3466
2687 3598
2687 3624
2687 3680
2687 3683
2687 3687
2687 3710
2687 3739
2687 3746
2688 2804
2688 2852
2688 2972
2688 2978
2688 2985
2688 3164
2688 3180
2688 3337
2688 3442
2688 3466
2688 3531
2688 3659
2688 3718
2688 3741
2689 2914
2689 2921
2689 3006
2689 3092
2689 3148
2689 3179
2689 3184
2689 3210
2689 3392
2689 3497
2689 3508
2689 3519
2689 3642
2689 3659
2689 3704
2689 3716
2690 2707
2690 2710
2690 2727
2690 2755
2690 2770
2690 2827
2690 3021
2690 3149
2690 3315
2690 3510
2690 3599
2691 3668
2692 2744
2692 3438
2692 3573
2692 3616
2693 2807
2693 3037
2693 3111
2693 3112
2693 3127
2693 3130
2693 3305
2693 3345
2693 3358
2693 3376
2693 3407
2693 3514
2693 3703
2693 3711
2695 2898
2695 2950
2695 3335
2695 3408
2695 3609
2695 3643
2696 2791
2696 2809
2696 2815
2696 2827
2696 2836
2696 2944
2696 3015
2696 3029
2696 3055
2696 3066
2696 3070
2696 3075
2696 3093
2696 3108
2696 3131
2696 3153
2696 3191
2696 3227
2696 3230
2696 3234
2696 3306
2696 3349
2696 3466
2696 3527
2696 3536
2696 3547
2696 3557
2696 3562
2696 3575
2696 3595
2696 3596
2696 3639
2696 3666
2696 3687
2696 3695
2696 3734
2696 3737
2697 2858
2697 3412
2698 2942
2698 2971
2698 3068
2698 3161
2698 3272
2698 3349
2698 3360
2698 3433
2698 3466
2698 3624
2698 3626
2698 3630
2698 3679
2698 3730
2699 2792
2699 2845
2699 2884
2699 2888
2699 2939
2699 2940
2699 2942
2699 2956
2699 3094
2699 3138
2699 3178
2699 3207
2699 3227
2699 3264
2699 3284
2699 3322
2699 3339
2699 3356
2699 3435
2699 3482
2699 3484
2699 3510
2699 3513
2699 3517
2699 3557
2699 3572
2699 3578
2699 3642
2699 3649
2699 3650
2699 3724
2699 3734
2699 3736
2700 2911
2700 3004
2700 3016
2700 3028
2700 3186
2700 3265
2700 3288
2700 3355
2700 3359
2700 3389
2700 3573
2700 3726
2700 3739
2700 3741
2701 3257
2701 3360
2702 3488
2703 2705
2703 2721
2703 2741
2703 2745
2703 2746
2703 2751
2703 2766
2703 2774
2703 2791
2703 2804
2703 2808
2703 2845
2703 2848
2703 2850
2703 2865
2703 2907
2703 2946
2703 2960
2703 2981
2703 2994
2703 3021
2703 3024
2703 3047
2703 3059
2703 3068
2703 3071
2703 3098
2703 3101
2703 3108
2703 3125
2703 3136
2703 3145
2703 3147
2703 3163
2703 3183
2703 3209
2703 3220
2703 3230
2703 3234
2703 3243
2703 3259
2703 3309
2703 3349
2703 3373
2703 3388
2703 3426
2703 3437
2703 3440
2703 3449
2703 3510
2703 3520
2703 3521
2703 3528
2703 3544
2703 3562
2703 3571
2703 3639
2703 3674
2703 3675
2703 3676
2703 3682
2703 3689
2703 3695
2703 3721
2705 2721
2705 2741
2705 2745
2705 2751
2705 2753
2705 2766
2705 2774
2705 2797
2705 2808
2705 2848
2705 2889
2705 3071
2705 3125
2705 3145
2705 3183
2705 3194
2705 3209
2705 3243
2705 3288
2705 3297
2705 3410
2705 3521
2705 3534
2705 3544
2705 3575
2705 3674
2705 3675
2705 3687
2705 3721
2706 2723
2706 2772
2706 2781
2706 2822
2706 2827
2706 2829
2706 2917
2706 2966
2706 2972
2706 3297
2706 3324
2706 3359
2706 3360
2706 3380
2706 3621
2706 3696
2707 2710
2707 2727
2707 2770
2707 2787
2707 3000
2707 3007
2707 3021
2707 3129
2707 3149
2707 3183
2707 3224
2707 3315
2707 3332
2707 3430
2707 3450
2707 3466
2707 3510
2707 3624
2708 2710
2708 2751
2708 2809
2708 2858
2708 2997
2708 3092
2708 3193
2708 3212
2708 3257
2708 3297
2708 3339
2708 3449
2708 3473
2708 3585
2708 3716
2708 3718
2708 3721
2709 2973
2709 3016
2709 3081
2709 3275
2709 3365
2709 3585
2710 2717
2710 2752
2710 2842
2710 2845
2710 2861
2710 2920
2710 2940
2710 2941
2710 2973
2710 2994
2710 2997
2710 3000
2710 3007
2710 3021
2710 3057
2710 3066
2710 3086
2710 3103
2710 3138
2710 3161
2710 3178
2710 3184
2710 3193
2710 3197
2710 3207
2710 3212
2710 3224
2710 3248
2710 3249
2710 3274
2710 3320
2710 3339
2710 3394
2710 3399
2710 3417
2710 3450
2710 3465
2710 3486
2710 3510
2710 3599
2710 3601
2710 3609
2710 3624
2710 3630
2710 3661
2710 3672
2710 3704
2710 3714
2711 3022
2713 2738
2713 2808
2713 2809
2713 2818
2713 2830
2713 2905
2713 2946
2713 2977
2713 3013
2713 3026
2713 3059
2713 3108
2713 3128
2713 3143
2713 3209
2713 3364
2713 3376
2713 3377
2713 3424
2713 3478
2713 3516
2713 3528
2713 3538
2713 3568
2713 3585
2713 3596
2713 3600
2713 3694
2713 3714
2713 3718
2714 3298
2714 3708
2715 3039
2715 3560
2716 2955
2717 3046
2717 3121
2717 3257
2717 3522
2718 2940
2718 3650
2719 2765
2719 2931
2719 2948
2719 2975
2719 3136
2719 3431
2719 3657
2719 3712
2720 2946
2720 2991
2720 3034
2720 3132
2720 3223
2720 3303
2720 3528
2720 3702
2720 3703
2721 2745
2721 2751
2721 2766
2721 2783
2721 2791
2721 2804
2721 2808
2721 2827
2721 2848
2721 2850
2721 2884
2721 2944
2721 3047
2721 3071
2721 3101
2721 3125
2721 3145
2721 3185
2721 3190
2721 3220
2721 3243
2721 3259
2721 3292
2721 3312
2721 3395
2721 3410
2721 3426
2721 3444
2721 3504
2721 3521
2721 3544
2721 3592
2721 3599
2721 3619
2721 3624
2721 3653
2721 3674
2721 3675
2721 3676
2721 3682
2721 3721
2722 3419
2722 3461
2723 2744
2723 2771
2723 2772
2723 2810
2723 2829
2723 2883
2723 2884
2723 2908
2723 2917
2723 2967
2723 2972
2723 2973
2723 3034
2723 3324
2723 3360
2723 3376
2723 3390
2723 3467
2723 3506
2723 3687
2724 2789
2724 2834
2724 2841
2724 2849
2724 2901
2724 2993
2724 3008
2724 3031
2724 3197
2724 3326
2724 3420
2724 3464
2724 3487
2724 3592
2724 3629
2725 2810
2725 2835
2725 2925
2725 2926
2725 2934
2725 2988
2725 3038
2725 3066
2725 3207
2725 3283
2725 3302
2725 3326
2725 3365
2725 3369
2725 3437
2725 3490
2725 3536
2726 2891
2726 3325
2726 3734
2727 2734
2727 2755
2727 2770
2727 2842
2727 3007
2727 3118
2727 3149
2727 3274
2727 3315
2727 3332
2727 3510
2727 3575
2728 3045
2728 3171
2728 3276
2728 3433
2728 3439
2728 3687
2728 3690
2729 3014
2729 3161
2730 2767
2730 2774
2730 2791
2730 2804
2730 2836
2730 2871
2730 2911
2730 2961
2730 3096
2730 3106
2730 3124
2730 3183
2730 3184
2730 3370
2730 3458
2730 3540
2730 3604
2730 3688
2730 3689
2730 3731
2731 2859
2731 2986
2731 3120
2731 3251
2731 3364
2731 3597
2731 3667
2732 2827
2732 2838
2732 2945
2732 2990
2732 3098
2732 3277
2732 3343
2732 3626
2732 3661
2733 2851
2733 2906
2733 3124
2733 3194
2733 3243
2733 3547
2733 3575
2733 3606
2733 3666
2734 2771
2734 2787
2734 2814
2734 2831
2734 2852
2734 2907
2734 2978
2734 3015
2734 3107
2734 3111
2734 3147
2734 3225
2734 3249
2734 3332
2734 3386
2734 3466
2734 3478
2734 3596
2734 3624
2734 3628
2734 3641
2734 3680
2734 3685
2734 3695
2735 2825
2735 3546
2736 2780
2736 2942
2736 3217
2737 2986
2737 2992
2737 3021
2737 3084
2737 3098
2737 3176
2737 3464
2737 3481
2737 3546
2737 3668
2737 3677
2738 2808
2738 2899
2738 2963
2738 3112
2738 3173
2738 3466
2738 3637
2738 3645
2738 3718
2739 2834
2739 2852
2739 3059
2739 3390
2740 3354
2741 2751
2741 2766
2741 2781
2741 2808
2741 2848
2741 2879
2741 2981
2741 3012
2741 3021
2741 3030
2741 3059
2741 3071
2741 3098
2741 3108
2741 3169
2741 3234
2741 3253
2741 3309
2741 3320
2741 3323
2741 3324
2741 3325
2741 3337
2741 3349
2741 3444
2741 3477
2741 3544
2741 3601
2741 3623
2741 3629
2741 3639
2741 3669
2741 3674
2741 3683
2741 3687
2741 3714
2741 3721
2741 3745
2742 3420
2743 2801
2743 2869
2743 2946
2743 2956
2743 2977
2743 3132
2743 3159
2743 3303
2743 3513
2743 3528
2743 3729
2744 2815
2744 2956
2744 3029
2744 3055
2744 3093
2744 3108
2744 3131
2744 3306
2744 3438
2744 3562
2744 3687
2744 3719
2744 3737
2744 3742
2745 2751
2745 2755
2745 2765
2745 2766
2745 2791
2745 2804
2745 2808
2745 2848
2745 2849
2745 2850
2745 2879
2745 2907
2745 2944
2745 2960
2745 2995
2745 3015
2745 3023
2745 3030
2745 3054
2745 3068
2745 3070
2745 3098
2745 3101
2745 3125
2745 3136
2745 3145
2745 3185
2745 3227
2745 3242
2745 3253
2745 3259
2745 3272
2745 3325
2745 3349
2745 3373
2745 3386
2745 3395
2745 3426
2745 3445
2745 3462
2745 3466
2745 3477
2745 3521
2745 3575
2745 3592
2745 3599
2745 3601
2745 3617
2745 3629
2745 3639
2745 3674
2745 3675
2745 3687
2745 3689
2745 3712
2745 3717
2745 3721
2745 3734
2746 2821
2746 2863
2746 2941
2746 3021
2746 3086
2746 3129
2746 3183
2746 3243
2746 3405
2746 3430
2746 3510
2746 3534
2746 3638
2746 3681
2748 3058
2749 2773
2749 2790
2749 2886
2749 2888
2749 2938
2749 3112
2749 3296
2749 3389
2749 3413
2749 3446
2749 3514
2749 3571
2749 3637
2749 3645
2749 3668
2749 3714
2749 3718
2749 3736
2750 3270
2750 3713
2751 2766
2751 2791
2751 2808
2751 2848
2751 2889
2751 2907
2751 2935
2751 2944
2751 2963
2751 2970
2751 3015
2751 3016
2751 3023
2751 3047
2751 3054
2751 3070
2751 3071
2751 3075
2751 3098
2751 3125
2751 3145
2751 3147
2751 3164
2751 3194
2751 3209
2751 3219
2751 3234
2751 3257
2751 3288
2751 3297
2751 3310
2751 3317
2751 3330
2751 3337
2751 3339
2751 3364
2751 3410
2751 3426
2751 3430
2751 3466
2751 3509
2751 3510
2751 3521
2751 3534
2751 3544
2751 3575
2751 3623
2751 3639
2751 3674
2751 3675
2751 3683
2751 3687
2751 3696
2751 3721
2752 2861
2752 2940
2752 2977
2752 2994
2752 3021
2752 3035
2752 3057
2752 3066
2752 3110
2752 3128
2752 3193
2752 3249
2752 3320
2752 3382
2752 3384
2752 3491
2752 3510
2752 3704
2752 3713
2753 2797
2753 2808
2753 2960
2753 3021
2754 2862
2754 3031
2754 3271
2754 3275
2754 3326
2754 3365
2754 3554
2755 2770
2755 2804
2755 2842
2755 2859
2755 2867
2755 2871
2755 2875
2755 2895
2755 2942
2755 3000
2755 3007
2755 3021
2755 3086
2755 3105
2755 3118
2755 3183
2755 3224
2755 3227
2755 3248
2755 3264
2755 3272
2755 3325
2755 3332
2755 3339
2755 3399
2755 3430
2755 3450
2755 3465
2755 3510
2755 3575
2755 3597
2755 3640
2755 3693
2755 3744
2757 2844
2757 2878
2757 2925
2757 3082
2757 3340
2757 3342
2757 3568
2757 3598
2757 3603
2758 3282
2760 2790
2760 2840
2760 2861
2760 2893
2760 2901
2760 2973
2760 3119
2760 3253
2760 3316
2760 3630
2760 3696
2762 2953
2762 3283
2762 3365
2763 2771
2763 2813
2763 2858
2763 2871
2763 2891
2763 2899
2763 2908
2763 2916
2763 2945
2763 2948
2763 2973
2763 3002
2763 3098
2763 3115
2763 3116
2763 3124
2763 3171
2763 3179
2763 3234
2763 3259
2763 3313
2763 3516
2763 3518
2763 3538
2763 3599
2763 3619
2763 3639
2763 3718
2763 3729
2764 2953
2765 3242
2765 3546
2765 3712
2766 2804
2766 2848
2766 2850
2766 2858
2766 2869
2766 2879
2766 2889
2766 2943
2766 2971
2766 2980
2766 3047
2766 3070
2766 3071
2766 3075
2766 3098
2766 3101
2766 3116
2766 3125
2766 3145
2766 3153
2766 3209
2766 3227
2766 3288
2766 3312
2766 3337
2766 3359
2766 3386
2766 3405
2766 3410
2766 3426
2766 3466
2766 3521
2766 3534
2766 3544
2766 3573
2766 3575
2766 3623
2766 3639
2766 3674
2766 3675
2766 3721
2767 2774
2767 2836
2767 2871
2767 2911
2767 2944
2767 3012
2767 3096
2767 3106
2767 3183
2767 3234
2767 3370
2767 3388
2767 3458
2767 3466
2767 3478
2767 3534
2767 3540
2767 3561
2767 3569
2767 3620
2767 3688
2767 3689
2767 3695
2767 3720
2767 3731
2769 2827
2769 3010
2769 3075
2769 3131
2769 3325
2769 3330
2769 3337
2769 3426
2769 3466
2769 3491
2769 3493
2769 3618
2769 3689
2769 3695
2770 2805
2770 2808
2770 2836
2770 2866
2770 2988
2770 3004
2770 3007
2770 3021
2770 3105
2770 3129
2770 3138
2770 3149
2770 3220
2770 3238
2770 3304
2770 3315
2770 3430
2770 3681
2770 3693
2771 2777
2771 2781
2771 2809
2771 2822
2771 2823
2771 2857
2771 2878
2771 2883
2771 2884
2771 2908
2771 2917
2771 2967
2771 3059
2771 3095
2771 3110
2771 3111
2771 3150
2771 3166
2771 3234
2771 3347
2771 3377
2771 3388
2771 3453
2771 3517
2771 3573
2771 3586
2771 3598
2771 3668
2771 3746
2772 2810
2772 2829
2772 2963
2772 3044
2772 3061
2772 3261
2772 3280
2772 3446
2772 3591
2772 3684
2772 3698
2773 2890
2773 2911
2773 2954
2773 2956
2773 3093
2773 3150
2773 3241
2773 3422
2773 3461
2773 3548
2773 3710
2773 3741
2773 3746
2774 2808
2774 2865
2774 2911
2774 2956
2774 2961
2774 3015
2774 3096
2774 3106
2774 3108
2774 3183
2774 3259
2774 3300
2774 3370
2774 3382
2774 3458
2774 3540
2774 3544
2774 3561
2774 3562
2774 3639
2774 3688
2774 3689
2774 3731
2775 2870
2775 2960
2775 3350
2775 3493
2776 2878
2776 3028
2776 3081
2776 3271
2776 3423
2776 3487
2776 3598
2777 2897
2777 3080
2777 3300
2777 3316
2777 3382
2777 3457
2777 3479
2777 3498
2777 3725
2778 2828
2778 2865
2778 3061
2778 3160
2778 3205
2778 3526
2778 3537
2778 3617
2778 3695
2779 3003
2780 2839
2780 2942
2780 3043
2780 3217
2780 3270
2780 3308
2780 3452
2780 3484
2780 3492
2780 3547
2780 3606
2780 3645
2781 2809
2781 2822
2781 2823
2781 2827
2781 2888
2781 2890
2781 2911
2781 2956
2781 2957
2781 2979
2781 2998
2781 3012
2781 3022
2781 3062
2781 3093
2781 3110
2781 3148
2781 3150
2781 3194
2781 3278
2781 3282
2781 3297
2781 3312
2781 3359
2781 3377
2781 3456
2781 3575
2781 3618
2781 3746
2782 2796
2782 2804
2782 2866
2782 2906
2782 3203
2782 3234
2782 3261
2782 3431
2782 3491
2782 3545
2782 3634
2782 3692
2783 2791
2783 2792
2783 2879
2783 2956
2783 3023
2783 3137
2783 3153
2783 3169
2783 3191
2783 3220
2783 3227
2783 3253
2783 3336
2783 3366
2783 3466
2783 3477
2783 3558
2783 3617
2783 3629
2783 3734
2785 3408
2786 3025
2786 3031
2786 3430
2786 3469
2786 3501
2786 3653
2787 2791
2787 2808
2787 2856
2787 2912
2787 2960
2787 3012
2787 3021
2787 3029
2787 3047
2787 3070
2787 3075
2787 3139
2787 3147
2787 3183
2787 3194
2787 3226
2787 3272
2787 3281
2787 3349
2787 3366
2787 3386
2787 3466
2787 3534
2787 3575
2787 3611
2787 3618
2787 3635
2788 2809
2788 3010
2788 3012
2788 3210
2788 3385
2788 3569
2788 3625
2789 2849
2789 3145
2789 3251
2789 3298
2789 3464
2789 3495
2789 3500
2789 3532
2789 3554
2789 3561
2789 3602
2789 3603
2789 3682
2790 2812
2790 2840
2790 2858
2790 2921
2790 2960
2790 2973
2790 3042
2790 3119
2790 3187
2790 3223
2790 3234
2790 3265
2790 3316
2790 3349
2790 3420
2790 3457
2790 3504
2790 3537
2790 3630
2790 3696
2790 3729
2791 2827
2791 2849
2791 2850
2791 2856
2791 2879
2791 2906
2791 2908
2791 2944
2791 2960
2791 2988
2791 3015
2791 3023
2791 3029
2791 3047
2791 3068
2791 3070
2791 3075
2791 3087
2791 3096
2791 3097
2791 3101
2791 3111
2791 3116
2791 3121
2791 3131
2791 3136
2791 3137
2791 3139
2791 3147
2791 3153
2791 3169
2791 3183
2791 3184
2791 3191
2791 3227
2791 3243
2791 3245
2791 3247
2791 3259
2791 3260
2791 3264
2791 3272
2791 3296
2791 3301
2791 3312
2791 3339
2791 3349
2791 3366
2791 3373
2791 3386
2791 3415
2791 3435
2791 3466
2791 3477
2791 3514
2791 3520
2791 3521
2791 3534
2791 3547
2791 3553
2791 3557
2791 3558
2791 3562
2791 3573
2791 3585
2791 3592
2791 3595
2791 3611
2791 3617
2791 3629
2791 3635
2791 3641
2791 3642
2791 3649
2791 3666
2791 3675
2791 3689
2791 3690
2791 3695
2791 3714
2791 3721
2791 3734
2791 3737
2792 2845
2792 2855
2792 2940
2792 3059
2792 3072
2792 3128
2792 3178
2792 3193
2792 3213
2792 3227
2792 3244
2792 3264
2792 3284
2792 3322
2792 3339
2792 3356
2792 3482
2792 3484
2792 3504
2792 3517
2792 3557
2792 3572
2792 3578
2792 3642
2792 3649
2792 3650
2792 3704
2793 2870
2793 2896
2793 2904
2793 2908
2793 3016
2793 3045
2793 3142
2793 3147
2793 3194
2793 3247
2793 3281
2793 3412
2793 3603
2793 3728
2794 2804
2794 3029
2794 3301
2794 3312
2794 3386
2794 3415
2795 2819
2795 2869
2795 2951
2795 3070
2795 3120
2795 3223
2795 3230
2795 3285
2795 3358
2795 3486
2795 3506
2795 3569
2795 3702
2796 3199
2796 3332
2797 2808
2797 2889
2797 2960
2797 3007
2797 3521
2797 3575
2799 2838
2799 3083
2799 3126
2800 3317
2801 2907
2801 3083
2801 3384
2801 3477
2801 3553
2801 3596
2802 2877
2802 2923
2802 3003
2802 3004
2802 3091
2802 3127
2802 3396
2802 3404
2802 3426
2802 3456
2802 3654
2802 3659
2802 3718
2803 3338
2803 3514
2804 2808
2804 2848
2804 2866
2804 2879
2804 2959
2804 2978
2804 2985
2804 3007
2804 3021
2804 3029
2804 3096
2804 3108
2804 3116
2804 3118
2804 3138
2804 3180
2804 3184
2804 3191
2804 3203
2804 3219
2804 3259
2804 3301
2804 3349
2804 3370
2804 3373
2804 3386
2804 3393
2804 3415
2804 3491
2804 3502
2804 3510
2804 3540
2804 3549
2804 3557
2804 3575
2804 3599
2804 3619
2804 3626
2804 3635
2804 3639
2804 3659
2804 3689
2804 3692
2804 3693
2804 3717
2805 2819
2805 2857
2805 2907
2805 2973
2805 3064
2805 3075
2805 3186
2805 3428
2805 3466
2805 3488
2805 3598
2805 3624
2805 3687
2806 2814
2806 2844
2806 3022
2806 3120
2806 3167
2806 3342
2806 3408
2806 3503
2807 2810
2807 2829
2807 2930
2807 2954
2807 3027
2807 3186
2807 3237
2807 3376
2807 3421
2807 3506
2807 3523
2807 3702
2807 3711
2807 3718
2808 2812
2808 2832
2808 2838
2808 2848
2808 2850
2808 2865
2808 2877
2808 2912
2808 2944
2808 2946
2808 2960
2808 2981
2808 2994
2808 2995
2808 3009
2808 3021
2808 3030
2808 3046
2808 3047
2808 3059
2808 3068
2808 3071
2808 3097
2808 3098
2808 3101
2808 3136
2808 3147
2808 3193
2808 3212
2808 3214
2808 3226
2808 3243
2808 3259
2808 3265
2808 3273
2808 3292
2808 3309
2808 3312
2808 3320
2808 3349
2808 3373
2808 3388
2808 3396
2808 3426
2808 3435
2808 3440
2808 3478
2808 3511
2808 3520
2808 3521
2808 3528
2808 3534
2808 3542
2808 3544
2808 3547
2808 3549
2808 3558
2808 3562
2808 3575
2808 3603
2808 3618
2808 3639
2808 3661
2808 3675
2808 3682
2808 3689
2808 3695
2808 3696
2808 3698
2808 3717
2808 3721
2808 3726
2808 3731
2808 3734
2808 3741
2809 2822
2809 2841
2809 2853
2809 2858
2809 2901
2809 2912
2809 2944
2809 2964
2809 2998
2809 3010
2809 3012
2809 3071
2809 3075
2809 3102
2809 3110
2809 3111
2809 3130
2809 3143
2809 3226
2809 3234
2809 3349
2809 3378
2809 3382
2809 3388
2809 3417
2809 3420
2809 3421
2809 3424
2809 3449
2809 3466
2809 3478
2809 3553
2809 3569
2809 3573
2809 3578
2809 3586
2809 3594
2809 3616
2809 3629
2809 3696
2809 3746
2810 2956
2810 3120
2810 3237
2810 3564
2810 3587
2810 3664
2810 3686
2810 3691
2810 3711
2810 3741
2811 2871
2811 2891
2811 2899
2811 3106
2811 3189
2811 3364
2811 3412
2811 3464
2812 3059
2812 3265
2813 2827
2813 2871
2813 2891
2813 2899
2813 2988
2813 3098
2813 3332
2814 2900
2814 3034
2814 3110
2814 3167
2814 3235
2814 3528
2815 2829
2815 2897
2815 2956
2815 2973
2815 3007
2815 3022
2815 3055
2815 3093
2815 3108
2815 3227
2815 3252
2815 3255
2815 3300
2815 3306
2815 3316
2815 3346
2815 3382
2815 3507
2815 3562
2815 3598
2815 3682
2815 3687
2815 3737
2816 3174
2816 3470
2817 2869
2817 2881
2817 2884
2817 2956
2817 2975
2817 3150
2817 3172
2817 3234
2817 3278
2817 3288
2817 3306
2817 3368
2817 3413
2817 3437
2817 3456
2817 3627
2817 3741
2818 3057
2818 3087
2818 3111
2818 3112
2818 3141
2818 3406
2818 3486
2818 3514
2819 2956
2819 2973
2819 2988
2819 2989
2819 3010
2819 3090
2819 3093
2819 3249
2819 3385
2819 3575
2819 3598
2819 3628
2819 3641
2819 3682
2819 3688
2821 2842
2821 2895
2821 2941
2821 3007
2821 3021
2821 3086
2821 3129
2821 3183
2821 3258
2821 3332
2821 3364
2821 3405
2821 3430
2821 3450
2821 3510
2821 3638
2821 3640
2822 2827
2822 2888
2822 2890
2822 2956
2822 2979
2822 3012
2822 3148
2822 3150
2822 3194
2822 3278
2822 3359
2822 3377
2822 3456
2822 3479
2823 2888
2823 2956
2823 3278
2823 3413
2823 3422
2823 3456
2823 3548
2823 3622
2823 3710
2825 2920
2825 3031
2825 3081
2825 3197
2825 3251
2825 3256
2825 3275
2825 3298
2825 3464
2825 3500
2825 3561
2825 3598
2825 3667
2826 2878
2826 3041
2826 3301
2826 3312
2826 3507
2826 3573
2827 2838
2827 2877
2827 2933
2827 2945
2827 2972
2827 3009
2827 3010
2827 3012
2827 3015
2827 3021
2827 3070
2827 3075
2827 3098
2827 3118
2827 3194
2827 3297
2827 3337
2827 3349
2827 3354
2827 3359
2827 3466
2827 3491
2827 3547
2827 3563
2827 3573
2827 3574
2827 3575
2827 3618
2827 3619
2827 3626
2827 3649
2827 3692
2827 3693
2827 3695
2827 3696
2827 3714
2827 3745
2828 2933
2828 2964
2828 3136
2828 3160
2828 3205
2828 3376
2828 3559
2829 2925
2829 2935
2829 2973
2829 3038
2829 3324
2829 3490
2829 3496
2829 3507
2829 3523
2829 3598
2830 2838
2830 3061
2830 3159
2830 3183
2830 3259
2830 3507
2830 3568
2830 3575
2830 3596
2830 3687
2830 3702
2830 3706
2831 3109
2831 3144
2831 3385
2831 3418
2831 3424
2831 3431
2831 3543
2832 3019
2832 3021
2832 3332
2832 3626
2832 3692
2832 3740
2833 2985
2833 3418
2834 2944
2834 3044
2834 3081
2834 3222
2834 3537
2835 3369
2835 3419
2836 2889
2836 2907
2836 2946
2836 2967
2836 2994
2836 3106
2836 3209
2836 3220
2836 3466
2836 3561
2836 3574
2837 2973
2837 3478
2838 2839
2838 2879
2838 2912
2838 2944
2838 2981
2838 3077
2838 3083
2838 3145
2838 3147
2838 3149
2838 3183
2838 3243
2838 3247
2838 3332
2838 3343
2838 3462
2838 3534
2838 3599
2838 3601
2838 3624
2838 3626
2838 3661
2838 3706
2838 3718
2838 3745
2839 2948
2839 3484
2839 3599
2839 3606
2839 3661
2840 2907
2840 2915
2840 2973
2840 3218
2840 3242
2840 3316
2840 3437
2840 3656
2840 3696
2840 3711
2841 3130
2841 3197
2841 3222
2841 3420
2841 3495
2842 2882
2842 3000
2842 3007
2842 3029
2842 3086
2842 3103
2842 3118
2842 3138
2842 3161
2842 3193
2842 3207
2842 3224
2842 3274
2842 3394
2842 3399
2842 3415
2842 3510
2842 3557
2842 3597
2842 3599
2842 3672
2843 2896
2843 3124
2843 3259
2843 3514
2843 3655
2843 3718
2844 2907
2844 3095
2844 3340
2844 3342
2844 3428
2844 3568
2844 3598
2844 3673
2845 2861
2845 2878
2845 2880
2845 2888
2845 2889
2845 2907
2845 2940
2845 2956
2845 2973
2845 2989
2845 3000
2845 3094
2845 3138
2845 3145
2845 3178
2845 3183
2845 3207
2845 3224
2845 3264
2845 3339
2845 3450
2845 3482
2845 3484
2845 3504
2845 3508
2845 3510
2845 3536
2845 3554
2845 3572
2845 3575
2845 3578
2845 3598
2845 3624
2845 3638
2845 3650
2845 3683
2845 3687
2845 3709
2845 3736
2846 2942
2846 3311
2846 3699
2848 2889
2848 2942
2848 2959
2848 2962
2848 2963
2848 2973
2848 3071
2848 3098
2848 3101
2848 3116
2848 3125
2848 3145
2848 3209
2848 3211
2848 3243
2848 3259
2848 3306
2848 3349
2848 3410
2848 3426
2848 3521
2848 3534
2848 3544
2848 3575
2848 3623
2848 3639
2848 3674
2848 3675
2848 3676
2848 3721
2849 2879
2849 2933
2849 2956
2849 3008
2849 3023
2849 3070
2849 3128
2849 3139
2849 3147
2849 3153
2849 3169
2849 3191
2849 3227
2849 3242
2849 3243
2849 3253
2849 3272
2849 3349
2849 3366
2849 3426
2849 3466
2849 3477
2849 3534
2849 3558
2849 3575
2849 3601
2849 3602
2849 3611
2849 3629
2849 3675
2849 3721
2850 2944
2850 3021
2850 3047
2850 3068
2850 3075
2850 3101
2850 3121
2850 3125
2850 3220
2850 3227
2850 3243
2850 3395
2850 3426
2850 3521
2850 3528
2850 3544
2850 3599
2850 3639
2850 3675
2850 3676
2850 3682
2850 3721
2851 2972
2851 3010
2851 3376
2851 3516
2851 3606
2851 3655
2852 2978
2852 3059
2852 3107
2852 3117
2852 3186
2852 3187
2852 3263
2852 3385
2852 3390
2852 3404
2852 3431
2852 3442
2852 3463
2852 3479
2852 3543
2852 3659
2852 3681
2852 3716
2852 3718
2852 3741
2853 3031
2853 3032
2853 3174
2853 3421
2853 3570
2853 3586
2854 3546
2855 3117
2855 3482
2855 3642
2856 3029
2856 3043
2856 3047
2856 3070
2856 3075
2856 3139
2856 3147
2856 3234
2856 3245
2856 3272
2856 3296
2856 3366
2856 3385
2856 3386
2856 3447
2856 3466
2856 3514
2856 3534
2856 3594
2856 3603
2856 3609
2856 3635
2857 2878
2857 2884
2857 2973
2857 3028
2857 3137
2857 3388
2857 3428
2857 3488
2857 3521
2857 3598
2857 3652
2858 2988
2858 3010
2858 3066
2858 3087
2858 3115
2858 3202
2858 3385
2858 3412
2858 3449
2858 3473
2858 3514
2858 3518
2858 3700
2858 3715
2859 2986
2859 3021
2859 3129
2859 3178
2859 3248
2859 3251
2859 3399
2859 3469
2859 3597
2859 3640
2860 3082
2860 3183
2860 3212
2860 3342
2860 3473
2860 3638
2861 2901
2861 2940
2861 2956
2861 2994
2861 3000
2861 3021
2861 3093
2861 3094
2861 3138
2861 3207
2861 3224
2861 3405
2861 3509
2861 3513
2861 3572
2861 3683
2861 3687
2861 3736
2862 3031
2862 3271
2863 2941
2863 3405
2864 3345
2865 2964
2865 3061
2865 3212
2865 3226
2865 3376
2865 3526
2865 3559
2865 3575
2865 3714
2866 3203
2866 3404
2866 3692
2867 3083
2867 3343
2867 3350
2867 3364
2867 3531
2867 3573
2867 3619
2867 3661
2868 3217
2868 3227
2868 3364
2868 3687
2869 2904
2869 2907
2869 2924
2869 2926
2869 2956
2869 2975
2869 2997
2869 3074
2869 3121
2869 3137
2869 3209
2869 3223
2869 3310
2869 3389
2869 3424
2869 3442
2869 3476
2869 3500
2869 3507
2869 3551
2869 3596
2869 3603
2869 3668
2869 3675
2869 3682
2869 3702
2869 3742
2870 3045
2870 3164
2870 3493
2870 3543
2870 3735
2871 2891
2871 2899
2871 2908
2871 3007
2871 3096
2871 3179
2871 3301
2871 3325
2871 3370
2871 3540
2871 3689
2871 3718
2872 2987
2873 3166
2873 3446
2873 3686
2874 2958
2874 3017
2874 3560
2875 3021
2875 3105
2875 3110
2875 3129
2875 3196
2875 3224
2875 3248
2875 3450
2875 3465
2875 3597
2875 3640
2875 3683
2877 2933
2877 2948
2877 3010
2877 3046
2877 3087
2877 3091
2877 3092
2877 3107
2877 3110
2877 3111
2877 3117
2877 3122
2877 3127
2877 3142
2877 3202
2877 3212
2877 3265
2877 3273
2877 3274
2877 3311
2877 3320
2877 3367
2877 3376
2877 3396
2877 3404
2877 3425
2877 3435
2877 3443
2877 3518
2877 3520
2877 3547
2877 3563
2877 3585
2877 3615
2877 3645
2877 3686
2877 3691
2877 3704
2877 3715
2877 3718
2878 2989
2878 3002
2878 3004
2878 3137
2878 3249
2878 3303
2878 3316
2878 3358
2878 3396
2878 3413
2878 3423
2878 3427
2878 3507
2878 3536
2878 3573
2878 3598
2878 3686
2878 3736
2879 2944
2879 2956
2879 3047
2879 3070
2879 3071
2879 3116
2879 3153
2879 3169
2879 3191
2879 3227
2879 3253
2879 3325
2879 3339
2879 3349
2879 3366
2879 3386
2879 3466
2879 3553
2879 3558
2879 3562
2879 3575
2879 3599
2879 3601
2879 3611
2879 3617
2879 3629
2879 3635
2879 3639
2879 3689
2880 2956
2880 3110
2880 3288
2880 3326
2880 3436
2880 3482
2880 3564
2880 3575
2881 2910
2881 2963
2881 3046
2881 3151
2881 3162
2881 3192
2881 3320
2881 3392
2881 3500
2881 3536
2881 3548
2881 3649
2881 3704
2881 3738
2882 2919
2882 2963
2882 2998
2882 3015
2882 3040
2882 3057
2882 3167
2882 3192
2882 3339
2882 3408
2882 3426
2882 3466
2882 3478
2882 3528
2882 3563
2882 3575
2882 3585
2882 3599
2882 3624
2882 3675
2882 3684
2882 3695
2883 2884
2883 2917
2883 3061
2883 3084
2883 3668
2883 3687
2884 2889
2884 2925
2884 2975
2884 2979
2884 2994
2884 3101
2884 3137
2884 3209
2884 3243
2884 3266
2884 3288
2884 3343
2884 3377
2884 3408
2884 3437
2884 3463
2884 3572
2884 3578
2884 3638
2884 3714
2885 3382
2886 3175
2886 3580
2887 3010
2887 3128
2887 3376
2887 3589
2887 3632
2888 2956
2888 3009
2888 3093
2888 3150
2888 3178
2888 3190
2888 3223
2888 3264
2888 3278
2888 3413
2888 3422
2888 3513
2888 3548
2888 3572
2888 3578
2888 3642
2888 3710
2889 2908
2889 2963
2889 3071
2889 3209
2889 3544
2889 3561
2889 3623
2889 3675
2889 3687
2890 2911
2890 2956
2890 2957
2890 2979
2890 3062
2890 3075
2890 3093
2890 3120
2890 3140
2890 3150
2890 3207
2890 3278
2890 3407
2890 3456
2890 3490
2890 3548
2890 3710
2891 2899
2891 2933
2891 2959
2891 2962
2891 3007
2891 3059
2891 3096
2891 3179
2891 3325
2891 3336
2891 3433
2891 3473
2891 3616
2893 3627
2894 3434
2895 3021
2895 3047
2895 3048
2895 3086
2895 3116
2895 3129
2895 3152
2895 3258
2895 3274
2895 3370
2895 3399
2895 3450
2895 3640
2896 2908
2896 3194
2896 3514
2896 3603
2896 3655
2896 3664
2897 2899
2897 3022
2897 3080
2897 3382
2897 3479
2897 3668
2898 3643
2898 3659
2899 2908
2899 2963
2899 3007
2899 3030
2899 3096
2899 3098
2899 3173
2899 3179
2899 3225
2899 3325
2899 3343
2899 3364
2899 3382
2899 3388
2899 3406
2899 3462
2899 3479
2899 3498
2899 3687
2900 3110
2900 3167
2901 3008
2901 3102
2901 3253
2901 3466
2901 3496
2901 3553
2901 3558
2901 3592
2901 3611
2901 3629
2901 3746
2902 2947
2902 3092
2902 3162
2902 3716
2903 3054
2903 3182
2903 3279
2903 3665
2904 2926
2904 3045
2904 3247
2904 3728
2905 2946
2905 3199
2905 3528
2905 3585
2906 2908
2906 2960
2906 2988
2906 3097
2906 3124
2906 3139
2906 3146
2906 3194
2906 3220
2906 3239
2906 3245
2906 3303
2906 3379
2906 3478
2906 3547
2906 3601
2906 3621
2906 3626
2906 3666
2906 3689
2906 3692
2907 2925
2907 2944
2907 2956
2907 2975
2907 2994
2907 3068
2907 3093
2907 3121
2907 3125
2907 3136
2907 3137
2907 3145
2907 3158
2907 3207
2907 3209
2907 3242
2907 3259
2907 3278
2907 3306
2907 3317
2907 3349
2907 3426
2907 3437
2907 3440
2907 3445
2907 3476
2907 3482
2907 3487
2907 3507
2907 3520
2907 3536
2907 3575
2907 3603
2907 3664
2907 3675
2907 3682
2907 3691
2907 3702
2907 3731
2908 2973
2908 3108
2908 3179
2908 3183
2908 3194
2908 3234
2908 3298
2908 3364
2908 3382
2908 3408
2908 3466
2908 3538
2908 3547
2908 3575
2908 3596
2908 3603
2908 3639
2908 3666
2908 3687
2908 3695
2908 3696
2909 3131
2909 3479
2909 3528
2909 3596
2909 3604
2910 3128
2910 3431
2910 3569
2910 3603
2910 3704
2911 2956
2911 2979
2911 3016
2911 3093
2911 3096
2911 3105
2911 3106
2911 3150
2911 3183
2911 3221
2911 3241
2911 3266
2911 3300
2911 3306
2911 3359
2911 3370
2911 3413
2911 3490
2911 3540
2911 3688
2911 3689
2911 3731
2912 3059
2912 3066
2912 3102
2912 3120
2912 3169
2912 3181
2912 3226
2912 3359
2912 3364
2912 3388
2912 3449
2912 3478
2912 3521
2912 3575
2912 3594
2912 3605
2912 3620
2912 3630
2912 3720
2912 3721
2913 3407
2914 3175
2914 3580
2915 2989
2915 3016
2915 3093
2915 3121
2915 3218
2915 3242
2915 3521
2915 3564
2915 3575
2915 3656
2915 3739
2916 3101
2916 3122
2916 3220
2916 3376
2916 3619
2916 3662
2916 3676
2916 3718
2916 3734
2917 3021
2917 3360
2917 3380
2918 2997
2918 3123
2918 3705
2919 2966
2919 2972
2919 3057
2919 3330
2919 3504
2919 3649
2919 3699
2919 3722
2920 2937
2920 2994
2920 3000
2920 3093
2920 3138
2920 3207
2920 3224
2920 3394
2920 3437
2921 2967
2921 2998
2921 3016
2921 3044
2921 3273
2921 3435
2921 3684
2922 2973
2922 3142
2922 3234
2922 3296
2922 3705
2923 3240
2923 3404
2923 3426
2923 3456
2923 3466
2923 3632
2923 3687
2924 3082
2924 3310
2924 3624
2924 3687
2925 2926
2925 2956
2925 2963
2925 3000
2925 3016
2925 3038
2925 3050
2925 3224
2925 3364
2925 3368
2925 3371
2925 3386
2925 3429
2925 3437
2925 3564
2925 3603
2925 3638
2925 3664
2925 3687
2925 3691
2926 2934
2926 2935
2926 3257
2926 3369
2926 3375
2926 3419
2926 3711
2928 3199
2928 3466
2928 3528
2928 3661
2928 3677
2929 3331
2931 3174
2933 2940
2933 2999
2933 3014
2933 3033
2933 3110
2933 3119
2933 3158
2933 3167
2933 3194
2933 3204
2933 3277
2933 3309
2933 3339
2933 3359
2933 3443
2933 3455
2933 3491
2933 3493
2933 3563
2933 3581
2933 3616
2933 3618
2933 3641
2933 3718
2934 2935
2934 3268
2934 3298
2935 2970
2935 3310
2935 3330
2935 3429
2935 3496
2935 3499
2936 3293
2936 3557
2937 3000
2937 3224
2937 3394
2937 3465
2937 3469
2938 2967
2938 3384
2938 3628
2939 2940
2939 3482
2939 3484
2939 3517
2940 3021
2940 3059
2940 3072
2940 3094
2940 3138
2940 3142
2940 3207
2940 3213
2940 3227
2940 3244
2940 3257
2940 3264
2940 3284
2940 3322
2940 3339
2940 3433
2940 3452
2940 3482
2940 3484
2940 3504
2940 3510
2940 3513
2940 3517
2940 3534
2940 3572
2940 3585
2940 3642
2940 3649
2940 3650
2940 3683
2940 3734
2940 3736
2941 2988
2941 3007
2941 3021
2941 3022
2941 3086
2941 3129
2941 3183
2941 3450
2941 3492
2941 3510
2941 3638
2941 3641
2942 3021
2942 3094
2942 3178
2942 3217
2942 3244
2942 3257
2942 3264
2942 3274
2942 3317
2942 3339
2942 3349
2942 3364
2942 3450
2942 3482
2942 3557
2942 3578
2942 3630
2942 3718
2942 3724
2942 3736
2943 3382
2943 3462
2943 3665
2943 3675
2944 2951
2944 2960
2944 2971
2944 2980
2944 2999
2944 3043
2944 3046
2944 3047
2944 3054
2944 3069
2944 3075
2944 3098
2944 3101
2944 3121
2944 3125
2944 3145
2944 3146
2944 3153
2944 3164
2944 3171
2944 3191
2944 3194
2944 3196
2944 3220
2944 3223
2944 3227
2944 3234
2944 3243
2944 3254
2944 3259
2944 3337
2944 3349
2944 3382
2944 3383
2944 3386
2944 3395
2944 3426
2944 3466
2944 3477
2944 3510
2944 3514
2944 3518
2944 3521
2944 3531
2944 3553
2944 3572
2944 3575
2944 3578
2944 3584
2944 3601
2944 3629
2944 3639
2944 3661
2944 3666
2944 3669
2944 3676
2944 3682
2944 3689
2944 3690
2944 3695
2944 3717
2944 3721
2944 3734
2944 3745
2945 2972
2945 3098
2945 3626
2945 3692
2946 2977
2946 3206
2946 3220
2946 3303
2946 3513
2946 3528
2946 3703
2947 2959
2947 3043
2947 3092
2947 3112
2947 3182
2947 3184
2947 3219
2947 3364
2947 3393
2947 3683
2947 3716
2948 2999
2948 3015
2948 3049
2948 3087
2948 3176
2948 3186
2948 3187
2948 3204
2948 3311
2948 3425
2948 3698
2948 3704
2948 3715
2949 3573
2950 3470
2950 3624
2951 3068
2951 3075
2951 3117
2951 3124
2951 3171
2951 3234
2951 3349
2951 3388
2951 3389
2951 3466
2951 3497
2951 3518
2951 3562
2951 3575
2951 3578
2951 3649
2951 3664
2953 3283
2953 3365
2953 3487
2954 2956
2954 2979
2954 3112
2954 3278
2954 3376
2954 3506
2955 3051
2955 3321
2955 3411
2955 3421
2955 3482
2955 3586
2956 2979
2956 3009
2956 3016
2956 3023
2956 3038
2956 3078
2956 3083
2956 3093
2956 3094
2956 3106
2956 3169
2956 3178
2956 3192
2956 3193
2956 3207
2956 3223
2956 3264
2956 3278
2956 3284
2956 3285
2956 3288
2956 3306
2956 3339
2956 3342
2956 3355
2956 3370
2956 3405
2956 3407
2956 3413
2956 3418
2956 3422
2956 3456
2956 3461
2956 3477
2956 3513
2956 3523
2956 3526
2956 3529
2956 3548
2956 3553
2956 3558
2956 3572
2956 3578
2956 3621
2956 3624
2956 3629
2956 3682
2956 3683
2956 3687
2956 3688
2956 3691
2956 3702
2956 3710
2956 3731
2956 3736
2957 3062
2957 3566
2958 3017
2959 3014
2959 3184
2959 3211
2959 3220
2959 3716
2960 2980
2960 2995
2960 2999
2960 3021
2960 3068
2960 3070
2960 3098
2960 3118
2960 3147
2960 3153
2960 3234
2960 3259
2960 3312
2960 3349
2960 3359
2960 3440
2960 3510
2960 3518
2960 3520
2960 3534
2960 3613
2960 3626
2960 3639
2960 3648
2960 3661
2960 3669
2960 3687
2960 3689
2960 3695
2961 3096
2961 3134
2961 3540
2961 3689
2962 3002
2962 3021
2962 3058
2962 3115
2962 3144
2962 3194
2962 3211
2962 3234
2962 3261
2962 3264
2962 3376
2962 3455
2962 3466
2962 3585
2962 3595
2962 3714
2962 3716
2963 3000
2963 3038
2963 3050
2963 3112
2963 3137
2963 3144
2963 3224
2963 3437
2963 3562
2963 3603
2963 3637
2963 3691
2964 3061
2964 3376
2964 3518
2964 3526
2964 3559
2964 3606
2964 3695
2964 3729
2965 3022
2965 3357
2966 3026
2966 3057
2966 3360
2966 3380
2966 3516
2966 3520
2966 3669
2966 3714
2967 3007
2967 3263
2967 3342
2967 3510
2967 3574
2967 3638
2967 3670
2967 3681
2968 3114
2968 3174
2968 3391
2970 3219
2970 3290
2970 3310
2970 3330
2970 3509
2970 3551
2970 3742
2971 3040
2971 3184
2971 3360
2971 3599
2971 3615
2971 3679
2971 3690
2972 3376
2972 3390
2972 3516
2972 3626
2972 3692
2972 3718
2973 2975
2973 3000
2973 3002
2973 3016
2973 3018
2973 3021
2973 3022
2973 3037
2973 3045
2973 3051
2973 3055
2973 3086
2973 3087
2973 3093
2973 3115
2973 3123
2973 3129
2973 3137
2973 3138
2973 3169
2973 3207
2973 3224
2973 3225
2973 3230
2973 3234
2973 3235
2973 3306
2973 3316
2973 3317
2973 3321
2973 3349
2973 3382
2973 3428
2973 3451
2973 3465
2973 3469
2973 3476
2973 3486
2973 3516
2973 3544
2973 3573
2973 3585
2973 3597
2973 3598
2973 3599
2973 3600
2973 3624
2973 3630
2973 3633
2973 3637
2973 3647
2973 3668
2973 3683
2973 3686
2973 3687
2973 3688
2973 3689
2973 3705
2973 3714
2973 3718
2973 3719
2973 3726
2973 3728
2973 3731
2974 3513
2974 3680
2975 3006
2975 3026
2975 3049
2975 3081
2975 3118
2975 3275
2975 3440
2975 3461
2975 3469
2975 3471
2975 3500
2975 3561
2975 3591
2975 3598
2975 3628
2975 3677
2975 3712
2976 3646
2977 3132
2977 3303
2977 3513
2977 3528
2977 3588
2977 3617
2977 3659
2977 3703
2977 3713
2978 3061
2978 3107
2978 3117
2978 3227
2978 3390
2978 3466
2978 3531
2978 3695
2978 3704
2979 3038
2979 3095
2979 3120
2979 3140
2979 3150
2979 3278
2979 3413
2979 3490
2979 3548
2979 3710
2980 3029
2980 3059
2980 3098
2980 3307
2980 3359
2980 3395
2980 3405
2980 3415
2980 3440
2980 3648
2980 3669
2980 3695
2981 3037
2981 3055
2981 3096
2981 3309
2981 3465
2981 3601
2981 3726
2984 3300
2984 3324
2984 3496
2984 3603
2984 3704
2985 3118
2985 3184
2985 3343
2985 3431
2985 3510
2985 3599
2985 3603
2985 3659
2985 3714
2986 3021
2986 3152
2986 3230
2986 3248
2986 3286
2986 3399
2986 3450
2986 3597
2986 3640
2986 3744
2987 3238
2988 3021
2988 3033
2988 3037
2988 3090
2988 3095
2988 3147
2988 3169
2988 3234
2988 3247
2988 3445
2988 3449
2988 3504
2988 3514
2988 3518
2988 3560
2988 3573
2988 3585
2988 3605
2988 3641
2988 3688
2988 3718
2988 3722
2988 3736
2989 2991
2989 3004
2989 3054
2989 3121
2989 3266
2989 3396
2989 3507
2989 3535
2989 3573
2989 3575
2989 3598
2989 3639
2989 3656
2989 3687
2989 3703
2989 3736
2989 3739
2990 3124
2990 3343
2990 3347
2990 3594
2991 3034
2991 3215
2991 3496
2991 3573
2993 3050
2993 3064
2993 3326
2994 3003
2994 3016
2994 3057
2994 3066
2994 3193
2994 3223
2994 3224
2994 3249
2994 3368
2994 3464
2994 3500
2994 3501
2994 3536
2994 3683
2995 3242
2995 3349
2995 3373
2995 3440
2996 3010
2996 3547
2997 3016
2997 3123
2997 3212
2997 3297
2997 3696
2997 3705
2998 3087
2998 3109
2998 3128
2998 3153
2998 3179
2998 3273
2998 3405
2998 3417
2998 3424
2998 3573
2998 3616
2998 3683
2998 3687
2999 3153
2999 3191
2999 3234
2999 3243
2999 3296
2999 3336
2999 3349
2999 3387
2999 3547
2999 3575
2999 3578
2999 3626
2999 3698
2999 3735
3000 3021
3000 3038
3000 3103
3000 3129
3000 3138
3000 3161
3000 3193
3000 3207
3000 3224
3000 3248
3000 3288
3000 3316
3000 3320
3000 3342
3000 3349
3000 3394
3000 3417
3000 3437
3000 3450
3000 3465
3000 3624
3000 3672
3001 3501
3002 3115
3002 3191
3002 3220
3002 3234
3002 3573
3002 3598
3003 3043
3003 3581
3004 3091
3004 3112
3004 3120
3004 3296
3004 3354
3004 3389
3004 3396
3004 3404
3004 3423
3004 3435
3004 3573
3004 3598
3004 3654
3004 3680
3004 3718
3004 3736
3005 3566
3006 3065
3006 3151
3006 3246
3006 3266
3006 3392
3007 3021
3007 3083
3007 3086
3007 3093
3007 3098
3007 3118
3007 3138
3007 3149
3007 3163
3007 3183
3007 3258
3007 3274
3007 3315
3007 3316
3007 3332
3007 3360
3007 3382
3007 3399
3007 3430
3007 3441
3007 3450
3007 3465
3007 3510
3007 3536
3007 3599
3007 3626
3007 3638
3007 3677
3007 3693
3007 3718
3008 3031
3008 3081
3008 3420
3008 3592
3009 3021
3009 3026
3009 3190
3009 3194
3009 3356
3009 3389
3009 3513
3009 3575
3009 3621
3009 3736
3010 3015
3010 3070
3010 3128
3010 3131
3010 3227
3010 3234
3010 3264
3010 3265
3010 3330
3010 3337
3010 3339
3010 3376
3010 3404
3010 3433
3010 3442
3010 3466
3010 3491
3010 3518
3010 3563
3010 3601
3010 3618
3010 3632
3010 3649
3010 3686
3010 3689
3010 3695
3010 3717
3010 3718
3012 3030
3012 3059
3012 3075
3012 3109
3012 3194
3012 3234
3012 3297
3012 3359
3012 3377
3012 3378
3012 3385
3012 3569
3012 3618
3012 3696
3013 3153
3013 3724
3014 3021
3014 3158
3015 3021
3015 3029
3015 3047
3015 3068
3015 3070
3015 3075
3015 3086
3015 3184
3015 3230
3015 3253
3015 3259
3015 3337
3015 3349
3015 3367
3015 3380
3015 3451
3015 3458
3015 3466
3015 3473
3015 3477
3015 3491
3015 3520
3015 3562
3015 3585
3015 3616
3015 3675
3015 3689
3015 3695
3015 3714
3015 3726
3015 3734
3015 3744
3016 3093
3016 3105
3016 3137
3016 3209
3016 3288
3016 3297
3016 3317
3016 3330
3016 3368
3016 3371
3016 3437
3016 3544
3016 3638
3016 3683
3016 3691
3016 3696
3016 3718
3016 3726
3016 3728
3016 3731
3016 3743
3018 3037
3018 3074
3018 3078
3018 3251
3018 3266
3018 3306
3018 3628
3018 3667
3018 3719
3018 3746
3019 3285
3019 3332
3019 3664
3019 3740
3020 3276
3021 3031
3021 3059
3021 3071
3021 3081
3021 3086
3021 3094
3021 3103
3021 3105
3021 3118
3021 3120
3021 3125
3021 3129
3021 3138
3021 3145
3021 3149
3021 3152
3021 3158
3021 3161
3021 3178
3021 3183
3021 3192
3021 3193
3021 3194
3021 3207
3021 3220
3021 3224
3021 3230
3021 3238
3021 3248
3021 3258
3021 3270
3021 3274
3021 3275
3021 3278
3021 3296
3021 3315
3021 3316
3021 3322
3021 3332
3021 3339
3021 3350
3021 3354
3021 3370
3021 3376
3021 3394
3021 3399
3021 3405
3021 3417
3021 3430
3021 3437
3021 3449
3021 3450
3021 3455
3021 3464
3021 3465
3021 3466
3021 3469
3021 3482
3021 3508
3021 3510
3021 3513
3021 3521
3021 3536
3021 3554
3021 3561
3021 3573
3021 3585
3021 3586
3021 3597
3021 3599
3021 3601
3021 3609
3021 3624
3021 3630
3021 3638
3021 3639
3021 3640
3021 3641
3021 3661
3021 3667
3021 3669
3021 3672
3021 3677
3021 3681
3021 3683
3021 3695
3021 3714
3021 3721
3021 3744
3021 3745
3022 3080
3022 3110
3022 3148
3022 3312
3022 3316
3022 3382
3022 3479
3022 3725
3023 3137
3023 3191
3023 3253
3023 3272
3023 3330
3023 3336
3023 3349
3023 3466
3023 3477
3023 3575
3023 3611
3023 3689
3026 3087
3026 3204
3026 3227
3026 3234
3026 3376
3026 3385
3026 3389
3026 3431
3026 3516
3026 3520
3026 3575
3026 3626
3026 3692
3026 3694
3026 3714
3027 3421
3028 3330
3028 3423
3028 3436
3028 3509
3028 3535
3028 3598
3029 3047
3029 3055
3029 3070
3029 3116
3029 3131
3029 3139
3029 3147
3029 3148
3029 3180
3029 3227
3029 3247
3029 3259
3029 3272
3029 3306
3029 3323
3029 3349
3029 3366
3029 3386
3029 3444
3029 3466
3029 3534
3029 3536
3029 3549
3029 3557
3029 3562
3029 3575
3029 3635
3029 3649
3029 3669
3029 3689
3029 3717
3029 3737
3030 3046
3030 3087
3030 3121
3030 3325
3030 3337
3030 3349
3030 3382
3030 3444
3030 3562
3030 3573
3030 3584
3030 3683
3030 3687
3030 3690
3030 3745
3031 3081
3031 3135
3031 3197
3031 3271
3031 3365
3031 3371
3031 3487
3031 3546
3031 3660
3032 3427
3033 3605
3034 3074
3034 3110
3034 3137
3034 3428
3034 3515
3034 3536
3034 3564
3034 3687
3035 3448
3036 3686
3037 3050
3037 3055
3037 3111
3037 3112
3037 3130
3037 3181
3037 3305
3037 3306
3037 3316
3037 3345
3037 3346
3037 3358
3037 3382
3037 3407
3037 3416
3037 3514
3037 3719
3038 3224
3038 3364
3038 3371
3038 3437
3038 3536
3038 3564
3038 3687
3038 3691
3039 3128
3039 3560
3040 3108
3040 3164
3040 3184
3040 3382
3040 3585
3040 3659
3041 3301
3041 3312
3041 3503
3042 3576
3043 3045
3043 3124
3043 3153
3043 3184
3043 3231
3043 3234
3043 3257
3043 3259
3043 3260
3043 3270
3043 3334
3043 3336
3043 3376
3043 3404
3043 3426
3043 3435
3043 3518
3043 3536
3043 3605
3043 3716
3043 3738
3044 3254
3044 3482
3045 3051
3045 3115
3045 3156
3045 3164
3045 3247
3045 3281
3045 3330
3045 3525
3045 3603
3045 3724
3046 3054
3046 3075
3046 3121
3046 3130
3046 3142
3046 3183
3046 3339
3046 3425
3046 3522
3046 3575
3046 3584
3046 3690
3047 3070
3047 3075
3047 3116
3047 3125
3047 3139
3047 3147
3047 3243
3047 3245
3047 3259
3047 3272
3047 3296
3047 3309
3047 3366
3047 3386
3047 3466
3047 3521
3047 3534
3047 3585
3047 3611
3047 3629
3047 3635
3047 3653
3047 3675
3047 3689
3048 3108
3048 3184
3049 3233
3049 3431
3049 3500
3050 3111
3050 3181
3050 3305
3050 3407
3050 3732
3051 3321
3051 3417
3051 3683
3052 3331
3053 3234
3053 3238
3054 3121
3054 3182
3054 3220
3054 3266
3054 3417
3054 3575
3054 3689
3054 3739
3054 3745
3055 3070
3055 3108
3055 3131
3055 3227
3055 3306
3055 3416
3055 3562
3055 3596
3055 3687
3055 3719
3055 3737
3056 3660
3057 3066
3057 3167
3057 3225
3057 3249
3057 3501
3057 3528
3057 3596
3058 3426
3058 3447
3059 3071
3059 3094
3059 3102
3059 3164
3059 3264
3059 3349
3059 3359
3059 3390
3059 3426
3059 3435
3059 3449
3059 3513
3059 3562
3059 3575
3059 3621
3059 3641
3059 3681
3059 3696
3059 3721
3059 3734
3060 3359
3061 3087
3061 3107
3061 3156
3061 3160
3061 3205
3061 3219
3061 3376
3061 3526
3061 3528
3061 3559
3061 3596
3061 3606
3061 3668
3062 3222
3062 3250
3062 3646
3062 3691
3062 3697
3063 3176
3063 3270
3064 3537
3064 3579
3064 3686
3064 3746
3065 3375
3065 3578
3066 3128
3066 3192
3066 3212
3066 3514
3066 3664
3066 3715
3068 3075
3068 3101
3068 3121
3068 3125
3068 3136
3068 3145
3068 3234
3068 3242
3068 3243
3068 3259
3068 3272
3068 3339
3068 3349
3068 3373
3068 3386
3068 3445
3068 3466
3068 3575
3068 3592
3068 3639
3068 3682
3068 3721
3068 3734
3069 3121
3069 3164
3069 3466
3069 3494
3069 3630
3069 3729
3070 3075
3070 3093
3070 3108
3070 3131
3070 3139
3070 3147
3070 3184
3070 3227
3070 3243
3070 3245
3070 3272
3070 3337
3070 3349
3070 3366
3070 3386
3070 3405
3070 3466
3070 3491
3070 3534
3070 3558
3070 3562
3070 3575
3070 3629
3070 3661
3070 3689
3070 3718
3070 3737
3071 3098
3071 3125
3071 3147
3071 3153
3071 3209
3071 3288
3071 3297
3071 3410
3071 3426
3071 3440
3071 3466
3071 3501
3071 3510
3071 3521
3071 3544
3071 3575
3071 3623
3071 3674
3071 3682
3071 3687
3071 3721
3072 3213
3072 3264
3072 3322
3072 3356
3072 3402
3072 3482
3072 3484
3072 3504
3072 3517
3072 3649
3072 3650
3073 3148
3073 3316
3073 3359
3073 3538
3075 3098
3075 3101
3075 3121
3075 3136
3075 3139
3075 3140
3075 3145
3075 3147
3075 3153
3075 3181
3075 3194
3075 3227
3075 3234
3075 3243
3075 3266
3075 3272
3075 3337
3075 3349
3075 3386
3075 3408
3075 3449
3075 3466
3075 3491
3075 3497
3075 3523
3075 3534
3075 3547
3075 3562
3075 3575
3075 3578
3075 3592
3075 3618
3075 3629
3075 3639
3075 3649
3075 3666
3075 3676
3075 3682
3075 3695
3075 3721
3075 3734
3075 3739
3075 3745
3076 3098
3076 3193
3076 3212
3076 3465
3076 3728
3077 3213
3077 3371
3077 3435
3077 3482
3077 3504
3078 3120
3078 3129
3078 3209
3078 3266
3078 3288
3078 3306
3078 3476
3078 3628
3078 3739
3078 3746
3079 3109
3079 3390
3079 3463
3080 3252
3080 3382
3080 3457
3080 3479
3080 3498
3080 3573
3080 3725
3081 3088
3081 3135
3081 3145
3081 3197
3081 3229
3081 3250
3081 3251
3081 3255
3081 3271
3081 3275
3081 3298
3081 3317
3081 3420
3081 3421
3081 3459
3081 3470
3081 3472
3081 3481
3081 3487
3081 3554
3081 3561
3081 3570
3081 3574
3081 3597
3081 3663
3081 3667
3081 3705
3081 3712
3082 3212
3082 3224
3082 3342
3082 3616
3083 3163
3083 3231
3083 3243
3083 3384
3083 3575
3083 3601
3086 3094
3086 3105
3086 3118
3086 3129
3086 3152
3086 3178
3086 3183
3086 3224
3086 3248
3086 3258
3086 3316
3086 3399
3086 3405
3086 3430
3086 3450
3086 3510
3086 3575
3086 3597
3086 3638
3086 3640
3086 3641
3086 3695
3086 3736
3087 3111
3087 3166
3087 3311
3087 3316
3087 3355
3087 3382
3087 3446
3087 3514
3087 3573
3087 3634
3087 3668
3087 3684
3087 3686
3087 3704
3087 3715
3088 3111
3088 3181
3088 3197
3088 3345
3088 3464
3088 3466
3088 3554
3088 3561
3091 3122
3091 3151
3091 3184
3091 3265
3091 3396
3091 3404
3091 3718
3092 3122
3092 3184
3092 3227
3092 3291
3092 3295
3092 3404
3092 3518
3092 3629
3092 3716
3093 3108
3093 3150
3093 3227
3093 3242
3093 3296
3093 3306
3093 3466
3093 3500
3093 3507
3093 3536
3093 3562
3093 3683
3093 3688
3093 3710
3093 3731
3093 3737
3094 3138
3094 3171
3094 3178
3094 3207
3094 3213
3094 3227
3094 3264
3094 3284
3094 3324
3094 3339
3094 3450
3094 3482
3094 3484
3094 3572
3094 3578
3094 3599
3094 3600
3094 3690
3094 3724
3094 3736
3095 3386
3095 3445
3095 3686
3096 3106
3096 3139
3096 3145
3096 3161
3096 3164
3096 3183
3096 3184
3096 3227
3096 3306
3096 3349
3096 3370
3096 3386
3096 3395
3096 3458
3096 3510
3096 3540
3096 3547
3096 3575
3096 3688
3096 3689
3096 3717
3096 3731
3096 3734
3097 3220
3097 3312
3097 3415
3097 3547
3097 3689
3098 3106
3098 3153
3098 3181
3098 3272
3098 3277
3098 3301
3098 3349
3098 3359
3098 3440
3098 3497
3098 3510
3098 3540
3098 3544
3098 3626
3098 3629
3098 3661
3098 3669
3098 3689
3098 3692
3098 3693
3098 3695
3098 3734
3101 3121
3101 3125
3101 3145
3101 3185
3101 3209
3101 3220
3101 3243
3101 3259
3101 3292
3101 3301
3101 3349
3101 3405
3101 3426
3101 3462
3101 3521
3101 3534
3101 3544
3101 3599
3101 3603
3101 3611
3101 3613
3101 3624
3101 3675
3101 3676
3101 3682
3101 3689
3101 3721
3102 3136
3102 3226
3102 3417
3102 3449
3102 3721
3103 3138
3103 3193
3103 3207
3103 3212
3103 3224
3103 3339
3103 3449
3103 3465
3103 3581
3103 3624
3103 3665
3103 3672
3104 3298
3105 3129
3105 3207
3105 3450
3105 3465
3105 3638
3105 3640
3105 3683
3106 3183
3106 3440
3106 3466
3106 3540
3106 3688
3106 3689
3106 3695
3106 3731
3107 3117
3107 3390
3107 3403
3107 3449
3107 3523
3107 3527
3107 3670
3107 3704
3108 3131
3108 3164
3108 3184
3108 3227
3108 3306
3108 3320
3108 3424
3108 3501
3108 3562
3108 3596
3108 3665
3108 3679
3108 3687
3108 3717
3108 3719
3108 3737
3109 3135
3109 3234
3109 3243
3109 3282
3109 3385
3109 3405
3109 3424
3109 3534
3109 3680
3109 3737
3110 3149
3110 3166
3110 3167
3110 3192
3110 3237
3110 3317
3110 3367
3110 3404
3110 3413
3110 3436
3110 3472
3110 3515
3110 3517
3110 3536
3110 3563
3110 3564
3110 3565
3110 3600
3110 3641
3110 3685
3110 3703
3110 3737
3111 3112
3111 3130
3111 3147
3111 3166
3111 3181
3111 3305
3111 3306
3111 3345
3111 3358
3111 3382
3111 3407
3111 3409
3111 3514
3111 3573
3111 3595
3111 3641
3111 3695
3111 3729
3111 3746
3112 3182
3112 3305
3112 3306
3112 3316
3112 3358
3112 3364
3112 3407
3112 3514
3112 3529
3112 3585
3112 3600
3112 3627
3112 3637
3112 3683
3112 3714
3112 3716
3112 3718
3112 3739
3115 3123
3115 3189
3115 3234
3115 3500
3115 3516
3115 3518
3115 3704
3115 3715
3115 3729
3116 3124
3116 3180
3116 3227
3116 3386
3116 3466
3116 3557
3116 3640
3117 3186
3117 3187
3117 3263
3117 3273
3117 3385
3117 3390
3117 3397
3117 3431
3117 3497
3117 3514
3117 3523
3117 3659
3117 3704
3117 3715
3117 3718
3118 3258
3118 3274
3118 3382
3118 3404
3118 3450
3118 3562
3118 3599
3118 3626
3118 3659
3118 3693
3118 3714
3119 3150
3119 3171
3119 3234
3119 3316
3119 3624
3119 3630
3119 3696
3120 3172
3120 3207
3120 3306
3120 3317
3120 3364
3120 3389
3120 3465
3120 3536
3120 3628
3120 3664
3120 3711
3121 3145
3121 3153
3121 3196
3121 3426
3121 3522
3121 3575
3121 3584
3121 3656
3121 3683
3121 3690
3121 3702
3121 3745
3122 3376
3122 3404
3122 3494
3122 3520
3122 3718
3123 3234
3123 3296
3123 3516
3123 3705
3124 3145
3124 3146
3124 3184
3124 3194
3124 3210
3124 3243
3124 3347
3124 3547
3124 3575
3124 3594
3124 3606
3124 3610
3124 3621
3124 3689
3124 3717
3124 3745
3125 3145
3125 3220
3125 3243
3125 3259
3125 3349
3125 3395
3125 3404
3125 3410
3125 3426
3125 3521
3125 3544
3125 3623
3125 3674
3125 3675
3125 3676
3125 3682
3125 3721
3127 3265
3127 3376
3127 3404
3127 3654
3127 3659
3127 3678
3127 3718
3128 3131
3128 3172
3128 3264
3128 3273
3128 3295
3128 3337
3128 3348
3128 3385
3128 3442
3128 3478
3128 3513
3128 3520
3128 3573
3128 3594
3128 3618
3128 3632
3128 3689
3128 3705
3129 3152
3129 3178
3129 3183
3129 3224
3129 3258
3129 3316
3129 3399
3129 3450
3129 3465
3129 3597
3129 3624
3129 3638
3129 3640
3129 3683
3129 3744
3130 3141
3130 3183
3130 3345
3130 3358
3130 3368
3130 3420
3130 3453
3130 3514
3131 3227
3131 3279
3131 3306
3131 3404
3131 3514
3131 3562
3131 3596
3131 3689
3131 3737
3132 3303
3132 3538
3132 3703
3133 3458
3134 3435
3135 3145
3135 3197
3135 3251
3135 3275
3135 3280
3135 3298
3135 3420
3135 3554
3135 3667
3136 3234
3136 3242
3136 3349
3136 3445
3136 3449
3136 3520
3136 3534
3136 3617
3136 3639
3136 3695
3136 3712
3136 3721
3136 3734
3137 3169
3137 3253
3137 3272
3137 3364
3137 3368
3137 3371
3137 3419
3137 3423
3137 3428
3137 3430
3137 3437
3137 3466
3137 3477
3137 3510
3137 3536
3137 3553
3137 3558
3137 3598
3137 3629
3137 3687
3138 3161
3138 3178
3138 3183
3138 3194
3138 3207
3138 3224
3138 3277
3138 3332
3138 3339
3138 3430
3138 3450
3138 3465
3138 3466
3138 3484
3138 3510
3138 3513
3138 3557
3138 3572
3138 3578
3138 3599
3138 3624
3138 3638
3138 3641
3138 3695
3139 3147
3139 3164
3139 3204
3139 3234
3139 3243
3139 3245
3139 3272
3139 3296
3139 3337
3139 3349
3139 3366
3139 3385
3139 3386
3139 3389
3139 3424
3139 3466
3139 3497
3139 3534
3139 3547
3139 3558
3139 3575
3139 3635
3139 3689
3139 3718
3140 3710
3141 3181
3141 3306
3141 3345
3141 3358
3141 3409
3141 3514
3141 3523
3141 3567
3142 3265
3142 3425
3142 3600
3142 3612
3142 3718
3143 3212
3143 3412
3143 3599
3143 3640
3143 3661
3143 3716
3144 3153
3144 3385
3144 3418
3145 3146
3145 3169
3145 3193
3145 3194
3145 3212
3145 3243
3145 3277
3145 3292
3145 3325
3145 3395
3145 3426
3145 3450
3145 3462
3145 3465
3145 3534
3145 3544
3145 3592
3145 3601
3145 3603
3145 3629
3145 3674
3145 3675
3145 3676
3145 3682
3145 3689
3145 3745
3146 3194
3146 3243
3146 3347
3146 3575
3146 3594
3146 3679
3147 3243
3147 3245
3147 3247
3147 3257
3147 3272
3147 3296
3147 3305
3147 3345
3147 3366
3147 3386
3147 3466
3147 3514
3147 3534
3147 3558
3147 3573
3147 3575
3147 3635
3147 3689
3148 3225
3148 3265
3148 3312
3148 3316
3148 3538
3149 3315
3149 3382
3149 3624
3150 3197
3150 3271
3150 3278
3150 3359
3150 3413
3150 3422
3150 3456
3150 3537
3150 3578
3150 3594
3150 3621
3150 3688
3151 3273
3151 3372
3151 3424
3151 3435
3151 3569
3151 3702
3152 3230
3152 3316
3152 3399
3152 3450
3152 3640
3152 3744
3153 3164
3153 3191
3153 3234
3153 3259
3153 3312
3153 3336
3153 3349
3153 3396
3153 3414
3153 3435
3153 3462
3153 3477
3153 3534
3153 3547
3153 3558
3153 3562
3153 3573
3153 3661
3153 3666
3153 3675
3153 3689
3155 3168
3155 3194
3155 3270
3155 3618
3156 3559
3157 3546
3158 3173
3158 3518
3158 3624
3158 3693
3159 3513
3159 3596
3160 3376
3161 3184
3161 3207
3161 3224
3161 3263
3161 3274
3161 3450
3163 3384
3163 3418
3163 3562
3163 3677
3164 3171
3164 3184
3164 3227
3164 3234
3164 3330
3164 3386
3164 3395
3164 3510
3164 3528
3164 3547
3164 3578
3164 3669
3164 3717
3165 3632
3165 3718
3166 3225
3166 3382
3166 3446
3166 3491
3166 3516
3166 3637
3166 3645
3166 3668
3166 3684
3166 3686
3167 3277
3167 3408
3167 3528
3167 3581
3167 3639
3168 3257
3168 3260
3168 3281
3168 3490
3168 3575
3168 3618
3169 3235
3169 3316
3169 3388
3169 3442
3169 3466
3169 3478
3169 3553
3169 3601
3169 3611
3169 3629
3169 3641
3169 3687
3170 3345
3170 3731
3171 3259
3171 3276
3171 3336
3171 3383
3171 3433
3171 3540
3171 3600
3171 3689
3171 3724
3172 3664
3173 3203
3173 3382
3173 3388
3173 3498
3173 3687
3173 3693
3174 3470
3175 3580
3175 3633
3176 3481
3176 3574
3177 3276
3177 3362
3177 3462
3178 3234
3178 3258
3178 3274
3178 3316
3178 3405
3178 3450
3178 3504
3178 3513
3178 3597
3178 3640
3178 3642
3179 3358
3179 3489
3179 3538
3179 3718
3180 3245
3180 3366
3180 3386
3180 3659
3181 3305
3181 3345
3181 3358
3181 3407
3181 3431
3181 3514
3181 3538
3181 3605
3181 3619
3182 3219
3182 3279
3182 3364
3182 3393
3182 3502
3182 3639
3182 3683
3182 3716
3183 3207
3183 3212
3183 3227
3183 3258
3183 3274
3183 3309
3183 3324
3183 3339
3183 3349
3183 3370
3183 3418
3183 3431
3183 3450
3183 3458
3183 3465
3183 3466
3183 3510
3183 3540
3183 3562
3183 3599
3183 3624
3183 3638
3183 3655
3183 3681
3183 3688
3183 3689
3183 3704
3183 3706
3183 3731
3183 3737
3184 3224
3184 3227
3184 3320
3184 3370
3184 3383
3184 3386
3184 3466
3184 3501
3184 3518
3184 3519
3184 3525
3184 3669
3184 3716
3184 3717
3185 3220
3185 3259
3185 3349
3185 3426
3185 3520
3185 3676
3185 3721
3186 3269
3186 3385
3186 3390
3186 3463
3186 3598
3186 3686
3186 3741
3187 3278
3187 3397
3187 3456
3188 3212
3188 3714
3190 3511
3190 3516
3190 3563
3190 3575
3190 3746
3191 3227
3191 3240
3191 3312
3191 3336
3191 3420
3191 3477
3191 3558
3191 3592
3191 3601
3191 3611
3191 3617
3191 3629
3191 3689
3191 3735
3192 3254
3192 3317
3192 3321
3192 3372
3192 3446
3192 3637
3192 3668
3192 3703
3192 3741
3193 3207
3193 3212
3193 3224
3193 3258
3193 3304
3193 3439
3193 3465
3193 3510
3193 3514
3193 3575
3193 3608
3193 3672
3193 3705
3194 3243
3194 3297
3194 3359
3194 3365
3194 3377
3194 3455
3194 3491
3194 3563
3194 3575
3194 3615
3194 3618
3194 3621
3194 3626
3194 3639
3194 3695
3194 3696
3194 3714
3196 3383
3196 3685
3197 3271
3197 3357
3197 3374
3197 3420
3197 3487
3197 3603
3197 3682
3197 3712
3199 3451
3199 3458
3199 3466
3199 3528
3199 3585
3199 3677
3200 3499
3201 3460
3202 3325
3202 3503
3203 3349
3203 3373
3203 3491
3203 3545
3203 3687
3203 3692
3204 3563
3204 3657
3204 3704
3205 3526
3205 3559
3205 3695
3206 3516
3206 3573
3207 3224
3207 3263
3207 3339
3207 3394
3207 3450
3207 3465
3207 3510
3207 3513
3207 3572
3207 3578
3207 3597
3207 3599
3207 3624
3207 3638
3207 3656
3207 3672
3207 3734
3207 3736
3209 3223
3209 3243
3209 3476
3209 3513
3209 3521
3209 3534
3209 3682
3209 3684
3209 3714
3209 3746
3210 3240
3210 3336
3210 3437
3210 3518
3210 3547
3210 3704
3211 3230
3211 3585
3211 3617
3211 3649
3212 3224
3212 3234
3212 3465
3212 3473
3212 3575
3212 3608
3212 3626
3212 3638
3212 3705
3213 3244
3213 3264
3213 3284
3213 3339
3213 3482
3213 3484
3213 3513
3213 3572
3213 3578
3214 3430
3214 3726
3214 3743
3215 3235
3215 3302
3215 3573
3215 3582
3217 3264
3218 3224
3218 3242
3218 3656
3219 3330
3219 3364
3219 3393
3219 3466
3219 3502
3219 3519
3219 3716
3220 3243
3220 3245
3220 3395
3220 3415
3220 3426
3220 3477
3220 3521
3220 3531
3220 3547
3220 3666
3220 3675
3220 3676
3220 3682
3220 3721
3221 3340
3221 3569
3222 3250
3222 3271
3222 3495
3222 3546
3222 3574
3222 3697
3223 3310
3223 3349
3223 3474
3223 3506
3223 3569
3223 3742
3224 3242
3224 3316
3224 3342
3224 3349
3224 3394
3224 3417
3224 3437
3224 3450
3224 3465
3224 3608
3224 3624
3224 3656
3224 3670
3224 3672
3224 3739
3225 3538
3225 3596
3225 3686
3225 3719
3226 3364
3226 3388
3226 3424
3226 3449
3226 3594
3226 3620
3226 3696
3226 3720
3226 3721
3227 3234
3227 3259
3227 3306
3227 3336
3227 3349
3227 3382
3227 3385
3227 3386
3227 3395
3227 3415
3227 3452
3227 3466
3227 3518
3227 3531
3227 3557
3227 3558
3227 3562
3227 3575
3227 3578
3227 3599
3227 3601
3227 3626
3227 3629
3227 3688
3227 3691
3227 3692
3227 3716
3227 3718
3227 3724
3227 3728
3227 3737
3228 3568
3228 3645
3229 3663
3230 3265
3230 3404
3230 3408
3230 3466
3230 3478
3230 3486
3230 3513
3230 3630
3230 3640
3230 3744
3231 3334
3231 3518
3231 3536
3233 3500
3234 3238
3234 3296
3234 3316
3234 3317
3234 3349
3234 3385
3234 3389
3234 3408
3234 3431
3234 3442
3234 3446
3234 3510
3234 3516
3234 3523
3234 3547
3234 3562
3234 3573
3234 3575
3234 3578
3234 3592
3234 3595
3234 3630
3234 3649
3234 3668
3234 3686
3234 3696
3234 3714
3234 3718
3234 3746
3235 3302
3235 3553
3235 3564
3235 3582
3235 3719
3236 3346
3237 3587
3237 3603
3237 3664
3237 3711
3238 3344
3238 3546
3238 3609
3239 3341
3239 3470
3240 3489
3240 3632
3240 3704
3240 3714
3240 3715
3241 3419
3241 3461
3241 3474
3241 3580
3241 3741
3242 3259
3242 3349
3242 3373
3242 3445
3242 3520
3242 3656
3242 3682
3242 3712
3243 3259
3243 3272
3243 3296
3243 3405
3243 3424
3243 3426
3243 3466
3243 3521
3243 3534
3243 3562
3243 3575
3243 3603
3243 3621
3243 3675
3243 3676
3243 3689
3243 3721
3243 3737
3244 3484
3245 3272
3245 3339
3245 3366
3245 3386
3245 3466
3245 3534
3245 3547
3245 3635
3245 3648
3245 3666
3245 3689
3246 3378
3246 3510
3246 3746
3247 3305
3247 3412
3247 3466
3247 3514
3247 3603
3247 3728
3248 3286
3248 3387
3248 3399
3248 3465
3248 3470
3248 3570
3248 3571
3248 3597
3248 3616
3248 3624
3249 3453
3249 3552
3249 3573
3249 3598
3249 3652
3249 3685
3251 3306
3251 3482
3251 3566
3251 3660
3251 3667
3252 3316
3252 3338
3252 3382
3252 3479
3252 3529
3252 3684
3253 3272
3253 3337
3253 3404
3253 3466
3253 3477
3253 3534
3253 3553
3253 3558
3253 3611
3253 3617
3253 3629
3253 3695
3253 3721
3255 3357
3255 3500
3255 3546
3255 3660
3256 3331
3257 3260
3257 3270
3257 3304
3257 3339
3257 3343
3257 3511
3257 3585
3257 3616
3257 3681
3257 3689
3257 3690
3257 3718
3258 3274
3258 3286
3258 3332
3258 3399
3258 3450
3258 3465
3258 3640
3259 3272
3259 3349
3259 3364
3259 3405
3259 3426
3259 3445
3259 3466
3259 3520
3259 3639
3259 3675
3259 3682
3259 3687
3259 3689
3259 3712
3259 3721
3259 3734
3260 3334
3260 3530
3260 3615
3261 3264
3261 3605
3261 3716
3262 3561
3263 3397
3263 3659
3264 3322
3264 3339
3264 3356
3264 3477
3264 3482
3264 3484
3264 3504
3264 3513
3264 3517
3264 3557
3264 3578
3264 3649
3264 3650
3264 3709
3265 3396
3265 3404
3265 3426
3265 3478
3265 3562
3265 3654
3265 3696
3265 3718
3265 3739
3266 3317
3266 3628
3266 3656
3266 3746
3267 3501
3267 3746
3268 3269
3268 3463
3268 3496
3268 3536
3268 3691
3269 3329
3269 3390
3269 3463
3269 3504
3270 3350
3270 3482
3270 3642
3271 3365
3271 3456
3271 3487
3272 3301
3272 3312
3272 3349
3272 3366
3272 3370
3272 3386
3272 3393
3272 3466
3272 3534
3272 3558
3272 3629
3272 3635
3272 3687
3272 3689
3273 3396
3273 3404
3273 3424
3273 3435
3273 3718
3274 3286
3274 3339
3274 3394
3274 3399
3274 3430
3274 3450
3274 3510
3274 3640
3274 3744
3275 3317
3275 3487
3275 3546
3275 3566
3275 3707
3276 3313
3276 3412
3276 3433
3276 3612
3277 3364
3278 3359
3278 3413
3278 3422
3278 3423
3278 3456
3278 3487
3278 3548
3278 3589
3278 3621
3278 3686
3279 3645
3280 3374
3280 3405
3280 3554
3280 3697
3281 3308
3281 3556
3282 3385
3283 3365
3283 3375
3283 3487
3283 3567
3284 3339
3284 3435
3284 3513
3284 3517
3284 3578
3284 3642
3284 3650
3285 3361
3285 3506
3287 3331
3287 3391
3287 3566
3288 3317
3288 3405
3288 3436
3288 3544
3288 3568
3288 3682
3290 3568
3290 3677
3291 3605
3292 3426
3292 3462
3292 3518
3292 3575
3292 3675
3295 3331
3295 3536
3296 3316
3296 3371
3296 3456
3296 3466
3296 3496
3296 3511
3296 3534
3296 3546
3296 3573
3296 3585
3296 3638
3296 3684
3296 3689
3296 3714
3296 3737
3297 3304
3297 3359
3297 3377
3297 3544
3297 3575
3297 3618
3297 3621
3297 3696
3298 3371
3298 3391
3298 3546
3298 3554
3299 3455
3299 3651
3300 3316
3300 3382
3300 3684
3301 3312
3301 3325
3301 3386
3301 3415
3301 3452
3301 3510
3301 3521
3301 3575
3301 3639
3302 3564
3302 3637
3302 3687
3303 3528
3303 3703
3303 3731
3304 3373
3304 3430
3304 3439
3304 3562
3304 3681
3304 3687
3305 3345
3305 3358
3305 3407
3305 3461
3305 3641
3305 3670
3306 3346
3306 3358
3306 3382
3306 3416
3306 3562
3306 3564
3306 3596
3306 3624
3306 3667
3306 3686
3306 3687
3306 3691
3306 3719
3306 3726
3306 3737
3307 3659
3307 3718
3308 3610
3309 3486
3309 3511
3309 3521
3309 3721
3309 3745
3310 3330
3310 3509
3310 3551
3310 3568
3310 3687
3310 3742
3311 3686
3311 3704
3312 3336
3312 3386
3312 3415
3312 3426
3312 3575
3312 3639
3312 3735
3314 3344
3314 3609
3316 3318
3316 3326
3316 3382
3316 3406
3316 3465
3316 3521
3316 3538
3316 3575
3316 3624
3316 3630
3316 3684
3316 3696
3316 3729
3317 3466
3317 3510
3317 3561
3317 3624
3317 3628
3317 3728
3318 3331
3318 3345
3319 3468
3319 3737
3320 3424
3320 3436
3320 3466
3320 3501
3320 3704
3321 3411
3321 3466
3322 3482
3322 3484
3322 3504
3322 3642
3322 3650
3323 3337
3323 3444
3323 3687
3324 3368
3324 3510
3324 3523
3324 3575
3324 3702
3325 3337
3325 3343
3325 3349
3325 3373
3325 3415
3325 3444
3325 3477
3325 3558
3325 3562
3325 3592
3325 3687
3325 3745
3326 3598
3328 3599
3329 3504
3329 3573
3329 3649
3330 3509
3330 3714
3331 3346
3331 3479
3331 3546
3331 3591
3331 3712
3332 3399
3332 3597
3332 3599
3332 3641
3332 3692
3332 3693
3332 3718
3332 3740
3334 3530
3334 3536
3334 3618
3335 3669
3336 3362
3336 3692
3336 3730
3336 3735
3337 3349
3337 3405
3337 3410
3337 3444
3337 3466
3337 3497
3337 3520
3337 3534
3337 3544
3337 3575
3337 3595
3337 3674
3337 3683
3337 3687
3337 3692
3337 3695
3337 3745
3338 3382
3338 3529
3338 3725
3339 3364
3339 3412
3339 3430
3339 3450
3339 3482
3339 3484
3339 3557
3339 3572
3339 3578
3339 3585
3339 3642
3339 3714
3340 3342
3340 3568
3340 3673
3341 3363
3342 3428
3342 3568
3342 3608
3343 3433
3343 3557
3343 3598
3343 3624
3343 3695
3343 3696
3344 3514
3344 3609
3344 3661
3344 3714
3345 3358
3345 3391
3345 3407
3345 3416
3345 3437
3345 3514
3345 3565
3345 3670
3345 3713
3345 3732
3346 3382
3348 3594
3349 3360
3349 3373
3349 3385
3349 3386
3349 3389
3349 3408
3349 3421
3349 3426
3349 3440
3349 3445
3349 3466
3349 3477
3349 3484
3349 3497
3349 3520
3349 3522
3349 3523
3349 3547
3349 3557
3349 3562
3349 3572
3349 3575
3349 3578
3349 3592
3349 3601
3349 3605
3349 3624
3349 3629
3349 3630
3349 3639
3349 3641
3349 3649
3349 3666
3349 3674
3349 3675
3349 3689
3349 3695
3349 3712
3349 3720
3349 3721
3349 3734
3349 3745
3350 3661
3353 3712
3354 3404
3354 3483
3354 3514
3354 3515
3354 3642
3354 3659
3354 3680
3354 3718
3355 3504
3355 3578
3355 3671
3355 3683
3356 3482
3356 3504
3356 3517
3356 3642
3356 3650
3357 3546
3358 3365
3358 3407
3358 3514
3358 3598
3358 3687
3358 3703
3359 3377
3359 3413
3359 3422
3359 3449
3359 3538
3359 3575
3359 3600
3359 3618
3359 3669
3359 3695
3359 3721
3360 3449
3360 3543
3360 3630
3360 3721
3361 3372
3361 3703
3362 3612
3364 3385
3364 3388
3364 3393
3364 3412
3364 3429
3364 3430
3364 3437
3364 3518
3364 3619
3364 3620
3364 3639
3364 3640
3364 3656
3364 3681
3364 3683
3364 3691
3364 3695
3364 3705
3364 3714
3364 3718
3364 3720
3365 3487
3365 3546
3365 3567
3365 3578
3366 3386
3366 3395
3366 3466
3366 3477
3366 3525
3366 3534
3366 3629
3366 3635
3366 3689
3367 3404
3368 3429
3368 3437
3368 3453
3368 3544
3368 3687
3368 3691
3370 3386
3370 3450
3370 3458
3370 3540
3370 3597
3370 3640
3370 3661
3370 3688
3370 3689
3370 3731
3371 3429
3371 3437
3371 3638
3371 3691
3372 3406
3372 3702
3373 3445
3373 3520
3373 3521
3373 3639
3373 3664
3373 3687
3373 3712
3373 3734
3374 3554
3374 3697
3375 3394
3375 3521
3376 3389
3376 3390
3376 3404
3376 3506
3376 3516
3376 3606
3376 3632
3376 3678
3376 3695
3376 3714
3376 3718
3376 3746
3377 3696
3378 3746
3379 3426
3379 3535
3379 3652
3380 3687
3382 3462
3382 3479
3382 3529
3382 3553
3382 3573
3382 3675
3382 3684
3382 3687
3382 3695
3382 3725
3383 3400
3383 3547
3384 3710
3385 3389
3385 3418
3385 3424
3385 3426
3385 3431
3385 3516
3385 3575
3385 3585
3385 3635
3385 3649
3385 3718
3386 3433
3386 3450
3386 3458
3386 3466
3386 3477
3386 3508
3386 3534
3386 3547
3386 3573
3386 3575
3386 3599
3386 3619
3386 3629
3386 3635
3386 3734
3387 3571
3388 3449
3388 3521
3388 3569
3388 3620
3388 3681
3388 3720
3388 3721
3389 3424
3389 3482
3389 3497
3389 3523
3389 3547
3389 3562
3389 3578
3389 3649
3389 3659
3389 3691
3390 3463
3390 3659
3390 3681
3390 3718
3390 3741
3393 3502
3393 3519
3393 3639
3393 3683
3393 3692
3393 3716
3394 3469
3395 3426
3395 3458
3395 3462
3395 3518
3395 3525
3395 3648
3396 3404
3396 3429
3396 3435
3396 3514
3396 3530
3396 3573
3396 3585
3396 3598
3396 3654
3396 3693
3396 3718
3396 3736
3397 3449
3397 3704
3398 3500
3399 3430
3399 3450
3399 3597
3399 3640
3399 3744
3400 3489
3400 3659
3402 3482
3402 3650
3404 3426
3404 3435
3404 3456
3404 3531
3404 3624
3404 3654
3404 3659
3404 3677
3404 3689
3404 3718
3405 3424
3405 3513
3405 3534
3405 3575
3405 3603
3405 3683
3405 3687
3405 3689
3405 3695
3407 3490
3407 3670
3407 3732
3408 3514
3408 3575
3408 3645
3409 3514
3409 3703
3410 3544
3410 3575
3410 3623
3410 3674
3412 3433
3412 3544
3412 3612
3413 3422
3413 3456
3413 3548
3413 3683
3413 3686
3413 3736
3414 3464
3414 3546
3415 3444
3415 3510
3415 3534
3415 3557
3415 3599
3415 3717
3415 3734
3415 3745
3416 3719
3417 3449
3417 3466
3418 3431
3418 3638
3419 3461
3419 3678
3419 3741
3420 3431
3420 3495
3420 3546
3420 3562
3421 3464
3421 3570
3421 3746
3422 3456
3422 3548
3422 3622
3423 3436
3423 3456
3423 3589
3423 3598
3423 3736
3424 3436
3424 3449
3424 3507
3424 3534
3424 3704
3424 3737
3426 3447
3426 3456
3426 3477
3426 3494
3426 3520
3426 3521
3426 3526
3426 3528
3426 3544
3426 3562
3426 3575
3426 3600
3426 3603
3426 3613
3426 3639
3426 3675
3426 3676
3426 3677
3426 3682
3426 3703
3426 3721
3427 3507
3427 3546
3427 3598
3429 3437
3429 3496
3429 3691
3430 3450
3430 3465
3430 3510
3430 3511
3430 3571
3430 3681
3430 3687
3430 3695
3431 3500
3431 3667
3431 3677
3431 3704
3433 3553
3433 3690
3433 3721
3434 3546
3435 3520
3435 3578
3435 3642
3435 3654
3435 3675
3435 3718
3436 3498
3437 3564
3437 3638
3437 3677
3437 3687
3437 3691
3438 3551
3440 3534
3440 3547
3440 3613
3440 3639
3440 3661
3440 3669
3440 3675
3440 3682
3440 3695
3441 3503
3441 3677
3442 3513
3442 3543
3442 3659
3442 3741
3444 3619
3444 3687
3444 3745
3445 3520
3445 3712
3446 3637
3446 3645
3446 3668
3446 3684
3446 3686
3448 3638
3449 3478
3449 3573
3449 3611
3449 3620
3449 3704
3449 3720
3449 3721
3450 3465
3450 3510
3450 3513
3450 3575
3450 3597
3450 3624
3450 3638
3450 3640
3450 3683
3450 3736
3450 3744
3451 3458
3451 3466
3451 3624
3452 3666
3454 3641
3454 3722
3455 3491
3455 3575
3455 3581
3455 3588
3455 3595
3455 3618
3455 3640
3455 3651
3456 3487
3456 3548
3456 3562
3456 3677
3456 3678
3456 3686
3457 3479
3458 3585
3458 3689
3459 3534
3462 3675
3462 3680
3462 3689
3463 3496
3464 3482
3464 3500
3464 3546
3464 3566
3465 3597
3465 3624
3465 3638
3465 3640
3465 3728
3466 3477
3466 3520
3466 3521
3466 3534
3466 3553
3466 3558
3466 3562
3466 3563
3466 3573
3466 3575
3466 3585
3466 3592
3466 3595
3466 3599
3466 3611
3466 3616
3466 3617
3466 3629
3466 3630
3466 3632
3466 3635
3466 3674
3466 3687
3466 3689
3466 3695
3466 3700
3466 3714
3466 3716
3466 3724
3466 3726
3466 3729
3466 3734
3466 3737
3467 3692
3468 3521
3469 3597
3469 3624
3469 3657
3470 3472
3470 3546
3470 3567
3471 3500
3473 3616
3473 3700
3474 3577
3476 3598
3476 3682
3476 3741
3477 3553
3477 3558
3477 3575
3477 3601
3477 3611
3477 3617
3477 3629
3477 3639
3477 3676
3477 3687
3477 3721
3478 3486
3478 3497
3478 3562
3478 3569
3478 3692
3478 3696
3478 3743
3479 3528
3479 3529
3479 3662
3479 3704
3479 3718
3479 3725
3480 3530
3481 3510
3482 3484
3482 3504
3482 3513
3482 3517
3482 3557
3482 3561
3482 3572
3482 3578
3482 3642
3482 3649
3482 3650
3482 3677
3482 3683
3482 3734
3482 3736
3483 3659
3484 3572
3484 3585
3484 3649
3484 3650
3485 3722
3486 3630
3487 3554
3488 3598
3489 3605
3489 3674
3489 3715
3489 3718
3490 3575
3490 3613
3491 3545
3491 3563
3491 3618
3491 3649
3491 3692
3491 3695
3491 3729
3492 3594
3492 3606
3492 3645
3492 3677
3495 3546
3496 3573
3497 3578
3497 3649
3497 3695
3497 3716
3498 3687
3500 3660
3500 3668
3500 3704
3502 3519
3502 3692
3503 3592
3503 3718
3504 3517
3504 3560
3504 3573
3504 3599
3504 3642
3504 3649
3504 3650
3504 3685
3504 3713
3504 3722
3504 3736
3506 3702
3506 3742
3507 3598
3507 3652
3507 3675
3507 3687
3507 3703
3507 3732
3508 3514
3510 3573
3510 3578
3510 3599
3510 3626
3510 3638
3510 3641
3510 3677
3510 3692
3510 3746
3511 3600
3513 3534
3513 3557
3513 3572
3513 3594
3513 3650
3513 3683
3513 3687
3513 3709
3514 3573
3514 3641
3514 3645
3514 3649
3514 3662
3514 3670
3514 3714
3514 3718
3514 3732
3515 3564
3515 3737
3516 3520
3516 3668
3516 3686
3516 3694
3516 3714
3517 3578
3517 3633
3517 3642
3517 3650
3518 3605
3518 3619
3518 3689
3518 3704
3518 3715
3518 3716
3518 3718
3520 3575
3520 3675
3521 3544
3521 3572
3521 3620
3521 3639
3521 3674
3521 3675
3521 3676
3521 3682
3521 3689
3521 3717
3521 3720
3521 3721
3521 3726
3523 3562
3523 3578
3523 3697
3524 3645
3524 3738
3525 3610
3526 3534
3526 3559
3526 3600
3527 3666
3528 3600
3528 3649
3528 3662
3528 3675
3528 3714
3529 3684
3529 3687
3529 3703
3530 3615
3531 3599
3531 3601
3531 3659
3532 3543
3533 3554
3534 3544
3534 3553
3534 3559
3534 3575
3534 3635
3534 3674
3534 3675
3534 3683
3534 3687
3534 3689
3534 3714
3535 3598
3535 3628
3536 3564
3536 3567
3536 3598
3536 3656
3536 3677
3536 3691
3536 3704
3537 3579
3537 3686
3537 3746
3538 3575
3538 3601
3538 3608
3538 3703
3538 3714
3540 3688
3540 3689
3540 3731
3544 3575
3544 3623
3544 3639
3544 3674
3544 3675
3544 3682
3544 3721
3545 3692
3546 3554
3546 3591
3546 3667
3546 3682
3546 3712
3547 3575
3547 3578
3547 3649
3547 3666
3547 3689
3547 3704
3547 3717
3548 3710
3549 3639
3549 3689
3549 3717
3551 3742
3552 3709
3553 3558
3553 3601
3553 3611
3553 3617
3553 3629
3553 3684
3557 3578
3557 3734
3558 3575
3558 3611
3558 3617
3558 3629
3559 3695
3560 3722
3561 3574
3562 3569
3562 3575
3562 3591
3562 3592
3562 3596
3562 3611
3562 3620
3562 3639
3562 3677
3562 3687
3562 3689
3562 3698
3562 3719
3562 3737
3563 3575
3563 3626
3563 3695
3563 3704
3564 3737
3565 3691
3565 3732
3568 3575
3568 3598
3568 3684
3568 3714
3569 3620
3569 3720
3571 3695
3572 3575
3572 3578
3572 3714
3572 3736
3573 3598
3573 3641
3573 3726
3573 3743
3575 3578
3575 3584
3575 3600
3575 3611
3575 3618
3575 3629
3575 3630
3575 3639
3575 3649
3575 3652
3575 3656
3575 3674
3575 3675
3575 3682
3575 3689
3575 3696
3575 3702
3575 3714
3575 3717
3575 3721
3575 3737
3575 3739
3575 3745
3578 3649
3578 3704
3578 3714
3578 3717
3578 3736
3581 3595
3584 3690
3585 3599
3585 3616
3585 3641
3585 3718
3587 3628
3587 3664
3587 3711
3588 3618
3589 3632
3591 3712
3592 3601
3592 3611
3595 3618
3595 3695
3596 3719
3596 3737
3597 3624
3597 3640
3597 3641
3597 3744
3598 3687
3598 3691
3598 3718
3598 3736
3599 3619
3599 3624
3599 3630
3599 3635
3599 3659
3599 3689
3599 3718
3599 3724
3600 3695
3600 3714
3601 3609
3601 3611
3601 3629
3601 3649
3601 3686
3601 3717
3603 3664
3603 3675
3603 3682
3603 3687
3603 3702
3605 3674
3606 3718
3609 3661
3610 3724
3611 3617
3611 3629
3611 3687
3612 3640
3613 3645
3615 3699
3616 3618
3616 3687
3617 3629
3618 3626
3618 3696
3619 3626
3619 3675
3620 3720
3621 3675
3621 3696
3623 3674
3623 3675
3624 3638
3624 3687
3624 3689
3624 3714
3624 3718
3625 3735
3626 3692
3626 3745
3628 3664
3629 3687
3629 3734
3630 3696
3630 3717
3630 3729
3632 3704
3632 3711
3632 3716
3632 3718
3635 3745
3636 3702
3637 3668
3637 3687
3637 3718
3638 3640
3638 3641
3638 3691
3638 3714
3639 3675
3639 3689
3639 3717
3639 3734
3640 3744
3641 3688
3641 3692
3641 3718
3642 3649
3642 3659
3642 3704
3642 3726
3643 3659
3645 3654
3645 3668
3645 3686
3645 3705
3645 3718
3648 3695
3649 3650
3649 3686
3649 3714
3651 3700
3654 3718
3655 3695
3655 3718
3656 3687
3659 3691
3659 3718
3659 3741
3661 3669
3661 3689
3661 3695
3664 3687
3664 3711
3664 3741
3665 3679
3668 3684
3668 3686
3669 3695
3674 3687
3675 3676
3675 3682
3675 3696
3675 3717
3675 3721
3676 3682
3676 3721
3680 3685
3680 3714
3681 3713
3681 3716
3681 3720
3682 3688
3682 3702
3682 3721
3683 3687
3684 3686
3684 3692
3684 3714
3687 3689
3687 3691
3687 3718
3687 3721
3687 3728
3687 3745
3688 3689
3688 3695
3688 3731
3688 3736
3689 3695
3689 3717
3689 3721
3689 3731
3689 3734
3694 3714
3695 3696
3695 3700
3695 3729
3696 3729
3696 3746
3701 3733
3702 3742
3704 3715
3707 3711
3711 3741
3714 3718
3717 3724
3718 3741
3719 3737
3721 3726
3726 3736
3726 3743
