%%MatrixMarket matrix coordinate pattern symmetric
2677 2677 65236
1 46
1 71
1 120
1 162
1 386
1 406
1 412
1 428
1 472
1 666
1 759
1 778
1 822
1 855
1 881
1 897
1 905
1 910
1 913
1 920
1 961
1 971
1 1015
1 1028
1 1138
1 1187
1 1206
1 1223
1 1232
1 1264
1 1382
1 1392
1 1510
1 1591
1 1635
1 1696
1 1724
1 1734
1 1760
1 1786
1 2053
1 2201
1 2215
1 2258
1 2330
1 2378
1 2453
1 2483
1 2633
1 2634
2 118
2 147
2 218
2 231
2 384
2 518
2 571
2 622
2 673
2 722
2 987
2 1138
2 1541
2 1628
2 1667
2 1711
2 1726
2 1781
2 1911
2 2015
2 2124
2 2182
2 2219
2 2252
2 2270
2 2331
2 2495
2 2666
3 15
3 125
3 172
3 218
3 277
3 645
3 902
3 941
3 980
3 1079
3 1203
3 1357
3 1381
3 1415
3 1595
3 1726
3 1810
3 1874
3 1930
3 1962
3 2003
3 2085
3 2124
3 2207
3 2242
3 2248
3 2256
3 2659
4 107
4 171
4 174
4 198
4 240
4 250
4 257
4 282
4 287
4 311
4 328
4 332
4 410
4 416
4 423
4 428
4 437
4 444
4 445
4 446
4 454
4 470
4 493
4 523
4 536
4 543
4 584
4 587
4 674
4 772
4 813
4 819
4 822
4 841
4 863
4 879
4 881
4 891
4 909
4 920
4 928
4 930
4 951
4 996
4 1037
4 1082
4 1090
4 1186
4 1187
4 1231
4 1232
4 1264
4 1290
4 1302
4 1309
4 1310
4 1328
4 1354
4 1431
4 1582
4 1587
4 1612
4 1623
4 1629
4 1634
4 1640
4 1683
4 1697
4 1724
4 1778
4 1825
4 1840
4 1907
4 1917
4 1999
4 2037
4 2147
4 2182
4 2183
4 2228
4 2334
4 2336
4 2339
4 2395
4 2432
4 2453
4 2528
4 2564
4 2607
4 2633
4 2634
4 2656
4 2665
5 8
5 40
5 93
5 97
5 99
5 121
5 168
5 176
5 179
5 197
5 256
5 264
5 282
5 306
5 347
5 361
5 390
5 482
5 492
5 498
5 635
5 688
5 731
5 749
5 755
5 770
5 783
5 826
5 846
5 855
5 876
5 903
5 993
5 997
5 1039
5 1061
5 1074
5 1085
5 1093
5 1101
5 1121
5 1126
5 1138
5 1141
5 1142
5 1206
5 1223
5 1224
5 1229
5 1264
5 1275
5 1295
5 1299
5 1307
5 1327
5 1397
5 1403
5 1412
5 1464
5 1468
5 1494
5 1521
5 1541
5 1579
5 1627
5 1675
5 1730
5 1737
5 1761
5 1769
5 1784
5 1822
5 1875
5 1893
5 1895
5 1931
5 1947
5 1965
5 1967
5 1979
5 1998
5 2060
5 2112
5 2137
5 2184
5 2202
5 2222
5 2273
5 2287
5 2365
5 2370
5 2399
5 2410
5 2458
5 2501
5 2523
5 2547
5 2574
5 2588
5 2616
5 2629
5 2659
5 2661
5 2673
6 53
6 103
6 380
6 511
6 675
6 895
6 1040
6 1132
6 1269
6 1339
6 1340
6 1364
6 1377
6 1502
6 1630
6 1650
6 1659
6 1843
6 1971
6 2011
6 2289
6 2375
6 2387
6 2464
6 2587
6 2618
6 2671
7 370
7 897
7 1344
7 1630
7 1971
7 2147
7 2395
7 2403
8 14
8 22
8 41
8 110
8 120
8 121
8 128
8 130
8 156
8 169
8 171
8 174
8 180
8 195
8 197
8 203
8 222
8 240
8 250
8 254
8 257
8 259
8 282
8 298
8 308
8 329
8 346
8 356
8 358
8 368
8 410
8 412
8 446
8 454
8 470
8 471
8 486
8 493
8 494
8 496
8 498
8 509
8 519
8 569
8 570
8 573
8 608
8 619
8 620
8 633
8 634
8 635
8 644
8 654
8 655
8 664
8 666
8 670
8 681
8 691
8 704
8 726
8 727
8 736
8 738
8 746
8 758
8 765
8 768
8 770
8 791
8 801
8 808
8 855
8 871
8 874
8 876
8 877
8 891
8 925
8 930
8 956
8 957
8 963
8 975
8 990
8 994
8 998
8 1025
8 1041
8 1042
8 1058
8 1072
8 1081
8 1086
8 1088
8 1093
8 1100
8 1105
8 1117
8 1125
8 1136
8 1138
8 1144
8 1166
8 1171
8 1172
8 1174
8 1177
8 1181
8 1186
8 1187
8 1191
8 1192
8 1202
8 1204
8 1224
8 1226
8 1231
8 1264
8 1295
8 1304
8 1325
8 1334
8 1335
8 1342
8 1344
8 1356
8 1366
8 1384
8 1385
8 1394
8 1403
8 1408
8 1410
8 1412
8 1425
8 1430
8 1431
8 1438
8 1442
8 1454
8 1487
8 1495
8 1502
8 1506
8 1529
8 1541
8 1557
8 1558
8 1570
8 1575
8 1582
8 1616
8 1638
8 1641
8 1659
8 1664
8 1671
8 1676
8 1678
8 1685
8 1686
8 1696
8 1704
8 1713
8 1721
8 1724
8 1729
8 1734
8 1741
8 1753
8 1758
8 1760
8 1779
8 1784
8 1808
8 1809
8 1815
8 1821
8 1825
8 1835
8 1840
8 1843
8 1850
8 1851
8 1855
8 1881
8 1883
8 1903
8 1912
8 1918
8 1919
8 1920
8 1929
8 1931
8 1955
8 1957
8 1958
8 2004
8 2010
8 2011
8 2016
8 2021
8 2036
8 2056
8 2060
8 2066
8 2081
8 2083
8 2093
8 2097
8 2109
8 2175
8 2182
8 2197
8 2201
8 2202
8 2206
8 2211
8 2213
8 2228
8 2233
8 2240
8 2263
8 2268
8 2292
8 2296
8 2305
8 2327
8 2335
8 2370
8 2386
8 2395
8 2421
8 2425
8 2432
8 2444
8 2451
8 2452
8 2453
8 2464
8 2473
8 2480
8 2501
8 2515
8 2523
8 2528
8 2544
8 2551
8 2561
8 2574
8 2580
8 2585
8 2593
8 2594
8 2608
8 2615
8 2629
8 2647
8 2653
8 2670
8 2673
9 31
9 68
9 169
9 179
9 206
9 212
9 226
9 309
9 319
9 403
9 455
9 484
9 556
9 575
9 582
9 596
9 618
9 695
9 746
9 770
9 786
9 847
9 878
9 899
9 933
9 975
9 1091
9 1093
9 1097
9 1119
9 1128
9 1197
9 1233
9 1266
9 1280
9 1361
9 1365
9 1433
9 1439
9 1461
9 1466
9 1484
9 1494
9 1498
9 1519
9 1558
9 1635
9 1652
9 1675
9 1708
9 1721
9 1733
9 1773
9 1782
9 1799
9 1883
9 1983
9 2001
9 2026
9 2039
9 2050
9 2098
9 2137
9 2184
9 2188
9 2251
9 2258
9 2330
9 2385
9 2421
9 2435
9 2467
9 2471
9 2475
9 2489
9 2497
9 2520
9 2539
9 2578
9 2591
9 2660
9 2671
10 50
10 174
10 195
10 257
10 259
10 271
10 291
10 313
10 316
10 332
10 430
10 433
10 470
10 493
10 498
10 503
10 519
10 542
10 550
10 564
10 626
10 697
10 812
10 876
10 881
10 891
10 892
10 920
10 923
10 930
10 934
10 996
10 1015
10 1029
10 1043
10 1045
10 1062
10 1088
10 1091
10 1159
10 1165
10 1177
10 1192
10 1248
10 1262
10 1290
10 1296
10 1301
10 1307
10 1344
10 1372
10 1442
10 1475
10 1476
10 1477
10 1487
10 1529
10 1537
10 1683
10 1709
10 1724
10 1817
10 1840
10 1870
10 1871
10 1881
10 1907
10 1917
10 1933
10 2031
10 2038
10 2171
10 2211
10 2277
10 2283
10 2313
10 2417
10 2424
10 2429
10 2470
10 2489
10 2507
10 2528
10 2553
10 2586
10 2600
10 2606
10 2634
11 170
11 839
11 1207
11 1464
11 1553
11 1761
11 1764
11 1830
11 1979
11 2075
11 2199
11 2225
11 2294
12 242
12 282
12 317
12 508
12 635
12 1019
12 1857
13 65
13 122
13 310
13 341
13 479
13 522
13 684
13 715
13 817
13 853
13 917
13 959
13 973
13 1353
13 1380
13 1549
13 1610
13 1709
13 1862
13 1870
13 1904
13 1979
13 2090
13 2099
13 2143
13 2179
13 2282
13 2290
13 2512
14 45
14 85
14 117
14 120
14 156
14 174
14 195
14 225
14 240
14 263
14 281
14 329
14 331
14 470
14 496
14 509
14 606
14 636
14 681
14 697
14 737
14 738
14 749
14 800
14 891
14 892
14 920
14 930
14 1117
14 1186
14 1187
14 1202
14 1204
14 1291
14 1334
14 1344
14 1377
14 1395
14 1454
14 1487
14 1562
14 1582
14 1608
14 1616
14 1638
14 1664
14 1729
14 1733
14 1750
14 1753
14 1758
14 1760
14 1779
14 1840
14 1881
14 1897
14 1912
14 1916
14 1957
14 1994
14 2066
14 2109
14 2206
14 2211
14 2278
14 2347
14 2356
14 2392
14 2432
14 2451
14 2453
14 2528
14 2548
14 2561
14 2615
14 2617
14 2633
14 2634
15 218
15 277
15 379
15 468
15 661
15 692
15 802
15 886
15 980
15 1001
15 1068
15 1079
15 1093
15 1191
15 1203
15 1256
15 1381
15 1415
15 1711
15 1726
15 1870
15 1962
15 2003
15 2005
15 2115
15 2124
15 2150
15 2207
15 2248
15 2256
15 2540
15 2659
16 40
16 46
16 66
16 88
16 105
16 176
16 278
16 347
16 492
16 499
16 575
16 597
16 719
16 779
16 899
16 934
16 943
16 1072
16 1089
16 1091
16 1126
16 1223
16 1344
16 1405
16 1428
16 1442
16 1524
16 1532
16 1548
16 1558
16 1559
16 1579
16 1624
16 1671
16 1723
16 1766
16 1775
16 1796
16 1797
16 1824
16 1829
16 1870
16 1881
16 1902
16 1942
16 1978
16 1998
16 2134
16 2155
16 2163
16 2209
16 2267
16 2294
16 2299
16 2305
16 2474
16 2553
16 2631
16 2637
17 62
17 85
17 134
17 242
17 317
17 437
17 508
17 517
17 519
17 543
17 600
17 634
17 674
17 699
17 852
17 854
17 866
17 930
17 963
17 978
17 1108
17 1117
17 1200
17 1244
17 1262
17 1575
17 1616
17 1676
17 1713
17 1821
17 1898
17 2016
17 2062
17 2077
17 2083
17 2180
17 2228
17 2263
17 2403
17 2452
17 2453
17 2455
17 2478
17 2528
17 2593
17 2612
17 2615
17 2633
17 2677
18 384
18 460
18 646
18 1093
18 1305
18 1975
18 1988
18 2132
18 2154
18 2169
18 2204
18 2373
19 1421
20 225
20 228
20 268
20 396
20 697
20 876
20 1108
20 1166
20 1248
20 1264
20 1361
20 1442
20 1476
20 1608
20 2211
20 2467
20 2488
20 2578
21 45
21 63
21 65
21 83
21 134
21 316
21 318
21 331
21 492
21 503
21 510
21 550
21 668
21 682
21 684
21 691
21 708
21 738
21 921
21 930
21 954
21 960
21 1011
21 1166
21 1197
21 1217
21 1255
21 1306
21 1395
21 1425
21 1442
21 1455
21 1529
21 1537
21 1546
21 1562
21 1608
21 1675
21 1709
21 1779
21 1798
21 1813
21 1822
21 1870
21 1897
21 1904
21 1994
21 2027
21 2038
21 2066
21 2078
21 2131
21 2162
21 2164
21 2171
21 2179
21 2187
21 2211
21 2277
21 2278
21 2283
21 2359
21 2387
21 2392
21 2398
21 2401
21 2425
21 2429
21 2452
21 2469
21 2514
21 2583
21 2586
21 2623
21 2651
22 46
22 56
22 115
22 119
22 121
22 129
22 191
22 228
22 293
22 300
22 333
22 347
22 406
22 486
22 540
22 592
22 608
22 616
22 624
22 633
22 664
22 666
22 726
22 736
22 746
22 824
22 855
22 910
22 956
22 971
22 998
22 1034
22 1061
22 1089
22 1093
22 1100
22 1105
22 1127
22 1138
22 1174
22 1184
22 1185
22 1190
22 1195
22 1206
22 1219
22 1226
22 1271
22 1295
22 1296
22 1299
22 1325
22 1327
22 1333
22 1384
22 1403
22 1412
22 1456
22 1484
22 1494
22 1495
22 1500
22 1510
22 1524
22 1545
22 1548
22 1558
22 1587
22 1601
22 1659
22 1685
22 1741
22 1760
22 1773
22 1779
22 1788
22 1795
22 1798
22 1807
22 1808
22 1882
22 1893
22 1942
22 1958
22 1998
22 2016
22 2062
22 2090
22 2151
22 2172
22 2201
22 2225
22 2232
22 2305
22 2367
22 2370
22 2387
22 2413
22 2457
22 2464
22 2469
22 2483
22 2501
22 2551
22 2574
22 2593
22 2631
22 2673
23 32
23 248
23 389
23 539
23 1008
23 1011
23 1065
23 1220
23 1727
23 1785
23 1953
23 2046
23 2460
23 2499
24 322
24 338
24 628
24 726
24 864
24 897
24 927
24 1074
24 1091
24 1182
24 1211
24 1265
24 1380
24 1412
24 1466
24 1546
24 1625
24 1696
24 1790
24 1813
24 1994
24 2068
24 2162
24 2360
24 2370
24 2398
24 2422
24 2446
24 2455
24 2526
25 83
25 115
25 910
26 54
26 149
26 218
26 237
26 277
26 292
26 312
26 450
26 661
26 663
26 692
26 793
26 794
26 829
26 880
26 885
26 965
26 970
26 980
26 1009
26 1091
26 1134
26 1350
26 1360
26 1376
26 1476
26 1544
26 1684
26 1695
26 1726
26 1744
26 1814
26 1871
26 1930
26 1961
26 2005
26 2015
26 2068
26 2084
26 2124
26 2207
26 2242
26 2270
26 2285
26 2339
26 2350
26 2565
26 2580
26 2672
27 64
27 70
27 139
27 148
27 197
27 231
27 289
27 359
27 360
27 369
27 371
27 398
27 605
27 692
27 755
27 805
27 897
27 922
27 956
27 998
27 1036
27 1100
27 1114
27 1195
27 1210
27 1264
27 1274
27 1339
27 1399
27 1704
27 1781
27 1784
27 1865
27 1988
27 2021
27 2048
27 2070
27 2115
27 2136
27 2157
27 2369
27 2375
27 2405
27 2450
27 2457
27 2464
27 2510
28 448
28 766
28 1022
28 1293
28 1625
28 1870
28 2188
29 55
29 310
29 330
29 479
29 521
29 679
29 684
29 742
29 749
29 757
29 910
29 962
29 1244
29 1296
29 1299
29 1455
29 1539
29 1567
29 1822
29 1854
29 1868
29 1901
29 2199
29 2501
29 2673
30 51
30 84
30 181
30 235
30 417
30 473
30 613
30 661
30 662
30 689
30 692
30 854
30 880
30 904
30 908
30 923
30 965
30 976
30 1026
30 1075
30 1114
30 1201
30 1216
30 1430
30 1481
30 1497
30 1647
30 1743
30 1883
30 1906
30 1934
30 1946
30 1970
30 1979
30 2012
30 2047
30 2111
30 2115
30 2134
30 2139
30 2157
30 2245
30 2292
30 2490
30 2506
30 2614
31 44
31 46
31 58
31 62
31 64
31 135
31 185
31 206
31 274
31 291
31 295
31 406
31 469
31 556
31 569
31 573
31 578
31 760
31 761
31 771
31 855
31 934
31 948
31 975
31 1024
31 1091
31 1093
31 1218
31 1233
31 1313
31 1361
31 1374
31 1389
31 1473
31 1484
31 1510
31 1519
31 1524
31 1558
31 1617
31 1661
31 1696
31 1717
31 1721
31 1773
31 1798
31 1799
31 1863
31 1870
31 1883
31 2050
31 2053
31 2067
31 2258
31 2302
31 2329
31 2330
31 2389
31 2399
31 2435
31 2464
31 2475
31 2539
31 2591
31 2616
31 2670
32 248
32 539
32 1008
32 1011
32 1161
32 1315
32 1727
32 2046
32 2362
32 2460
32 2650
33 203
33 371
33 498
33 525
33 572
33 619
33 709
33 755
33 901
33 950
33 972
33 1025
33 1082
33 1105
33 1119
33 1229
33 1239
33 1278
33 1282
33 1390
33 1403
33 1503
33 1540
33 1541
33 1623
33 1629
33 1638
33 1881
33 1912
33 1931
33 2112
33 2182
33 2203
33 2241
33 2268
33 2310
33 2368
33 2370
33 2444
33 2603
33 2629
34 298
34 386
34 409
34 413
34 503
34 508
34 591
34 762
34 803
34 822
34 872
34 1008
34 1121
34 1123
34 1345
34 1510
34 1542
34 1601
34 1727
34 2046
34 2100
34 2174
34 2214
34 2237
34 2452
34 2464
34 2469
34 2480
35 278
35 315
35 485
35 486
35 659
35 922
35 965
35 998
35 1013
35 1301
35 1328
35 1474
35 1881
35 2031
35 2202
35 2311
35 2370
35 2644
36 47
36 143
36 253
36 291
36 457
36 516
36 559
36 760
36 763
36 889
36 932
36 1106
36 1118
36 1249
36 1393
36 1397
36 1460
36 1504
36 1505
36 1508
36 1586
36 1598
36 1901
36 1952
36 2000
36 2082
36 2188
36 2196
36 2233
36 2274
36 2281
36 2406
36 2494
36 2497
36 2562
36 2577
36 2640
37 49
37 118
37 132
37 147
37 193
37 237
37 262
37 269
37 292
37 314
37 660
37 678
37 774
37 941
37 946
37 987
37 1030
37 1069
37 1203
37 1256
37 1391
37 1516
37 1628
37 1667
37 1681
37 1747
37 1841
37 1877
37 1906
37 1934
37 1985
37 1986
37 1987
37 2003
37 2015
37 2167
37 2255
37 2396
37 2516
37 2555
37 2580
37 2581
37 2601
37 2666
38 236
38 263
38 398
38 494
38 506
38 528
38 574
38 600
38 706
38 766
38 770
38 871
38 922
38 937
38 1015
38 1039
38 1152
38 1181
38 1254
38 1258
38 1280
38 1298
38 1393
38 1468
38 1479
38 1507
38 1518
38 1597
38 1625
38 1641
38 1657
38 1659
38 1662
38 1824
38 2011
38 2037
38 2039
38 2180
38 2408
38 2413
38 2618
38 2629
39 115
39 317
39 403
39 508
39 517
39 690
39 866
39 1091
39 1119
39 1676
39 2229
39 2263
39 2361
39 2452
39 2526
40 115
40 151
40 194
40 205
40 248
40 316
40 347
40 357
40 358
40 362
40 457
40 469
40 510
40 567
40 616
40 633
40 770
40 779
40 852
40 899
40 932
40 934
40 943
40 949
40 964
40 975
40 1044
40 1074
40 1089
40 1091
40 1126
40 1255
40 1275
40 1299
40 1363
40 1397
40 1405
40 1426
40 1435
40 1442
40 1463
40 1484
40 1524
40 1541
40 1548
40 1569
40 1579
40 1624
40 1659
40 1796
40 1829
40 1852
40 1854
40 1858
40 1870
40 1883
40 1923
40 1942
40 1965
40 1979
40 1998
40 2010
40 2046
40 2050
40 2060
40 2078
40 2189
40 2192
40 2199
40 2251
40 2264
40 2283
40 2299
40 2309
40 2312
40 2352
40 2387
40 2410
40 2456
40 2490
40 2526
40 2539
40 2570
40 2588
40 2598
40 2634
40 2676
41 149
41 157
41 166
41 197
41 236
41 356
41 519
41 529
41 614
41 651
41 704
41 713
41 758
41 765
41 818
41 930
41 972
41 990
41 996
41 1086
41 1103
41 1144
41 1342
41 1422
41 1479
41 1507
41 1582
41 1664
41 1673
41 1713
41 1813
41 1817
41 1831
41 1919
41 1945
41 2110
41 2425
41 2432
41 2515
41 2544
41 2592
41 2608
42 171
42 328
42 470
42 644
42 706
42 765
42 930
42 972
42 1073
42 1108
42 1186
42 1286
42 1301
42 1328
42 1334
42 1344
42 1584
42 1596
42 1616
42 1683
42 1779
42 1837
42 1929
42 1971
42 2034
42 2081
42 2126
42 2202
42 2213
42 2228
42 2327
42 2559
42 2591
42 2635
42 2667
43 51
43 54
43 217
43 344
43 367
43 401
43 658
43 907
43 911
43 972
43 1496
43 1544
43 1621
43 1710
43 1712
43 1885
43 2040
43 2218
44 66
44 75
44 121
44 168
44 360
44 368
44 395
44 428
44 482
44 561
44 566
44 577
44 596
44 612
44 618
44 654
44 655
44 682
44 695
44 718
44 728
44 737
44 746
44 770
44 792
44 860
44 862
44 971
44 975
44 1042
44 1119
44 1138
44 1205
44 1237
44 1288
44 1299
44 1332
44 1347
44 1361
44 1363
44 1392
44 1472
44 1613
44 1618
44 1635
44 1663
44 1685
44 1730
44 1760
44 1820
44 1846
44 1883
44 1887
44 1936
44 1937
44 1979
44 2025
44 2076
44 2151
44 2174
44 2177
44 2201
44 2221
44 2228
44 2244
44 2265
44 2286
44 2302
44 2365
44 2377
44 2435
44 2501
44 2551
44 2574
44 2599
44 2616
44 2634
44 2638
44 2673
45 50
45 120
45 184
45 189
45 198
45 225
45 226
45 228
45 240
45 248
45 281
45 318
45 331
45 395
45 406
45 482
45 508
45 509
45 544
45 550
45 606
45 641
45 691
45 697
45 737
45 738
45 772
45 776
45 800
45 850
45 876
45 891
45 892
45 921
45 927
45 930
45 931
45 954
45 1008
45 1011
45 1044
45 1065
45 1074
45 1111
45 1142
45 1151
45 1166
45 1169
45 1183
45 1185
45 1232
45 1250
45 1255
45 1270
45 1271
45 1289
45 1306
45 1307
45 1395
45 1425
45 1446
45 1503
45 1546
45 1548
45 1559
45 1562
45 1570
45 1608
45 1615
45 1616
45 1617
45 1634
45 1678
45 1685
45 1693
45 1733
45 1750
45 1758
45 1760
45 1840
45 1871
45 1881
45 1887
45 1897
45 1908
45 1912
45 1916
45 1941
45 1969
45 1994
45 2031
45 2046
45 2062
45 2066
45 2078
45 2080
45 2083
45 2100
45 2118
45 2140
45 2187
45 2211
45 2228
45 2246
45 2278
45 2294
45 2316
45 2347
45 2360
45 2370
45 2392
45 2398
45 2441
45 2453
45 2512
45 2528
45 2533
45 2549
45 2551
45 2553
45 2570
45 2583
45 2586
45 2606
45 2623
45 2628
45 2633
45 2634
45 2659
46 83
46 97
46 133
46 144
46 185
46 191
46 196
46 206
46 226
46 228
46 278
46 293
46 298
46 324
46 335
46 343
46 347
46 357
46 362
46 381
46 406
46 412
46 418
46 428
46 430
46 434
46 437
46 451
46 452
46 457
46 463
46 472
46 508
46 510
46 529
46 535
46 542
46 552
46 570
46 582
46 608
46 617
46 630
46 634
46 642
46 664
46 666
46 707
46 715
46 746
46 772
46 824
46 831
46 846
46 848
46 865
46 876
46 885
46 899
46 910
46 923
46 925
46 943
46 962
46 964
46 970
46 971
46 975
46 1003
46 1005
46 1011
46 1013
46 1034
46 1042
46 1044
46 1045
46 1064
46 1072
46 1091
46 1093
46 1097
46 1124
46 1129
46 1138
46 1151
46 1166
46 1169
46 1174
46 1181
46 1185
46 1195
46 1200
46 1206
46 1230
46 1231
46 1237
46 1264
46 1266
46 1292
46 1307
46 1333
46 1346
46 1374
46 1489
46 1494
46 1500
46 1503
46 1510
46 1519
46 1541
46 1547
46 1558
46 1570
46 1579
46 1622
46 1639
46 1671
46 1708
46 1723
46 1733
46 1745
46 1750
46 1760
46 1772
46 1784
46 1798
46 1822
46 1837
46 1864
46 1871
46 1876
46 1893
46 1897
46 1914
46 1916
46 1923
46 1927
46 1931
46 1941
46 1942
46 1945
46 1955
46 1979
46 1980
46 1998
46 2016
46 2036
46 2048
46 2051
46 2068
46 2078
46 2135
46 2151
46 2175
46 2177
46 2179
46 2189
46 2190
46 2192
46 2201
46 2205
46 2208
46 2212
46 2215
46 2221
46 2222
46 2225
46 2231
46 2246
46 2258
46 2263
46 2264
46 2290
46 2299
46 2316
46 2321
46 2327
46 2330
46 2341
46 2342
46 2358
46 2359
46 2380
46 2385
46 2386
46 2398
46 2426
46 2437
46 2446
46 2456
46 2467
46 2505
46 2532
46 2544
46 2570
46 2574
46 2593
46 2598
46 2623
46 2661
46 2677
47 69
47 143
47 155
47 253
47 425
47 449
47 516
47 581
47 599
47 801
47 889
47 991
47 1074
47 1085
47 1106
47 1249
47 1412
47 1460
47 1504
47 1505
47 1586
47 1598
47 1706
47 1771
47 1976
47 2082
47 2100
47 2113
47 2274
47 2281
47 2354
47 2398
47 2402
47 2406
47 2494
47 2497
47 2562
47 2572
47 2577
47 2632
47 2640
47 2671
48 59
48 169
48 254
48 267
48 387
48 398
48 430
48 461
48 473
48 552
48 564
48 567
48 636
48 795
48 885
48 922
48 957
48 1029
48 1031
48 1082
48 1122
48 1128
48 1159
48 1174
48 1235
48 1343
48 1356
48 1372
48 1393
48 1475
48 1541
48 1594
48 1599
48 1696
48 1709
48 1870
48 1881
48 1910
48 1931
48 1934
48 1971
48 1978
48 2026
48 2044
48 2071
48 2112
48 2182
48 2310
48 2311
48 2361
48 2444
48 2490
48 2585
48 2629
48 2668
49 51
49 72
49 76
49 118
49 163
49 206
49 231
49 237
49 312
49 348
49 369
49 377
49 379
49 420
49 450
49 497
49 518
49 533
49 595
49 645
49 656
49 692
49 694
49 764
49 769
49 838
49 854
49 874
49 880
49 906
49 952
49 965
49 1001
49 1026
49 1070
49 1134
49 1168
49 1201
49 1210
49 1215
49 1216
49 1234
49 1268
49 1274
49 1357
49 1358
49 1381
49 1402
49 1414
49 1471
49 1492
49 1500
49 1514
49 1674
49 1703
49 1711
49 1726
49 1743
49 1744
49 1763
49 1791
49 1823
49 1848
49 1866
49 1874
49 1884
49 1906
49 1987
49 2015
49 2072
49 2087
49 2115
49 2157
49 2293
49 2297
49 2300
49 2340
49 2375
49 2420
49 2428
49 2440
49 2541
49 2597
49 2652
49 2672
50 120
50 149
50 169
50 174
50 179
50 192
50 195
50 197
50 198
50 209
50 228
50 240
50 246
50 259
50 278
50 328
50 329
50 331
50 332
50 372
50 387
50 393
50 395
50 398
50 452
50 470
50 471
50 485
50 493
50 498
50 499
50 509
50 525
50 527
50 543
50 552
50 558
50 614
50 665
50 674
50 681
50 703
50 704
50 720
50 738
50 766
50 772
50 794
50 800
50 844
50 877
50 891
50 892
50 901
50 930
50 957
50 960
50 970
50 989
50 990
50 996
50 1012
50 1025
50 1077
50 1108
50 1128
50 1144
50 1169
50 1175
50 1186
50 1199
50 1202
50 1204
50 1229
50 1239
50 1252
50 1255
50 1260
50 1262
50 1291
50 1307
50 1344
50 1355
50 1356
50 1372
50 1390
50 1395
50 1410
50 1422
50 1487
50 1520
50 1541
50 1570
50 1571
50 1575
50 1581
50 1587
50 1623
50 1634
50 1698
50 1713
50 1729
50 1733
50 1758
50 1760
50 1778
50 1779
50 1805
50 1831
50 1832
50 1840
50 1851
50 1871
50 1881
50 1897
50 1907
50 1912
50 1915
50 1916
50 1917
50 1919
50 1941
50 1950
50 1957
50 1970
50 2034
50 2044
50 2135
50 2163
50 2171
50 2189
50 2206
50 2210
50 2211
50 2212
50 2228
50 2277
50 2327
50 2343
50 2370
50 2392
50 2395
50 2397
50 2417
50 2423
50 2429
50 2453
50 2474
50 2489
50 2491
50 2507
50 2515
50 2528
50 2561
50 2570
50 2606
50 2629
50 2633
50 2635
50 2677
51 72
51 74
51 118
51 252
51 263
51 292
51 344
51 379
51 435
51 486
51 497
51 645
51 797
51 854
51 1026
51 1204
51 1274
51 1277
51 1298
51 1320
51 1322
51 1396
51 1414
51 1509
51 1606
51 1703
51 1726
51 1884
51 2043
51 2157
51 2270
51 2287
51 2292
51 2300
51 2331
51 2601
52 288
52 289
52 303
52 384
52 467
52 646
52 661
52 663
52 722
52 777
52 861
52 947
52 1264
52 1614
52 1636
52 1651
52 1703
52 1995
52 2115
52 2124
52 2228
52 2242
52 2295
52 2339
52 2600
52 2621
52 2656
53 103
53 319
53 335
53 380
53 406
53 511
53 608
53 677
53 683
53 768
53 818
53 855
53 895
53 1136
53 1153
53 1158
53 1229
53 1269
53 1272
53 1286
53 1339
53 1377
53 1502
53 1558
53 1579
53 1630
53 1659
53 1719
53 1746
53 1843
53 1947
53 1971
53 1978
53 2000
53 2011
53 2104
53 2175
53 2177
53 2269
53 2289
53 2387
53 2460
53 2464
53 2492
53 2524
53 2587
53 2618
53 2645
53 2671
54 74
54 118
54 217
54 243
54 289
54 571
54 658
54 674
54 794
54 854
54 909
54 972
54 988
54 1009
54 1222
54 1247
54 1376
54 1621
54 1684
54 1865
54 1871
54 1961
54 2030
54 2040
54 2043
54 2228
54 2285
54 2438
54 2447
54 2517
54 2564
54 2567
54 2600
54 2666
55 191
55 719
55 864
55 962
55 1097
55 1151
55 1266
55 1389
55 1549
55 1561
55 1588
55 1795
55 1822
55 1854
55 1868
55 2073
55 2091
55 2179
55 2188
55 2634
55 2671
56 92
56 97
56 119
56 153
56 194
56 300
56 362
56 608
56 664
56 729
56 736
56 782
56 851
56 998
56 1008
56 1100
56 1190
56 1195
56 1333
56 1438
56 1808
56 1856
56 1882
56 1890
56 1920
56 1937
56 1979
56 2032
56 2214
56 2232
56 2305
56 2386
56 2623
56 2677
57 95
57 177
57 610
57 838
57 860
57 893
57 936
57 1027
57 1417
57 1516
57 1992
57 2139
57 2204
57 2536
58 59
58 263
58 274
58 431
58 476
58 492
58 552
58 553
58 683
58 782
58 934
58 956
58 964
58 1009
58 1093
58 1118
58 1140
58 1142
58 1295
58 1303
58 1313
58 1389
58 1475
58 1558
58 1569
58 1574
58 1594
58 1620
58 1683
58 1718
58 1863
58 1870
58 1958
58 1978
58 2041
58 2053
58 2324
58 2502
58 2515
58 2553
58 2665
59 179
59 274
59 309
59 347
59 398
59 492
59 552
59 553
59 567
59 683
59 782
59 835
59 897
59 902
59 934
59 956
59 1070
59 1093
59 1101
59 1126
59 1146
59 1174
59 1303
59 1537
59 1548
59 1558
59 1588
59 1671
59 1683
59 1686
59 1703
59 1714
59 1718
59 1721
59 1730
59 1745
59 1764
59 1787
59 1829
59 1863
59 1870
59 1902
59 1952
59 1958
59 1978
59 2017
59 2119
59 2152
59 2214
59 2294
59 2297
59 2502
59 2585
59 2651
59 2652
59 2655
59 2665
60 136
60 278
60 406
60 472
60 492
60 576
60 608
60 721
60 738
60 956
60 970
60 975
60 986
60 1093
60 1126
60 1223
60 1226
60 1247
60 1473
60 1532
60 1579
60 1685
60 1708
60 1723
60 1784
60 1870
60 1871
60 1902
60 1903
60 1938
60 1945
60 2068
60 2201
60 2231
60 2246
60 2316
60 2387
60 2456
60 2467
60 2551
60 2574
60 2593
60 2605
61 185
61 352
61 550
61 562
61 939
61 1021
61 1286
61 1368
61 1409
61 1454
61 1507
61 1558
61 1687
61 1696
61 1858
61 1895
61 2007
61 2027
61 2232
61 2596
61 2670
62 174
62 184
62 200
62 242
62 295
62 317
62 347
62 350
62 357
62 470
62 508
62 606
62 634
62 666
62 770
62 822
62 852
62 855
62 866
62 879
62 913
62 930
62 956
62 975
62 1044
62 1052
62 1063
62 1074
62 1108
62 1169
62 1185
62 1186
62 1217
62 1227
62 1346
62 1397
62 1472
62 1484
62 1487
62 1510
62 1529
62 1554
62 1608
62 1633
62 1708
62 1733
62 1750
62 1774
62 1796
62 1870
62 1898
62 1912
62 1920
62 1967
62 2010
62 2016
62 2062
62 2076
62 2079
62 2144
62 2177
62 2258
62 2263
62 2305
62 2330
62 2347
62 2387
62 2452
62 2478
62 2622
62 2677
63 859
63 1091
63 2027
63 2049
63 2162
63 2514
64 168
64 188
64 206
64 274
64 461
64 575
64 654
64 682
64 684
64 790
64 824
64 842
64 843
64 862
64 913
64 943
64 990
64 1138
64 1154
64 1264
64 1266
64 1276
64 1361
64 1389
64 1416
64 1455
64 1472
64 1494
64 1537
64 1549
64 1576
64 1591
64 1654
64 1677
64 1699
64 1709
64 1723
64 1746
64 1760
64 1761
64 1832
64 1868
64 1870
64 1934
64 2073
64 2076
64 2152
64 2178
64 2188
64 2296
64 2302
64 2365
64 2370
64 2380
64 2387
64 2483
64 2501
64 2570
64 2593
64 2616
64 2651
65 86
65 142
65 202
65 310
65 330
65 331
65 410
65 479
65 549
65 592
65 641
65 708
65 803
65 814
65 849
65 858
65 910
65 917
65 939
65 954
65 960
65 973
65 1082
65 1119
65 1151
65 1242
65 1255
65 1296
65 1301
65 1337
65 1343
65 1353
65 1397
65 1404
65 1427
65 1433
65 1466
65 1500
65 1539
65 1564
65 1709
65 1714
65 1862
65 1870
65 1904
65 1934
65 1965
65 2004
65 2090
65 2099
65 2143
65 2162
65 2164
65 2225
65 2263
65 2282
65 2361
65 2390
65 2490
65 2638
65 2659
66 115
66 358
66 368
66 476
66 628
66 683
66 728
66 782
66 1044
66 1091
66 1119
66 1205
66 1227
66 1295
66 1347
66 1434
66 1472
66 1524
66 1594
66 1613
66 1617
66 1626
66 1683
66 1741
66 1773
66 1796
66 1820
66 1822
66 1870
66 2135
66 2209
66 2261
66 2263
66 2299
66 2367
66 2544
66 2586
66 2631
66 2634
66 2677
67 601
68 185
68 191
68 192
68 392
68 469
68 484
68 575
68 580
68 582
68 596
68 608
68 654
68 746
68 749
68 771
68 830
68 899
68 949
68 971
68 991
68 1000
68 1030
68 1085
68 1089
68 1120
68 1129
68 1138
68 1153
68 1165
68 1173
68 1246
68 1263
68 1266
68 1280
68 1286
68 1304
68 1389
68 1413
68 1430
68 1500
68 1558
68 1648
68 1682
68 1708
68 1721
68 1746
68 1782
68 1850
68 1903
68 1979
68 2048
68 2050
68 2051
68 2101
68 2119
68 2175
68 2197
68 2235
68 2311
68 2354
68 2377
68 2456
68 2460
68 2498
68 2501
68 2520
68 2530
68 2550
68 2589
68 2637
68 2670
68 2676
69 102
69 122
69 146
69 215
69 248
69 330
69 433
69 449
69 509
69 553
69 603
69 698
69 771
69 801
69 826
69 948
69 1085
69 1150
69 1202
69 1285
69 1313
69 1389
69 1404
69 1409
69 1430
69 1460
69 1474
69 1504
69 1577
69 1682
69 1765
69 1822
69 1854
69 1933
69 1934
69 2149
69 2261
69 2262
69 2329
69 2367
69 2402
69 2411
69 2460
69 2497
69 2577
69 2638
69 2670
70 359
70 692
70 941
70 1240
70 1264
70 1544
70 1703
70 2084
70 2157
70 2195
70 2331
70 2405
70 2510
70 2601
71 759
71 1264
71 1382
71 2378
72 147
72 408
72 450
72 561
72 656
72 673
72 692
72 793
72 880
72 883
72 1006
72 1026
72 1093
72 1125
72 1134
72 1234
72 1358
72 1360
72 1414
72 1744
72 1823
72 1884
72 1932
72 2005
72 2087
72 2115
72 2137
72 2150
72 2157
72 2471
72 2516
72 2541
72 2568
72 2578
73 1015
74 173
74 240
74 288
74 289
74 308
74 367
74 465
74 481
74 497
74 505
74 571
74 605
74 622
74 644
74 673
74 724
74 840
74 884
74 904
74 907
74 972
74 987
74 988
74 1009
74 1071
74 1198
74 1234
74 1257
74 1320
74 1335
74 1391
74 1525
74 1590
74 1606
74 1636
74 1674
74 1684
74 1810
74 1825
74 1986
74 2040
74 2133
74 2157
74 2179
74 2270
74 2292
74 2300
74 2355
74 2374
74 2407
74 2445
74 2565
75 123
75 198
75 228
75 360
75 395
75 437
75 444
75 523
75 536
75 596
75 720
75 722
75 772
75 811
75 1028
75 1169
75 1205
75 1233
75 1361
75 1472
75 1559
75 1612
75 1613
75 1634
75 1723
75 1881
75 1887
75 1905
75 1937
75 1954
75 2201
75 2228
75 2334
75 2377
75 2598
75 2599
75 2634
75 2646
75 2660
76 77
76 118
76 238
76 554
76 769
76 880
76 912
76 941
76 965
76 1181
76 1213
76 1268
76 1500
76 1695
76 1698
76 2009
76 2420
77 377
77 420
77 467
77 692
77 880
77 965
77 1093
77 1109
77 1181
77 1213
77 1360
77 1496
77 1726
77 1768
77 1811
77 1934
77 2009
77 2242
77 2348
77 2568
78 248
78 268
78 521
78 628
78 631
78 698
78 955
78 1249
78 1292
78 1820
78 1856
78 1927
78 1953
78 2265
78 2298
78 2628
78 2636
79 105
79 204
79 205
79 206
79 473
79 492
79 567
79 575
79 597
79 632
79 719
79 735
79 760
79 842
79 899
79 943
79 949
79 974
79 1023
79 1031
79 1091
79 1112
79 1120
79 1235
79 1276
79 1343
79 1426
79 1537
79 1549
79 1577
79 1579
79 1588
79 1624
79 1750
79 1876
79 1883
79 1923
79 1933
79 1934
79 2073
79 2078
79 2091
79 2119
79 2152
79 2155
79 2161
79 2251
79 2329
79 2359
79 2399
79 2435
79 2479
79 2490
79 2570
79 2651
80 1454
80 1491
80 1758
80 2615
81 359
81 1070
81 1507
81 1560
81 2621
82 1276
83 159
83 250
83 332
83 353
83 361
83 441
83 451
83 470
83 642
83 766
83 872
83 892
83 898
83 910
83 930
83 991
83 1119
83 1123
83 1145
83 1212
83 1434
83 1579
83 1797
83 1898
83 2046
83 2277
83 2334
83 2474
83 2483
83 2488
83 2606
83 2641
84 177
84 190
84 358
84 369
84 374
84 417
84 420
84 656
84 663
84 673
84 689
84 692
84 693
84 880
84 883
84 902
84 904
84 936
84 941
84 952
84 969
84 1001
84 1010
84 1053
84 1070
84 1093
84 1114
84 1201
84 1203
84 1216
84 1256
84 1312
84 1397
84 1430
84 1494
84 1619
84 1647
84 1702
84 1743
84 1763
84 1772
84 1814
84 1916
84 1979
84 2012
84 2084
84 2111
84 2146
84 2150
84 2219
84 2245
84 2285
84 2297
84 2339
84 2405
84 2428
84 2439
84 2489
84 2568
84 2580
84 2597
85 96
85 103
85 117
85 121
85 142
85 156
85 168
85 194
85 231
85 257
85 267
85 329
85 351
85 358
85 363
85 368
85 412
85 446
85 454
85 496
85 600
85 616
85 631
85 633
85 647
85 655
85 664
85 700
85 706
85 729
85 770
85 792
85 891
85 978
85 1042
85 1043
85 1074
85 1088
85 1091
85 1093
85 1117
85 1128
85 1187
85 1264
85 1299
85 1334
85 1347
85 1363
85 1385
85 1397
85 1400
85 1408
85 1431
85 1444
85 1454
85 1474
85 1484
85 1502
85 1503
85 1536
85 1633
85 1704
85 1724
85 1753
85 1758
85 1760
85 1769
85 1779
85 1819
85 1821
85 1846
85 1917
85 1929
85 1957
85 2010
85 2046
85 2074
85 2093
85 2109
85 2112
85 2126
85 2138
85 2202
85 2228
85 2312
85 2313
85 2346
85 2362
85 2370
85 2451
85 2453
85 2473
85 2539
85 2544
85 2561
85 2615
85 2618
85 2620
85 2660
86 825
86 1296
86 1397
86 1862
86 2137
86 2501
86 2544
86 2659
87 129
87 181
87 204
87 206
87 263
87 274
87 291
87 398
87 473
87 499
87 552
87 564
87 584
87 712
87 735
87 760
87 774
87 809
87 835
87 897
87 929
87 1062
87 1082
87 1188
87 1309
87 1393
87 1475
87 1481
87 1577
87 1600
87 1624
87 1625
87 1717
87 1718
87 1863
87 1933
87 1934
87 1963
87 1970
87 2071
87 2128
87 2243
87 2410
87 2413
87 2424
87 2429
87 2490
87 2500
87 2522
87 2526
87 2544
87 2614
87 2634
87 2649
87 2655
87 2668
88 123
88 184
88 227
88 309
88 331
88 347
88 395
88 437
88 444
88 566
88 576
88 606
88 612
88 682
88 714
88 720
88 779
88 784
88 811
88 819
88 862
88 899
88 927
88 954
88 977
88 1091
88 1169
88 1284
88 1290
88 1332
88 1361
88 1428
88 1446
88 1548
88 1558
88 1559
88 1579
88 1597
88 1641
88 1796
88 1817
88 1825
88 1887
88 1937
88 1940
88 1994
88 1998
88 2025
88 2209
88 2246
88 2265
88 2296
88 2299
88 2309
88 2326
88 2347
88 2486
88 2533
88 2611
88 2638
89 289
89 359
89 378
89 919
89 1093
89 2394
89 2438
89 2506
89 2564
90 186
90 248
90 319
90 406
90 457
90 461
90 507
90 510
90 755
90 799
90 809
90 826
90 949
90 1023
90 1097
90 1119
90 1150
90 1199
90 1223
90 1233
90 1266
90 1275
90 1352
90 1365
90 1406
90 1456
90 1494
90 1500
90 1519
90 1532
90 1635
90 1708
90 1709
90 1733
90 1773
90 1904
90 1954
90 1963
90 1984
90 2036
90 2091
90 2189
90 2215
90 2267
90 2294
90 2380
90 2385
90 2456
90 2503
90 2636
91 92
91 449
91 539
91 653
91 699
91 761
91 1146
91 1236
91 1421
91 1656
91 1806
91 2007
91 2117
91 2131
91 2315
91 2632
92 104
92 143
92 170
92 264
92 451
92 695
92 699
92 718
92 761
92 848
92 868
92 954
92 1030
92 1195
92 1207
92 1292
92 1464
92 1532
92 1617
92 1637
92 1798
92 1822
92 1872
92 1908
92 1965
92 1980
92 2162
92 2164
92 2261
92 2308
92 2315
92 2376
92 2386
92 2469
92 2480
92 2613
93 361
93 1101
93 1264
93 1327
93 1365
93 1521
93 2039
93 2588
94 319
94 455
94 677
94 1028
94 1272
94 1286
94 1639
94 1721
94 1737
94 2029
94 2208
95 177
95 255
95 258
95 430
95 542
95 610
95 673
95 840
95 854
95 860
95 880
95 893
95 936
95 988
95 1018
95 1027
95 1274
95 1516
95 1538
95 1810
95 1866
95 1874
95 1934
95 1992
95 2084
95 2136
95 2139
95 2150
95 2293
95 2318
95 2419
96 142
96 168
96 194
96 282
96 351
96 363
96 368
96 469
96 600
96 631
96 633
96 635
96 647
96 655
96 664
96 700
96 706
96 715
96 770
96 792
96 939
96 949
96 1043
96 1119
96 1299
96 1347
96 1363
96 1425
96 1427
96 1444
96 1484
96 1502
96 1503
96 1536
96 1553
96 1574
96 1618
96 1633
96 1724
96 1760
96 1769
96 1788
96 1798
96 1819
96 1858
96 1913
96 1923
96 1937
96 1979
96 2046
96 2074
96 2078
96 2112
96 2142
96 2179
96 2208
96 2234
96 2312
96 2346
96 2362
96 2480
96 2501
96 2539
96 2544
96 2618
96 2659
96 2673
97 104
97 143
97 268
97 321
97 324
97 362
97 425
97 482
97 592
97 608
97 655
97 749
97 848
97 858
97 889
97 896
97 943
97 984
97 1046
97 1085
97 1094
97 1100
97 1141
97 1146
97 1184
97 1227
97 1230
97 1242
97 1397
97 1409
97 1430
97 1449
97 1464
97 1691
97 1719
97 1739
97 1761
97 1774
97 1888
97 1895
97 1920
97 1969
97 1979
97 2001
97 2014
97 2062
97 2104
97 2188
97 2208
97 2225
97 2294
97 2321
97 2376
97 2476
97 2583
97 2593
97 2608
97 2622
98 335
98 1351
98 1745
98 1806
98 1998
98 2640
99 110
99 197
99 306
99 404
99 406
99 413
99 482
99 498
99 688
99 749
99 755
99 783
99 826
99 846
99 855
99 903
99 975
99 997
99 1002
99 1121
99 1174
99 1224
99 1229
99 1239
99 1254
99 1264
99 1397
99 1403
99 1412
99 1468
99 1540
99 1541
99 1639
99 1713
99 1761
99 1769
99 1784
99 1797
99 1875
99 1947
99 1979
99 2007
99 2048
99 2060
99 2104
99 2112
99 2137
99 2330
99 2370
99 2387
99 2410
99 2458
99 2523
99 2547
99 2593
99 2608
99 2616
99 2629
99 2661
99 2671
100 289
100 1264
100 1646
100 1878
100 2600
101 177
101 269
101 377
101 483
101 661
101 893
101 1132
101 1646
101 1810
101 1811
101 1981
101 2015
101 2255
101 2510
101 2652
102 121
102 236
102 651
103 121
103 380
103 409
103 430
103 473
103 498
103 511
103 522
103 651
103 749
103 768
103 876
103 895
103 1080
103 1136
103 1167
103 1264
103 1269
103 1339
103 1377
103 1502
103 1503
103 1536
103 1630
103 1650
103 1659
103 1779
103 1843
103 1852
103 1931
103 1971
103 2011
103 2073
103 2137
103 2169
103 2240
103 2289
103 2387
103 2451
103 2464
103 2587
103 2618
104 121
104 340
104 351
104 402
104 425
104 449
104 457
104 472
104 482
104 510
104 538
104 577
104 582
104 592
104 628
104 653
104 695
104 715
104 718
104 746
104 751
104 761
104 868
104 889
104 943
104 997
104 1085
104 1141
104 1207
104 1246
104 1275
104 1288
104 1299
104 1332
104 1363
104 1378
104 1406
104 1409
104 1412
104 1502
104 1532
104 1553
104 1708
104 1736
104 1738
104 1845
104 1852
104 1894
104 1939
104 1945
104 1965
104 1979
104 2016
104 2027
104 2048
104 2051
104 2062
104 2098
104 2100
104 2131
104 2162
104 2261
104 2363
104 2385
104 2387
104 2410
104 2411
104 2456
104 2501
104 2586
104 2623
104 2632
104 2636
104 2659
105 176
105 204
105 206
105 254
105 347
105 380
105 469
105 575
105 597
105 719
105 779
105 842
105 899
105 943
105 974
105 1091
105 1097
105 1112
105 1120
105 1150
105 1247
105 1265
105 1280
105 1332
105 1389
105 1426
105 1539
105 1579
105 1624
105 1727
105 1762
105 1796
105 1829
105 2050
105 2101
105 2161
105 2286
105 2299
105 2359
105 2435
105 2570
105 2671
106 231
106 243
106 302
106 314
106 435
106 615
106 661
106 693
106 716
106 908
106 1009
106 1093
106 1256
106 1400
106 1651
106 1759
106 1906
106 1934
106 2005
106 2047
106 2249
106 2252
106 2304
106 2490
106 2565
107 196
107 385
107 416
107 437
107 543
107 938
107 996
107 1105
107 1186
107 1231
107 1612
107 1630
107 1697
107 2004
107 2228
107 2528
107 2603
108 233
108 289
108 426
108 440
108 571
108 838
108 1040
108 1329
108 1749
108 1772
108 2317
108 2400
108 2564
109 128
109 157
109 171
109 223
109 260
109 565
109 573
109 808
109 890
109 1049
109 1186
109 1243
109 1260
109 1264
109 1297
109 1334
109 1410
109 1447
109 1672
109 1712
109 1784
109 1858
109 2358
109 2422
109 2493
110 120
110 168
110 482
110 572
110 644
110 688
110 755
110 781
110 877
110 1039
110 1229
110 1239
110 1282
110 1336
110 1390
110 1403
110 1437
110 1541
110 1574
110 1631
110 1698
110 1713
110 1722
110 1788
110 1852
110 1931
110 1947
110 1979
110 2109
110 2175
110 2182
110 2202
110 2310
110 2334
110 2444
110 2523
110 2616
110 2629
111 121
111 133
111 142
111 187
111 263
111 347
111 391
111 409
111 479
111 485
111 569
111 603
111 612
111 780
111 782
111 820
111 875
111 879
111 1064
111 1091
111 1119
111 1211
111 1218
111 1254
111 1265
111 1363
111 1466
111 1474
111 1536
111 1600
111 1633
111 1764
111 1806
111 1852
111 1931
111 1933
111 1934
111 1965
111 2061
111 2067
111 2074
111 2180
111 2312
111 2362
111 2371
111 2469
111 2544
111 2547
111 2616
111 2659
112 179
112 745
112 826
112 876
112 882
112 899
112 984
112 1089
112 1182
112 1197
112 1308
112 1409
112 1495
112 1719
112 1745
112 1782
112 1850
112 1923
112 2142
112 2181
112 2188
112 2197
112 2209
112 2282
112 2294
112 2377
112 2389
112 2671
113 376
113 862
113 1940
113 2480
114 308
114 969
114 1364
114 2339
114 2395
114 2453
114 2487
115 121
115 204
115 332
115 357
115 382
115 409
115 412
115 419
115 421
115 500
115 508
115 549
115 550
115 612
115 616
115 634
115 685
115 726
115 766
115 895
115 896
115 960
115 998
115 1008
115 1021
115 1025
115 1029
115 1065
115 1089
115 1145
115 1185
115 1264
115 1284
115 1375
115 1377
115 1403
115 1412
115 1524
115 1696
115 1760
115 1795
115 1858
115 1881
115 1929
115 1959
115 2007
115 2031
115 2118
115 2144
115 2179
115 2184
115 2186
115 2196
115 2222
115 2234
115 2309
115 2321
115 2362
115 2370
115 2452
115 2467
115 2474
115 2486
115 2512
115 2514
115 2583
115 2584
115 2615
116 141
116 1134
116 1522
116 1755
116 1769
116 1802
116 1968
116 2019
116 2020
116 2323
116 2364
117 257
117 298
117 446
117 454
117 485
117 496
117 639
117 704
117 877
117 885
117 978
117 1088
117 1117
117 1177
117 1229
117 1275
117 1334
117 1344
117 1385
117 1408
117 1431
117 1454
117 1616
117 1685
117 1704
117 1753
117 1758
117 1821
117 1896
117 1929
117 1957
117 2041
117 2081
117 2109
117 2138
117 2202
117 2313
117 2333
117 2606
117 2615
117 2629
118 147
118 238
118 401
118 460
118 497
118 571
118 595
118 716
118 854
118 907
118 988
118 1009
118 1268
118 1414
118 1606
118 1621
118 1667
118 1841
118 1986
118 1995
118 2009
118 2015
118 2040
118 2043
118 2065
118 2285
118 2331
118 2666
119 309
119 490
119 559
119 729
119 782
119 949
119 1008
119 1041
119 1601
119 1727
119 1788
119 1816
119 1891
119 2676
120 121
120 140
120 162
120 225
120 228
120 240
120 344
120 412
120 471
120 511
120 520
120 580
120 604
120 606
120 614
120 624
120 666
120 670
120 691
120 713
120 737
120 738
120 772
120 822
120 892
120 901
120 913
120 930
120 961
120 972
120 1072
120 1080
120 1138
120 1144
120 1166
120 1169
120 1206
120 1230
120 1232
120 1260
120 1264
120 1299
120 1307
120 1392
120 1395
120 1454
120 1464
120 1541
120 1570
120 1572
120 1591
120 1608
120 1616
120 1617
120 1664
120 1683
120 1733
120 1734
120 1750
120 1871
120 1883
120 1885
120 1890
120 1897
120 1916
120 1931
120 1941
120 1979
120 1999
120 2004
120 2053
120 2172
120 2175
120 2182
120 2202
120 2296
120 2326
120 2347
120 2370
120 2390
120 2395
120 2483
120 2528
120 2551
120 2570
120 2606
120 2615
120 2628
120 2633
120 2655
120 2662
120 2669
120 2673
121 140
121 146
121 159
121 168
121 169
121 196
121 197
121 198
121 200
121 209
121 218
121 242
121 254
121 272
121 293
121 295
121 298
121 303
121 333
121 371
121 398
121 406
121 411
121 434
121 494
121 498
121 504
121 572
121 580
121 582
121 590
121 600
121 608
121 619
121 633
121 644
121 647
121 654
121 670
121 672
121 673
121 688
121 726
121 728
121 746
121 755
121 778
121 783
121 786
121 809
121 819
121 822
121 839
121 842
121 846
121 879
121 896
121 897
121 925
121 949
121 953
121 956
121 991
121 996
121 997
121 1043
121 1060
121 1065
121 1074
121 1082
121 1093
121 1126
121 1138
121 1144
121 1154
121 1195
121 1201
121 1206
121 1207
121 1211
121 1224
121 1226
121 1228
121 1235
121 1261
121 1264
121 1266
121 1270
121 1272
121 1275
121 1276
121 1286
121 1295
121 1299
121 1304
121 1316
121 1328
121 1379
121 1401
121 1403
121 1412
121 1477
121 1495
121 1510
121 1536
121 1558
121 1587
121 1591
121 1600
121 1617
121 1638
121 1657
121 1659
121 1675
121 1680
121 1685
121 1692
121 1696
121 1713
121 1736
121 1744
121 1758
121 1760
121 1761
121 1762
121 1794
121 1795
121 1797
121 1829
121 1852
121 1858
121 1890
121 1897
121 1912
121 1915
121 1918
121 1931
121 1951
121 1958
121 1963
121 1965
121 1969
121 1979
121 1984
121 1999
121 2016
121 2024
121 2045
121 2048
121 2062
121 2068
121 2070
121 2100
121 2101
121 2104
121 2147
121 2177
121 2188
121 2201
121 2220
121 2231
121 2233
121 2251
121 2266
121 2274
121 2291
121 2312
121 2313
121 2370
121 2387
121 2390
121 2399
121 2409
121 2423
121 2435
121 2444
121 2452
121 2458
121 2469
121 2483
121 2501
121 2514
121 2539
121 2544
121 2551
121 2583
121 2593
121 2615
121 2616
121 2618
121 2629
121 2670
121 2673
121 2677
122 168
122 177
122 186
122 202
122 248
122 310
122 330
122 358
122 368
122 375
122 457
122 461
122 484
122 577
122 580
122 631
122 647
122 715
122 801
122 803
122 820
122 826
122 864
122 882
122 910
122 936
122 1059
122 1150
122 1207
122 1244
122 1249
122 1304
122 1378
122 1393
122 1397
122 1413
122 1430
122 1455
122 1498
122 1499
122 1504
122 1505
122 1524
122 1539
122 1542
122 1567
122 1761
122 1764
122 1830
122 1863
122 1876
122 1979
122 2010
122 2099
122 2146
122 2179
122 2184
122 2199
122 2212
122 2234
122 2262
122 2274
122 2361
122 2380
122 2389
122 2399
122 2449
122 2532
122 2572
122 2598
122 2659
123 206
123 319
123 395
123 720
123 1446
123 1559
123 1579
123 1675
123 1683
123 1733
123 1796
123 2246
123 2286
123 2395
123 2411
123 2425
123 2599
123 2651
123 2671
124 144
124 162
124 240
124 249
124 250
124 325
124 353
124 372
124 412
124 428
124 452
124 493
124 499
124 525
124 681
124 755
124 800
124 822
124 856
124 872
124 891
124 892
124 961
124 1048
124 1055
124 1058
124 1060
124 1105
124 1156
124 1181
124 1232
124 1259
124 1301
124 1336
124 1347
124 1355
124 1392
124 1475
124 1477
124 1556
124 1582
124 1591
124 1641
124 1832
124 1838
124 1907
124 1917
124 1928
124 2025
124 2064
124 2145
124 2221
124 2283
124 2313
124 2386
124 2423
124 2451
124 2474
124 2491
124 2528
124 2546
124 2578
124 2606
124 2607
124 2609
125 172
125 201
125 238
125 299
125 303
125 314
125 369
125 377
125 401
125 435
125 622
125 645
125 661
125 663
125 793
125 874
125 906
125 907
125 965
125 1168
125 1201
125 1329
125 1357
125 1360
125 1414
125 1544
125 1703
125 1722
125 1744
125 1768
125 1810
125 1874
125 1956
125 2003
125 2005
125 2015
125 2017
125 2085
125 2136
125 2218
125 2255
125 2270
125 2285
125 2328
125 2405
125 2568
125 2580
125 2666
126 146
126 321
126 336
126 477
126 503
126 620
126 665
126 804
126 805
126 848
126 956
126 1016
126 1034
126 1100
126 1237
126 1416
126 1430
126 1575
126 1696
126 1721
126 1760
126 1847
126 1899
126 1903
126 2016
126 2302
126 2309
126 2365
126 2536
126 2677
127 140
127 259
127 271
127 274
127 291
127 299
127 316
127 433
127 670
127 760
127 771
127 911
127 948
127 1062
127 1133
127 1182
127 1264
127 1327
127 1442
127 1512
127 1541
127 1547
127 1555
127 1574
127 1662
127 1682
127 1717
127 1885
127 1926
127 2053
127 2243
127 2329
127 2378
127 2382
127 2427
127 2483
127 2582
127 2651
128 133
128 157
128 164
128 171
128 172
128 250
128 493
128 545
128 565
128 620
128 746
128 812
128 818
128 891
128 1013
128 1049
128 1055
128 1060
128 1181
128 1220
128 1252
128 1272
128 1316
128 1355
128 1379
128 1410
128 1440
128 1479
128 1600
128 1630
128 1638
128 1710
128 1789
128 1824
128 1858
128 1931
128 2007
128 2095
128 2183
128 2221
128 2231
128 2255
128 2289
128 2345
128 2422
128 2464
128 2523
128 2524
128 2626
128 2629
129 134
129 144
129 145
129 210
129 220
129 336
129 347
129 357
129 403
129 477
129 620
129 633
129 666
129 744
129 770
129 778
129 855
129 888
129 894
129 1013
129 1093
129 1115
129 1127
129 1129
129 1142
129 1151
129 1206
129 1226
129 1237
129 1263
129 1264
129 1272
129 1295
129 1316
129 1374
129 1379
129 1416
129 1484
129 1494
129 1533
129 1558
129 1575
129 1708
129 1748
129 1762
129 1766
129 1773
129 1789
129 1795
129 1798
129 1809
129 1895
129 1899
129 1903
129 1979
129 2016
129 2035
129 2036
129 2076
129 2091
129 2189
129 2212
129 2280
129 2294
129 2305
129 2309
129 2437
129 2457
129 2464
129 2467
129 2529
129 2539
130 197
130 384
130 975
130 1224
130 1784
131 1084
131 1120
131 1470
131 1909
131 2128
131 2571
132 193
132 237
132 260
132 308
132 314
132 384
132 625
132 660
132 678
132 716
132 857
132 941
132 946
132 987
132 1096
132 1203
132 1256
132 1325
132 1628
132 1667
132 1669
132 1681
132 1877
132 1986
132 2003
132 2015
132 2129
132 2136
132 2666
133 140
133 149
133 154
133 169
133 177
133 193
133 209
133 263
133 274
133 385
133 387
133 398
133 430
133 486
133 493
133 498
133 506
133 528
133 545
133 552
133 617
133 620
133 672
133 675
133 711
133 735
133 746
133 755
133 786
133 793
133 800
133 827
133 835
133 864
133 865
133 871
133 882
133 901
133 922
133 925
133 936
133 953
133 964
133 972
133 994
133 1012
133 1015
133 1031
133 1039
133 1049
133 1055
133 1060
133 1081
133 1082
133 1088
133 1091
133 1102
133 1103
133 1128
133 1135
133 1152
133 1159
133 1177
133 1181
133 1188
133 1191
133 1258
133 1260
133 1262
133 1263
133 1272
133 1278
133 1279
133 1282
133 1298
133 1307
133 1343
133 1350
133 1356
133 1387
133 1393
133 1408
133 1435
133 1455
133 1475
133 1479
133 1518
133 1524
133 1541
133 1587
133 1594
133 1597
133 1600
133 1603
133 1622
133 1625
133 1641
133 1659
133 1662
133 1664
133 1717
133 1723
133 1736
133 1817
133 1823
133 1824
133 1832
133 1838
133 1863
133 1881
133 1910
133 1919
133 1926
133 1931
133 2011
133 2018
133 2042
133 2074
133 2112
133 2128
133 2163
133 2179
133 2180
133 2183
133 2205
133 2221
133 2282
133 2297
133 2327
133 2328
133 2342
133 2370
133 2410
133 2413
133 2421
133 2474
133 2489
133 2512
133 2593
133 2626
133 2629
133 2655
133 2668
133 2673
134 179
134 220
134 225
134 278
134 309
134 322
134 336
134 347
134 382
134 393
134 421
134 477
134 486
134 531
134 549
134 606
134 620
134 666
134 683
134 697
134 778
134 805
134 852
134 855
134 885
134 894
134 895
134 956
134 993
134 1042
134 1043
134 1080
134 1093
134 1127
134 1135
134 1237
134 1244
134 1263
134 1275
134 1285
134 1296
134 1321
134 1384
134 1412
134 1416
134 1419
134 1426
134 1430
134 1439
134 1456
134 1559
134 1574
134 1618
134 1630
134 1659
134 1675
134 1719
134 1736
134 1737
134 1790
134 1796
134 1797
134 1809
134 1899
134 1971
134 2016
134 2023
134 2025
134 2060
134 2112
134 2137
134 2145
134 2179
134 2205
134 2225
134 2228
134 2240
134 2258
134 2290
134 2299
134 2307
134 2309
134 2330
134 2369
134 2398
134 2457
134 2471
134 2578
134 2587
134 2593
134 2598
134 2606
134 2612
134 2615
134 2671
134 2677
135 154
135 211
135 216
135 263
135 274
135 291
135 299
135 300
135 506
135 537
135 582
135 617
135 620
135 669
135 672
135 706
135 711
135 760
135 771
135 786
135 818
135 827
135 901
135 925
135 951
135 972
135 991
135 1013
135 1015
135 1039
135 1049
135 1055
135 1060
135 1119
135 1181
135 1192
135 1258
135 1278
135 1299
135 1313
135 1350
135 1389
135 1479
135 1512
135 1518
135 1519
135 1533
135 1541
135 1597
135 1600
135 1603
135 1622
135 1635
135 1687
135 1717
135 1770
135 1786
135 1824
135 1831
135 1931
135 2018
135 2053
135 2180
135 2182
135 2221
135 2231
135 2259
135 2329
135 2382
135 2437
135 2486
135 2496
135 2501
135 2539
135 2548
135 2586
135 2593
135 2612
135 2635
135 2673
136 186
136 278
136 406
136 472
136 492
136 934
136 970
136 986
136 1023
136 1074
136 1097
136 1126
136 1142
136 1154
136 1223
136 1229
136 1247
136 1281
136 1363
136 1406
136 1532
136 1548
136 1559
136 1562
136 1579
136 1671
136 1685
136 1723
136 1733
136 1796
136 1870
136 1871
136 1876
136 1902
136 1916
136 1938
136 1954
136 1978
136 2068
136 2233
136 2235
136 2246
136 2316
136 2387
136 2456
136 2578
136 2634
136 2671
137 358
137 862
137 1412
137 1940
138 168
138 612
138 1119
138 1233
138 1472
138 1635
138 1937
138 2599
139 140
139 306
139 313
139 434
139 485
139 486
139 570
139 598
139 704
139 749
139 766
139 769
139 844
139 877
139 885
139 901
139 1262
139 1282
139 1334
139 1390
139 1500
139 1555
139 1670
139 1696
139 1698
139 1760
139 1810
139 1838
139 1870
139 1874
139 1919
139 1931
139 1934
139 1993
139 2011
139 2163
139 2213
139 2324
139 2327
139 2421
139 2427
139 2443
139 2473
139 2482
139 2585
139 2635
140 158
140 397
140 412
140 471
140 486
140 511
140 520
140 528
140 572
140 614
140 651
140 669
140 670
140 684
140 713
140 725
140 749
140 813
140 844
140 852
140 925
140 998
140 1031
140 1080
140 1144
140 1154
140 1175
140 1204
140 1253
140 1262
140 1264
140 1307
140 1390
140 1507
140 1555
140 1572
140 1599
140 1696
140 1817
140 1881
140 1918
140 1931
140 2004
140 2024
140 2041
140 2062
140 2092
140 2202
140 2310
140 2386
140 2427
140 2443
140 2483
140 2536
140 2539
140 2544
140 2585
140 2629
140 2654
140 2655
141 576
141 1457
141 1522
141 1755
141 1802
141 1968
141 2020
141 2323
141 2364
142 168
142 194
142 248
142 310
142 330
142 351
142 358
142 363
142 368
142 370
142 469
142 535
142 549
142 600
142 616
142 631
142 633
142 647
142 664
142 700
142 706
142 730
142 757
142 770
142 780
142 792
142 862
142 879
142 887
142 917
142 960
142 1011
142 1043
142 1074
142 1119
142 1120
142 1126
142 1164
142 1239
142 1255
142 1296
142 1299
142 1301
142 1337
142 1347
142 1353
142 1363
142 1397
142 1404
142 1444
142 1474
142 1484
142 1502
142 1503
142 1536
142 1537
142 1577
142 1607
142 1633
142 1709
142 1724
142 1752
142 1760
142 1769
142 1799
142 1819
142 1858
142 1862
142 1868
142 1904
142 1933
142 1934
142 1937
142 2010
142 2046
142 2073
142 2074
142 2099
142 2112
142 2149
142 2179
142 2261
142 2282
142 2312
142 2321
142 2346
142 2362
142 2481
142 2490
142 2539
142 2544
142 2618
143 253
143 264
143 358
143 425
143 516
143 582
143 746
143 749
143 801
143 806
143 870
143 889
143 932
143 1031
143 1075
143 1106
143 1229
143 1249
143 1263
143 1271
143 1275
143 1279
143 1286
143 1460
143 1504
143 1505
143 1598
143 1664
143 1718
143 2001
143 2039
143 2082
143 2092
143 2274
143 2311
143 2346
143 2361
143 2385
143 2406
143 2456
143 2494
143 2497
143 2505
143 2547
143 2588
143 2670
143 2671
144 222
144 274
144 278
144 325
144 350
144 406
144 410
144 428
144 499
144 550
144 654
144 666
144 707
144 800
144 824
144 876
144 888
144 986
144 1003
144 1044
144 1105
144 1138
144 1156
144 1166
144 1185
144 1266
144 1347
144 1434
144 1442
144 1503
144 1510
144 1533
144 1539
144 1565
144 1708
144 1809
144 1916
144 1943
144 2007
144 2025
144 2068
144 2151
144 2188
144 2189
144 2258
144 2316
144 2366
144 2380
144 2456
144 2464
144 2583
144 2584
144 2595
144 2623
144 2646
145 220
145 321
145 334
145 410
145 457
145 477
145 498
145 843
145 877
145 888
145 901
145 1416
145 1657
145 2188
145 2205
145 2243
145 2361
145 2651
145 2659
146 321
146 347
146 362
146 371
146 406
146 503
146 515
146 524
146 910
146 1021
146 1100
146 1138
146 1275
146 1365
146 1409
146 1416
146 1495
146 1617
146 1699
146 1798
146 1847
146 1980
146 2007
146 2225
146 2228
146 2232
146 2258
146 2354
146 2469
146 2514
146 2608
146 2634
147 237
147 289
147 312
147 502
147 854
147 857
147 874
147 988
147 1009
147 1026
147 1032
147 1056
147 1125
147 1138
147 1515
147 1606
147 1674
147 1877
147 1884
147 2015
147 2132
147 2157
147 2238
147 2285
147 2328
147 2349
147 2350
147 2396
147 2568
147 2580
148 964
148 1677
148 1870
148 1934
149 177
149 209
149 265
149 277
149 313
149 354
149 356
149 387
149 545
149 552
149 614
149 651
149 681
149 703
149 704
149 758
149 765
149 769
149 844
149 877
149 886
149 958
149 990
149 1001
149 1082
149 1088
149 1103
149 1144
149 1177
149 1181
149 1291
149 1342
149 1344
149 1389
149 1422
149 1430
149 1461
149 1582
149 1670
149 1686
149 1698
149 1726
149 1817
149 1824
149 1831
149 1919
149 1946
149 1962
149 1979
149 2081
149 2093
149 2262
149 2327
149 2370
149 2382
149 2421
149 2489
149 2582
149 2585
149 2592
149 2608
149 2624
149 2659
150 225
150 2035
150 2144
151 204
151 206
151 226
151 300
151 352
151 461
151 484
151 562
151 581
151 589
151 661
151 933
151 1001
151 1091
151 1120
151 1126
151 1174
151 1180
151 1351
151 1357
151 1371
151 1389
151 1393
151 1430
151 1432
151 1442
151 1498
151 1532
151 1558
151 1588
151 1682
151 1719
151 1788
151 1870
151 1876
151 1891
151 1958
151 1963
151 1998
151 2015
151 2036
151 2155
151 2188
151 2267
151 2294
151 2299
151 2327
151 2350
151 2509
151 2513
151 2591
151 2636
152 240
152 250
152 421
152 445
152 540
152 603
152 651
152 795
152 824
152 889
152 961
152 998
152 1031
152 1043
152 1061
152 1187
152 1191
152 1206
152 1263
152 1269
152 1310
152 1328
152 1394
152 1451
152 1454
152 1541
152 1547
152 1575
152 1599
152 1783
152 1795
152 1837
152 2045
152 2083
152 2092
152 2124
152 2147
152 2201
152 2210
152 2233
152 2241
152 2311
152 2370
152 2397
152 2505
152 2547
152 2561
152 2593
152 2617
152 2671
153 322
153 492
153 601
153 655
153 931
153 949
153 1100
153 1190
153 1195
153 1519
153 1639
153 1727
153 1739
153 1766
153 1798
153 2035
153 2163
153 2175
153 2214
153 2305
153 2398
154 296
154 385
154 452
154 486
154 494
154 514
154 537
154 570
154 574
154 624
154 672
154 706
154 770
154 844
154 885
154 922
154 949
154 994
154 998
154 1031
154 1055
154 1058
154 1061
154 1108
154 1119
154 1139
154 1226
154 1235
154 1252
154 1254
154 1258
154 1339
154 1344
154 1354
154 1355
154 1393
154 1426
154 1455
154 1524
154 1531
154 1555
154 1587
154 1773
154 1832
154 1860
154 1964
154 2037
154 2044
154 2092
154 2128
154 2163
154 2172
154 2183
154 2251
154 2290
154 2343
154 2353
154 2399
154 2426
154 2544
154 2547
154 2553
154 2626
154 2629
154 2643
155 253
155 553
155 559
155 1046
155 1130
155 1249
155 1460
155 1505
155 1706
155 1854
155 2007
155 2082
155 2100
155 2274
155 2281
155 2298
155 2494
155 2497
155 2572
155 2586
155 2608
156 197
156 346
156 412
156 470
156 496
156 509
156 527
156 655
156 746
156 768
156 855
156 871
156 891
156 978
156 1093
156 1105
156 1117
156 1136
156 1144
156 1177
156 1181
156 1334
156 1344
156 1410
156 1454
156 1638
156 1678
156 1753
156 1758
156 1779
156 1784
156 1825
156 1843
156 1931
156 2093
156 2100
156 2109
156 2175
156 2202
156 2206
156 2221
156 2268
156 2335
156 2370
156 2451
156 2453
156 2473
156 2561
156 2585
156 2609
156 2615
157 171
157 216
157 356
157 498
157 758
157 1013
157 1037
157 1055
157 1355
157 1410
157 1630
157 1824
157 2007
157 2183
157 2422
157 2523
157 2643
158 1533
158 1851
159 200
159 225
159 284
159 298
159 357
159 372
159 470
159 573
159 585
159 642
159 813
159 823
159 910
159 930
159 931
159 939
159 985
159 1005
159 1021
159 1065
159 1212
159 1244
159 1261
159 1284
159 1314
159 1406
159 1466
159 1467
159 1473
159 1548
159 1696
159 1760
159 1766
159 1816
159 2021
159 2035
159 2141
159 2188
159 2239
159 2246
159 2302
159 2305
159 2306
159 2324
159 2337
159 2452
159 2467
159 2482
159 2483
159 2569
159 2616
159 2639
159 2645
160 236
160 249
160 359
160 421
160 477
160 614
160 651
160 713
160 778
160 888
160 956
160 1231
160 1263
160 1264
160 1344
160 1533
160 1559
160 1575
160 1692
160 1796
160 1809
160 1817
160 1899
160 2007
160 2016
160 2147
160 2231
160 2233
160 2294
160 2370
160 2386
160 2505
160 2671
161 181
161 274
161 291
161 333
161 385
161 430
161 473
161 537
161 582
161 757
161 771
161 774
161 923
161 939
161 969
161 1007
161 1062
161 1099
161 1140
161 1159
161 1182
161 1372
161 1424
161 1475
161 1479
161 1481
161 1545
161 1577
161 1587
161 1662
161 1698
161 1824
161 1833
161 1934
161 2024
161 2038
161 2053
161 2074
161 2087
161 2172
161 2243
161 2424
161 2500
161 2512
161 2541
161 2614
161 2638
161 2668
162 171
162 332
162 412
162 428
162 444
162 452
162 525
162 536
162 566
162 587
162 654
162 691
162 759
162 792
162 813
162 822
162 846
162 872
162 913
162 920
162 961
162 996
162 1049
162 1058
162 1187
162 1232
162 1263
162 1264
162 1282
162 1328
162 1336
162 1354
162 1382
162 1392
162 1503
162 1541
162 1591
162 1697
162 1724
162 1730
162 1734
162 1808
162 1825
162 1838
162 1840
162 1846
162 1907
162 1950
162 1954
162 1963
162 1979
162 1984
162 2004
162 2037
162 2039
162 2053
162 2076
162 2097
162 2128
162 2177
162 2182
162 2227
162 2313
162 2378
162 2416
162 2427
162 2443
162 2532
162 2570
162 2609
162 2629
162 2633
163 238
163 440
163 692
163 750
163 793
163 838
163 1026
163 1109
163 1203
163 1329
163 1492
163 1512
163 1647
163 1674
163 2003
163 2081
163 2370
163 2404
163 2440
164 196
164 250
164 257
164 282
164 332
164 372
164 393
164 395
164 428
164 452
164 477
164 525
164 529
164 536
164 620
164 624
164 639
164 671
164 691
164 725
164 727
164 778
164 781
164 813
164 822
164 872
164 881
164 920
164 922
164 930
164 989
164 1013
164 1015
164 1039
164 1066
164 1073
164 1086
164 1135
164 1191
164 1232
164 1235
164 1251
164 1282
164 1309
164 1477
164 1478
164 1533
164 1612
164 1620
164 1623
164 1697
164 1809
164 1912
164 1916
164 1917
164 2183
164 2191
164 2202
164 2206
164 2210
164 2228
164 2310
164 2324
164 2334
164 2347
164 2629
164 2665
165 174
165 197
165 470
165 619
165 765
165 930
165 956
165 990
165 1037
165 1052
165 1093
165 1108
165 1144
165 1186
165 1226
165 1409
165 1468
165 1487
165 1582
165 1769
165 1783
165 1943
165 2324
165 2464
165 2608
165 2615
166 197
166 333
166 385
166 758
166 1030
166 1091
166 1174
166 1466
166 1578
166 1664
166 1852
166 1980
166 2202
166 2608
167 191
167 254
167 263
167 267
167 274
167 326
167 753
167 799
167 814
167 1007
167 1062
167 1099
167 1285
167 1424
167 1481
167 1545
167 1574
167 1662
167 1714
167 1833
167 1934
167 2424
167 2522
167 2584
167 2614
167 2638
167 2668
168 194
168 226
168 227
168 275
168 282
168 300
168 307
168 321
168 332
168 333
168 351
168 358
168 363
168 368
168 375
168 482
168 532
168 566
168 600
168 616
168 618
168 631
168 633
168 647
168 653
168 655
168 664
168 700
168 706
168 755
168 770
168 792
168 803
168 846
168 862
168 887
168 1028
168 1042
168 1043
168 1074
168 1091
168 1101
168 1110
168 1119
168 1139
168 1189
168 1206
168 1284
168 1296
168 1299
168 1307
168 1347
168 1350
168 1361
168 1363
168 1397
168 1401
168 1416
168 1444
168 1474
168 1484
168 1502
168 1503
168 1524
168 1534
168 1536
168 1542
168 1547
168 1548
168 1555
168 1567
168 1633
168 1634
168 1635
168 1660
168 1724
168 1730
168 1736
168 1737
168 1760
168 1761
168 1762
168 1764
168 1769
168 1796
168 1799
168 1819
168 1852
168 1858
168 1885
168 1897
168 1908
168 1937
168 1939
168 2010
168 2025
168 2046
168 2074
168 2112
168 2140
168 2199
168 2246
168 2307
168 2309
168 2312
168 2346
168 2362
168 2389
168 2399
168 2425
168 2430
168 2501
168 2539
168 2544
168 2574
168 2599
168 2616
168 2618
168 2636
168 2659
168 2660
168 2661
169 192
169 197
169 209
169 211
169 239
169 246
169 265
169 285
169 309
169 326
169 332
169 342
169 372
169 387
169 393
169 398
169 470
169 471
169 473
169 477
169 486
169 498
169 499
169 519
169 527
169 528
169 542
169 552
169 558
169 564
169 567
169 570
169 578
169 598
169 600
169 620
169 622
169 727
169 770
169 778
169 795
169 827
169 835
169 844
169 847
169 855
169 865
169 901
169 923
169 925
169 951
169 953
169 972
169 978
169 1012
169 1015
169 1029
169 1031
169 1061
169 1062
169 1070
169 1073
169 1082
169 1102
169 1108
169 1128
169 1135
169 1139
169 1175
169 1177
169 1191
169 1192
169 1199
169 1204
169 1235
169 1239
169 1254
169 1258
169 1262
169 1278
169 1282
169 1343
169 1344
169 1350
169 1356
169 1374
169 1384
169 1387
169 1411
169 1422
169 1477
169 1518
169 1530
169 1533
169 1537
169 1541
169 1575
169 1588
169 1594
169 1599
169 1686
169 1713
169 1780
169 1809
169 1815
169 1838
169 1910
169 1927
169 1957
169 2026
169 2042
169 2053
169 2074
169 2093
169 2112
169 2119
169 2182
169 2192
169 2201
169 2210
169 2271
169 2294
169 2327
169 2353
169 2358
169 2421
169 2422
169 2426
169 2432
169 2474
169 2486
169 2489
169 2491
169 2544
169 2554
169 2556
169 2585
169 2626
169 2635
169 2655
169 2668
170 264
170 266
170 508
170 580
170 602
170 739
170 799
170 910
170 954
170 1003
170 1207
170 1284
170 1464
170 1546
170 1617
170 1767
170 1819
170 1822
170 1830
170 1857
170 1920
170 1980
170 2006
170 2027
170 2075
170 2162
170 2332
170 2469
170 2480
170 2483
171 236
171 240
171 311
171 332
171 356
171 412
171 635
171 644
171 891
171 920
171 972
171 1037
171 1108
171 1186
171 1309
171 1334
171 1350
171 1410
171 1724
171 1805
171 1808
171 1935
171 1963
171 2025
171 2039
171 2313
171 2335
171 2370
171 2460
171 2464
171 2507
172 238
172 262
172 288
172 299
172 369
172 377
172 502
172 565
172 692
172 797
172 891
172 906
172 988
172 1243
172 1252
172 1273
172 1340
172 1358
172 1400
172 1558
172 1681
172 1707
172 1810
172 1874
172 1896
172 1988
172 2003
172 2015
172 2065
172 2088
172 2136
172 2185
172 2218
172 2220
172 2255
172 2652
173 367
173 377
173 498
173 551
173 660
173 675
173 883
173 914
173 946
173 988
173 1069
173 1079
173 1201
173 1747
173 1909
173 1986
173 2015
173 2285
173 2350
173 2516
173 2555
173 2580
174 195
174 197
174 228
174 240
174 287
174 291
174 328
174 332
174 354
174 387
174 393
174 423
174 470
174 508
174 543
174 584
174 642
174 651
174 674
174 681
174 765
174 822
174 881
174 891
174 892
174 920
174 930
174 958
174 978
174 990
174 996
174 1037
174 1041
174 1052
174 1086
174 1108
174 1144
174 1186
174 1291
174 1301
174 1309
174 1310
174 1344
174 1410
174 1487
174 1529
174 1530
174 1581
174 1634
174 1683
174 1758
174 1774
174 1778
174 1808
174 1837
174 1840
174 1907
174 1912
174 1917
174 2023
174 2034
174 2053
174 2110
174 2163
174 2202
174 2213
174 2228
174 2335
174 2338
174 2344
174 2417
174 2453
174 2474
174 2528
174 2606
174 2612
174 2622
175 268
175 850
175 1798
175 2062
175 2610
175 2661
176 278
176 347
176 492
176 1089
176 1091
176 1126
176 1227
176 1351
176 1405
176 1428
176 1437
176 1465
176 1521
176 1558
176 1574
176 1635
176 1745
176 1787
176 1788
176 1796
176 1858
176 1870
176 1944
176 1998
176 2155
176 2188
176 2299
176 2588
176 2676
177 193
177 258
177 473
177 542
177 559
177 610
177 644
177 692
177 810
177 860
177 864
177 880
177 893
177 936
177 941
177 1012
177 1018
177 1027
177 1093
177 1538
177 1574
177 1810
177 1823
177 1934
177 1946
177 2146
177 2150
177 2262
178 339
178 576
178 1546
178 1798
178 2055
178 2369
178 2586
178 2610
179 191
179 194
179 204
179 212
179 225
179 226
179 228
179 256
179 281
179 334
179 335
179 360
179 482
179 508
179 511
179 547
179 549
179 566
179 576
179 589
179 685
179 697
179 708
179 770
179 782
179 809
179 876
179 895
179 899
179 905
179 934
179 935
179 949
179 972
179 975
179 993
179 1042
179 1074
179 1088
179 1091
179 1112
179 1126
179 1141
179 1158
179 1233
179 1235
179 1286
179 1299
179 1326
179 1371
179 1374
179 1401
179 1426
179 1428
179 1457
179 1468
179 1473
179 1495
179 1519
179 1521
179 1534
179 1562
179 1570
179 1579
179 1588
179 1624
179 1626
179 1635
179 1639
179 1649
179 1685
179 1699
179 1719
179 1721
179 1723
179 1733
179 1746
179 1750
179 1762
179 1783
179 1799
179 1870
179 1871
179 1883
179 1905
179 1916
179 1918
179 1923
179 1938
179 1941
179 1947
179 1963
179 1967
179 1978
179 1979
179 1980
179 1983
179 1998
179 2023
179 2025
179 2038
179 2050
179 2054
179 2064
179 2083
179 2086
179 2101
179 2119
179 2137
179 2171
179 2251
179 2258
179 2342
179 2358
179 2380
179 2389
179 2405
179 2434
179 2435
179 2467
179 2471
179 2491
179 2492
179 2501
179 2531
179 2551
179 2570
179 2574
179 2578
179 2588
179 2591
179 2618
179 2651
179 2660
179 2673
179 2676
180 403
180 727
180 747
180 1041
180 1088
180 1231
180 1235
180 1641
180 1680
180 1815
180 2341
180 2395
181 204
181 206
181 263
181 274
181 291
181 306
181 384
181 473
181 499
181 519
181 549
181 552
181 564
181 578
181 626
181 704
181 735
181 760
181 774
181 795
181 842
181 902
181 929
181 948
181 953
181 1015
181 1031
181 1062
181 1103
181 1139
181 1159
181 1165
181 1177
181 1278
181 1280
181 1343
181 1356
181 1461
181 1475
181 1481
181 1537
181 1577
181 1624
181 1673
181 1717
181 1744
181 1745
181 1763
181 1817
181 1863
181 1870
181 1919
181 1925
181 1933
181 1934
181 1946
181 1970
181 1975
181 2071
181 2180
181 2228
181 2243
181 2297
181 2396
181 2421
181 2424
181 2429
181 2490
181 2500
181 2614
181 2652
181 2655
182 1404
182 2481
183 1310
183 1871
184 198
184 225
184 228
184 318
184 381
184 510
184 544
184 606
184 691
184 738
184 776
184 888
184 970
184 1044
184 1093
184 1111
184 1129
184 1138
184 1166
184 1169
184 1185
184 1272
184 1289
184 1318
184 1395
184 1494
184 1534
184 1558
184 1562
184 1608
184 1616
184 1693
184 1733
184 1750
184 1762
184 1840
184 1871
184 1887
184 1897
184 1916
184 1954
184 2079
184 2201
184 2212
184 2231
184 2264
184 2316
184 2347
184 2392
184 2401
184 2425
184 2437
184 2453
184 2467
184 2528
184 2570
184 2628
184 2634
185 192
185 197
185 347
185 406
185 491
185 510
185 582
185 596
185 608
185 666
185 685
185 715
185 746
185 749
185 798
185 808
185 824
185 855
185 870
185 896
185 943
185 956
185 975
185 991
185 1085
185 1174
185 1237
185 1260
185 1264
185 1290
185 1346
185 1379
185 1409
185 1482
185 1507
185 1569
185 1655
185 1696
185 1706
185 1708
185 1721
185 1784
185 1798
185 1850
185 1854
185 1890
185 1895
185 1945
185 1954
185 1963
185 1979
185 2016
185 2039
185 2048
185 2051
185 2062
185 2135
185 2151
185 2175
185 2189
185 2197
185 2208
185 2215
185 2263
185 2311
185 2330
185 2352
185 2376
185 2446
185 2460
185 2520
185 2523
185 2530
185 2532
185 2574
185 2593
185 2616
185 2670
186 248
186 256
186 347
186 457
186 461
186 746
186 760
186 782
186 799
186 809
186 826
186 899
186 990
186 1023
186 1091
186 1097
186 1150
186 1182
186 1199
186 1266
186 1285
186 1365
186 1374
186 1455
186 1494
186 1500
186 1532
186 1574
186 1579
186 1588
186 1652
186 1708
186 1742
186 1760
186 1773
186 1829
186 1916
186 1923
186 2036
186 2051
186 2091
186 2119
186 2188
186 2189
186 2231
186 2235
186 2262
186 2294
186 2361
186 2367
186 2380
186 2385
186 2389
186 2467
186 2497
186 2570
186 2577
186 2586
186 2654
186 2658
187 361
187 479
187 749
187 1474
187 2227
188 204
188 206
188 263
188 330
188 418
188 672
188 1164
188 1351
188 1500
188 1549
188 1625
188 1752
188 1876
188 2058
188 2073
188 2128
188 2134
188 2152
188 2254
188 2651
189 198
189 228
189 772
189 776
189 850
189 1011
189 1074
189 1111
189 1395
189 1570
189 1608
189 1615
189 1733
189 1840
189 1897
189 1916
189 1941
189 1994
189 2062
189 2228
189 2278
189 2347
189 2361
189 2392
189 2453
189 2533
189 2570
189 2583
189 2623
189 2633
190 450
190 952
190 1070
190 1414
190 1558
190 1865
190 1985
190 2297
190 2567
190 2672
191 232
191 236
191 246
191 248
191 256
191 278
191 282
191 310
191 321
191 324
191 346
191 362
191 382
191 491
191 521
191 524
191 535
191 550
191 553
191 592
191 608
191 614
191 635
191 666
191 679
191 699
191 742
191 765
191 843
191 864
191 882
191 889
191 896
191 910
191 939
191 954
191 962
191 970
191 990
191 999
191 1021
191 1062
191 1124
191 1126
191 1138
191 1151
191 1182
191 1206
191 1207
191 1223
191 1230
191 1242
191 1244
191 1263
191 1291
191 1296
191 1321
191 1346
191 1353
191 1362
191 1393
191 1401
191 1412
191 1413
191 1427
191 1455
191 1494
191 1503
191 1519
191 1524
191 1542
191 1545
191 1547
191 1561
191 1601
191 1605
191 1608
191 1687
191 1688
191 1692
191 1696
191 1708
191 1714
191 1736
191 1739
191 1762
191 1773
191 1795
191 1798
191 1822
191 1837
191 1868
191 1901
191 1954
191 1963
191 1979
191 1980
191 1994
191 2010
191 2046
191 2062
191 2090
191 2091
191 2099
191 2118
191 2177
191 2179
191 2201
191 2212
191 2299
191 2309
191 2353
191 2370
191 2377
191 2390
191 2392
191 2452
191 2464
191 2471
191 2512
191 2522
191 2532
191 2584
191 2586
191 2593
191 2605
191 2608
191 2622
191 2659
192 197
192 209
192 278
192 329
192 527
192 542
192 552
192 598
192 614
192 624
192 651
192 684
192 703
192 715
192 774
192 891
192 923
192 972
192 991
192 1011
192 1015
192 1025
192 1062
192 1082
192 1088
192 1202
192 1204
192 1285
192 1343
192 1344
192 1395
192 1519
192 1545
192 1561
192 1570
192 1571
192 1572
192 1602
192 1686
192 1729
192 1742
192 1784
192 1822
192 1831
192 1837
192 1840
192 1850
192 1881
192 1897
192 1912
192 1923
192 1941
192 1964
192 2039
192 2277
192 2305
192 2327
192 2343
192 2354
192 2370
192 2460
192 2489
192 2509
192 2515
192 2551
192 2554
192 2562
192 2584
192 2589
192 2592
192 2631
193 231
193 260
193 289
193 308
193 367
193 660
193 678
193 807
193 857
193 891
193 941
193 946
193 987
193 1096
193 1496
193 1636
193 1667
193 1681
193 1779
193 1841
193 1877
193 1986
193 2015
193 2129
193 2136
193 2271
193 2555
193 2600
193 2666
194 264
194 298
194 351
194 358
194 363
194 368
194 482
194 616
194 631
194 633
194 641
194 647
194 664
194 700
194 706
194 763
194 770
194 792
194 876
194 1042
194 1074
194 1299
194 1397
194 1401
194 1413
194 1474
194 1484
194 1502
194 1536
194 1537
194 1685
194 1696
194 1699
194 1724
194 1760
194 1769
194 1776
194 1819
194 1852
194 1858
194 1883
194 1965
194 1979
194 2010
194 2046
194 2062
194 2074
194 2112
194 2229
194 2312
194 2362
194 2539
194 2544
195 225
195 236
195 329
195 372
195 387
195 393
195 398
195 406
195 499
195 509
195 514
195 549
195 558
195 600
195 674
195 697
195 704
195 755
195 765
195 800
195 891
195 892
195 951
195 978
195 990
195 1015
195 1025
195 1086
195 1105
195 1119
195 1144
195 1159
195 1199
195 1202
195 1204
195 1220
195 1257
195 1262
195 1282
195 1291
195 1307
195 1343
195 1344
195 1395
195 1438
195 1442
195 1475
195 1487
195 1494
195 1528
195 1529
195 1557
195 1562
195 1587
195 1594
195 1616
195 1683
195 1698
195 1729
195 1733
195 1758
195 1778
195 1779
195 1837
195 1840
195 1881
195 1912
195 1916
195 1930
195 1941
195 1985
195 1994
195 2031
195 2068
195 2163
195 2206
195 2211
195 2228
195 2261
195 2277
195 2327
195 2353
195 2356
195 2370
195 2392
195 2429
195 2453
195 2474
195 2491
195 2528
195 2556
195 2615
195 2655
196 198
196 209
196 228
196 282
196 298
196 362
196 372
196 394
196 406
196 452
196 486
196 529
196 536
196 543
196 549
196 570
196 576
196 624
196 651
196 691
196 727
196 759
196 772
196 812
196 905
196 910
196 921
196 925
196 1045
196 1091
196 1093
196 1151
196 1169
196 1183
196 1231
196 1263
196 1264
196 1290
196 1309
196 1355
196 1395
196 1400
196 1439
196 1489
196 1575
196 1634
196 1640
196 1692
196 1696
196 1734
196 1770
196 1778
196 1795
196 1916
196 1994
196 2137
196 2179
196 2206
196 2233
196 2264
196 2342
196 2386
196 2392
196 2426
196 2453
196 2467
196 2531
196 2561
196 2623
196 2634
197 204
197 209
197 246
197 254
197 259
197 265
197 267
197 306
197 329
197 333
197 356
197 370
197 406
197 411
197 455
197 471
197 498
197 499
197 527
197 562
197 572
197 574
197 580
197 584
197 608
197 614
197 651
197 655
197 688
197 703
197 721
197 731
197 738
197 746
197 755
197 758
197 846
197 855
197 876
197 877
197 891
197 899
197 913
197 930
197 943
197 956
197 970
197 972
197 975
197 978
197 991
197 998
197 1012
197 1025
197 1028
197 1042
197 1058
197 1059
197 1074
197 1093
197 1105
197 1112
197 1121
197 1126
197 1141
197 1174
197 1202
197 1214
197 1224
197 1226
197 1230
197 1239
197 1247
197 1248
197 1252
197 1262
197 1263
197 1264
197 1291
197 1334
197 1338
197 1342
197 1379
197 1403
197 1409
197 1442
197 1507
197 1521
197 1541
197 1548
197 1571
197 1575
197 1584
197 1624
197 1638
197 1673
197 1685
197 1686
197 1687
197 1713
197 1719
197 1724
197 1729
197 1757
197 1758
197 1761
197 1782
197 1784
197 1799
197 1837
197 1840
197 1852
197 1855
197 1871
197 1875
197 1881
197 1883
197 1895
197 1912
197 1916
197 1931
197 1945
197 1979
197 1983
197 2002
197 2050
197 2060
197 2068
197 2109
197 2151
197 2155
197 2163
197 2182
197 2184
197 2201
197 2202
197 2269
197 2277
197 2294
197 2307
197 2327
197 2343
197 2358
197 2362
197 2370
197 2386
197 2397
197 2399
197 2421
197 2422
197 2423
197 2432
197 2435
197 2444
197 2458
197 2474
197 2491
197 2509
197 2515
197 2523
197 2530
197 2551
197 2570
197 2574
197 2593
197 2608
197 2615
197 2616
197 2629
197 2633
197 2651
197 2671
197 2673
198 228
198 275
198 278
198 282
198 318
198 331
198 332
198 395
198 423
198 437
198 444
198 482
198 536
198 540
198 557
198 571
198 584
198 606
198 608
198 642
198 674
198 691
198 772
198 811
198 822
198 863
198 925
198 927
198 930
198 931
198 932
198 960
198 996
198 1011
198 1041
198 1086
198 1139
198 1166
198 1169
198 1183
198 1185
198 1232
198 1270
198 1289
198 1309
198 1395
198 1494
198 1519
198 1546
198 1570
198 1587
198 1608
198 1615
198 1617
198 1623
198 1634
198 1640
198 1719
198 1733
198 1778
198 1840
198 1855
198 1887
198 1897
198 1912
198 1916
198 1931
198 1941
198 1979
198 1999
198 2172
198 2222
198 2228
198 2269
198 2321
198 2326
198 2334
198 2347
198 2360
198 2370
198 2392
198 2453
198 2474
198 2521
198 2523
198 2544
198 2570
198 2607
198 2628
198 2629
198 2633
198 2634
199 807
199 988
199 1264
199 2047
199 2157
199 2195
200 210
200 272
200 298
200 317
200 320
200 424
200 462
200 508
200 539
200 544
200 557
200 691
200 726
200 813
200 879
200 985
200 1008
200 1065
200 1123
200 1186
200 1261
200 1346
200 1532
200 1617
200 1766
200 1785
200 1816
200 1920
200 1943
200 1965
200 2016
200 2021
200 2035
200 2083
200 2186
200 2203
200 2264
200 2266
200 2298
200 2319
200 2402
200 2452
200 2480
200 2483
200 2561
200 2615
200 2647
201 312
201 369
201 450
201 561
201 645
201 1234
201 1744
201 1932
201 2115
201 2134
201 2194
201 2328
201 2350
201 2510
201 2541
201 2672
202 241
202 242
202 273
202 310
202 321
202 330
202 346
202 382
202 461
202 482
202 577
202 592
202 684
202 742
202 799
202 803
202 820
202 849
202 858
202 864
202 887
202 913
202 1033
202 1100
202 1172
202 1362
202 1397
202 1427
202 1559
202 1607
202 1688
202 1732
202 1764
202 1798
202 1830
202 1901
202 1918
202 1969
202 1979
202 2016
202 2099
202 2107
202 2232
202 2246
202 2307
202 2577
202 2586
202 2659
203 246
203 323
203 371
203 525
203 572
203 600
203 603
203 619
203 755
203 822
203 830
203 901
203 950
203 958
203 961
203 972
203 1081
203 1105
203 1170
203 1199
203 1226
203 1239
203 1282
203 1295
203 1390
203 1540
203 1541
203 1638
203 1678
203 1930
203 1931
203 2112
203 2182
203 2203
203 2241
203 2268
203 2310
203 2327
203 2368
203 2370
203 2444
203 2598
203 2603
203 2626
203 2629
203 2667
204 206
204 226
204 228
204 333
204 409
204 461
204 473
204 518
204 549
204 564
204 567
204 575
204 597
204 626
204 654
204 668
204 680
204 719
204 735
204 746
204 760
204 774
204 779
204 790
204 795
204 842
204 880
204 897
204 899
204 964
204 1023
204 1031
204 1112
204 1119
204 1120
204 1165
204 1182
204 1235
204 1246
204 1290
204 1315
204 1343
204 1371
204 1404
204 1426
204 1428
204 1433
204 1461
204 1463
204 1500
204 1537
204 1549
204 1569
204 1577
204 1579
204 1588
204 1599
204 1624
204 1649
204 1654
204 1673
204 1696
204 1709
204 1745
204 1798
204 1868
204 1870
204 1876
204 1883
204 1923
204 1933
204 1934
204 2039
204 2050
204 2071
204 2073
204 2084
204 2091
204 2119
204 2149
204 2161
204 2179
204 2209
204 2243
204 2251
204 2262
204 2264
204 2286
204 2297
204 2299
204 2309
204 2329
204 2359
204 2361
204 2367
204 2399
204 2435
204 2479
204 2490
204 2500
204 2526
204 2570
204 2577
204 2593
204 2614
204 2651
204 2676
205 206
205 274
205 342
205 433
205 469
205 472
205 473
205 553
205 842
205 975
205 1120
205 1126
205 1233
205 1401
205 1413
205 1519
205 1597
205 1624
205 1625
205 1635
205 1736
205 1773
205 1799
205 1870
205 1883
205 1927
205 1983
205 1998
205 2052
205 2073
205 2189
205 2377
206 226
206 319
206 335
206 343
206 360
206 382
206 418
206 457
206 461
206 469
206 473
206 549
206 564
206 568
206 575
206 597
206 626
206 632
206 712
206 719
206 728
206 735
206 746
206 757
206 760
206 771
206 774
206 799
206 810
206 842
206 899
206 948
206 1011
206 1031
206 1034
206 1091
206 1097
206 1099
206 1112
206 1120
206 1126
206 1129
206 1138
206 1151
206 1164
206 1165
206 1182
206 1206
206 1268
206 1280
206 1292
206 1343
206 1371
206 1389
206 1404
206 1426
206 1428
206 1481
206 1500
206 1510
206 1519
206 1537
206 1549
206 1569
206 1570
206 1577
206 1579
206 1624
206 1673
206 1675
206 1708
206 1709
206 1721
206 1745
206 1773
206 1798
206 1799
206 1819
206 1822
206 1832
206 1868
206 1870
206 1883
206 1901
206 1923
206 1933
206 1934
206 1939
206 1942
206 1946
206 1998
206 2050
206 2071
206 2073
206 2099
206 2119
206 2149
206 2152
206 2155
206 2161
206 2179
206 2199
206 2209
206 2243
206 2251
206 2264
206 2286
206 2299
206 2307
206 2329
206 2352
206 2359
206 2361
206 2380
206 2399
206 2409
206 2424
206 2435
206 2479
206 2490
206 2500
206 2570
206 2577
206 2614
206 2651
206 2668
206 2671
206 2676
207 1093
208 1046
208 1462
208 1867
208 2432
208 2575
209 249
209 329
209 471
209 486
209 527
209 545
209 549
209 573
209 598
209 703
209 704
209 755
209 774
209 877
209 991
209 1025
209 1084
209 1088
209 1159
209 1177
209 1199
209 1202
209 1262
209 1327
209 1344
209 1372
209 1561
209 1571
209 1729
209 1824
209 1837
209 1838
209 1839
209 1840
209 1881
209 1912
209 1917
209 1919
209 1946
209 1993
209 2026
209 2092
209 2183
209 2210
209 2277
209 2294
209 2343
209 2370
209 2421
209 2474
209 2489
209 2491
209 2509
209 2515
209 2551
209 2589
210 317
210 580
210 1017
210 1895
210 2027
210 2035
210 2200
210 2272
210 2280
210 2449
211 246
211 300
211 337
211 569
211 706
211 901
211 925
211 951
211 1012
211 1015
211 1039
211 1060
211 1181
211 1239
211 1258
211 1350
211 1530
211 1582
211 1597
211 1600
211 1603
211 1622
211 1641
211 1687
211 1786
211 1824
211 1931
211 2011
211 2053
211 2221
211 2259
211 2421
211 2432
211 2437
211 2544
211 2548
211 2626
211 2635
212 304
212 490
212 589
212 668
212 697
212 876
212 933
212 1119
212 1166
212 1193
212 1276
212 1290
212 1374
212 1375
212 1428
212 1484
212 1642
212 1788
212 1845
212 1923
212 1954
212 1963
212 2079
212 2119
212 2142
212 2171
212 2209
212 2262
212 2299
212 2379
212 2387
212 2437
212 2467
212 2471
212 2488
212 2554
212 2578
212 2631
212 2634
212 2651
212 2653
213 640
213 1380
214 236
214 1639
215 274
215 291
215 760
215 771
215 911
215 948
215 1313
215 1389
215 1661
215 1682
215 1717
215 2053
215 2149
215 2329
215 2382
216 218
216 263
216 296
216 300
216 311
216 342
216 406
216 486
216 624
216 671
216 672
216 706
216 865
216 901
216 922
216 925
216 967
216 975
216 998
216 1013
216 1039
216 1081
216 1102
216 1273
216 1282
216 1298
216 1350
216 1387
216 1400
216 1473
216 1518
216 1597
216 1622
216 1721
216 1730
216 1770
216 1786
216 1931
216 2018
216 2024
216 2180
216 2192
216 2203
216 2333
216 2399
216 2486
216 2496
216 2548
216 2591
216 2612
216 2629
216 2634
216 2635
216 2643
217 289
217 367
217 401
217 648
217 658
217 696
217 907
217 972
217 1069
217 1221
217 1326
217 1376
217 1417
217 1621
217 1683
217 1712
217 1865
217 1885
217 1912
217 2040
217 2165
217 2219
217 2257
217 2450
217 2495
217 2517
217 2555
218 277
218 303
218 377
218 518
218 533
218 661
218 886
218 1015
218 1079
218 1093
218 1381
218 1400
218 1415
218 1500
218 1595
218 1726
218 1770
218 1911
218 1962
218 2124
218 2136
218 2185
218 2207
218 2248
218 2256
218 2287
218 2349
218 2486
218 2582
218 2659
219 482
219 688
219 1254
219 1979
219 2387
220 246
220 256
220 309
220 321
220 336
220 347
220 363
220 382
220 477
220 524
220 581
220 614
220 620
220 666
220 703
220 720
220 778
220 805
220 852
220 877
220 882
220 888
220 894
220 956
220 1190
220 1231
220 1235
220 1244
220 1247
220 1338
220 1419
220 1430
220 1491
220 1494
220 1559
220 1571
220 1575
220 1576
220 1588
220 1796
220 1798
220 1923
220 2025
220 2127
220 2294
220 2309
220 2457
220 2609
220 2676
221 1344
221 1784
222 278
222 350
222 493
222 602
222 666
222 971
222 986
222 989
222 1058
222 1541
222 1639
222 1898
222 2021
222 2025
222 2083
222 2187
222 2469
222 2477
222 2556
222 2641
223 334
223 362
223 522
223 592
223 655
223 726
223 939
223 959
223 1091
223 1297
223 1507
223 1558
223 1931
223 1979
223 2310
223 2311
223 2370
223 2423
223 2491
223 2512
223 2634
223 2657
223 2673
224 2227
224 2309
225 240
225 281
225 331
225 335
225 372
225 470
225 492
225 509
225 606
225 691
225 697
225 737
225 738
225 772
225 855
225 876
225 892
225 921
225 930
225 932
225 970
225 975
225 985
225 993
225 1011
225 1042
225 1044
225 1091
225 1247
225 1395
225 1406
225 1428
225 1442
225 1457
225 1473
225 1608
225 1616
225 1733
225 1750
225 1758
225 1766
225 1797
225 1840
225 1871
225 1881
225 1897
225 1905
225 1908
225 1916
225 1918
225 1967
225 1994
225 2023
225 2025
225 2046
225 2064
225 2066
225 2080
225 2083
225 2137
225 2144
225 2171
225 2187
225 2211
225 2228
225 2278
225 2342
225 2347
225 2392
225 2467
225 2471
225 2528
225 2578
225 2607
225 2628
226 310
226 395
226 430
226 469
226 476
226 484
226 492
226 569
226 576
226 712
226 738
226 757
226 760
226 779
226 801
226 809
226 842
226 846
226 876
226 880
226 949
226 1065
226 1072
226 1091
226 1119
226 1120
226 1126
226 1129
226 1138
226 1142
226 1290
226 1371
226 1374
226 1389
226 1428
226 1524
226 1548
226 1549
226 1559
226 1574
226 1673
226 1678
226 1699
226 1708
226 1709
226 1764
226 1799
226 1835
226 1870
226 1883
226 1901
226 1918
226 1933
226 1934
226 1942
226 1971
226 1979
226 1998
226 2050
226 2067
226 2073
226 2084
226 2199
226 2208
226 2246
226 2264
226 2299
226 2329
226 2361
226 2387
226 2471
226 2518
226 2551
226 2591
226 2606
226 2634
226 2676
227 264
227 268
227 368
227 469
227 577
227 641
227 784
227 786
227 819
227 848
227 862
227 889
227 977
227 991
227 1021
227 1271
227 1288
227 1370
227 1597
227 1610
227 1641
227 1699
227 1777
227 1798
227 1817
227 1825
227 1936
227 1940
227 2025
227 2179
227 2296
227 2298
227 2361
227 2512
227 2533
227 2566
227 2611
228 240
228 256
228 278
228 285
228 298
228 328
228 331
228 395
228 396
228 406
228 409
228 425
228 482
228 508
228 540
228 543
228 576
228 606
228 608
228 612
228 614
228 641
228 665
228 666
228 674
228 682
228 691
228 697
228 708
228 737
228 738
228 753
228 772
228 800
228 824
228 842
228 876
228 878
228 891
228 932
228 970
228 972
228 993
228 1037
228 1042
228 1093
228 1111
228 1129
228 1138
228 1145
228 1169
228 1183
228 1185
228 1247
228 1255
228 1271
228 1355
228 1395
228 1401
228 1431
228 1494
228 1519
228 1530
228 1546
228 1547
228 1558
228 1562
228 1570
228 1608
228 1615
228 1617
228 1634
228 1635
228 1685
228 1699
228 1733
228 1742
228 1760
228 1778
228 1783
228 1795
228 1809
228 1840
228 1855
228 1869
228 1871
228 1883
228 1887
228 1893
228 1897
228 1912
228 1915
228 1916
228 1938
228 1941
228 1969
228 1979
228 1983
228 1994
228 2016
228 2062
228 2068
228 2083
228 2118
228 2135
228 2137
228 2140
228 2151
228 2171
228 2189
228 2211
228 2212
228 2228
228 2278
228 2294
228 2316
228 2334
228 2342
228 2347
228 2392
228 2425
228 2430
228 2435
228 2438
228 2453
228 2521
228 2570
228 2607
228 2615
228 2623
228 2628
228 2633
228 2659
228 2673
229 257
229 749
229 1030
229 1066
229 1379
229 1600
229 1750
229 1805
229 2187
229 2327
229 2534
230 325
230 634
230 1434
230 1683
230 1890
230 2016
230 2214
230 2623
231 615
231 622
231 645
231 692
231 777
231 854
231 902
231 941
231 1036
231 1091
231 1201
231 1285
231 1359
231 1362
231 1416
231 1456
231 1473
231 1514
231 1564
231 1636
231 1651
231 1795
231 1934
231 1970
231 2043
231 2084
231 2157
231 2170
231 2246
231 2249
231 2252
231 2297
231 2339
231 2418
231 2540
231 2567
231 2620
231 2668
232 267
232 273
232 340
232 362
232 592
232 599
232 608
232 653
232 666
232 699
232 742
232 801
232 806
232 831
232 848
232 858
232 868
232 962
232 991
232 1046
232 1124
232 1138
232 1151
232 1195
232 1206
232 1230
232 1285
232 1291
232 1362
232 1409
232 1494
232 1547
232 1574
232 1739
232 1795
232 1967
232 1979
232 2070
232 2100
232 2201
232 2390
232 2398
232 2459
232 2463
232 2593
232 2604
232 2648
233 303
233 426
233 1040
233 1329
233 1340
233 1703
233 1749
233 1791
233 2300
233 2370
233 2375
233 2404
233 2436
234 267
234 291
234 388
234 594
234 766
234 890
234 1248
234 1463
234 2243
235 663
235 741
235 902
235 904
235 1010
235 1201
235 1430
235 1763
235 1878
235 1905
235 1938
235 1979
235 2111
235 2297
236 250
236 311
236 329
236 332
236 410
236 454
236 506
236 509
236 614
236 617
236 651
236 671
236 683
236 765
236 766
236 835
236 891
236 897
236 923
236 937
236 951
236 962
236 1025
236 1049
236 1054
236 1055
236 1060
236 1091
236 1093
236 1097
236 1202
236 1204
236 1262
236 1264
236 1366
236 1456
236 1464
236 1479
236 1575
236 1600
236 1622
236 1623
236 1629
236 1657
236 1662
236 1680
236 1726
236 1729
236 1754
236 1824
236 1837
236 1870
236 1912
236 1931
236 1979
236 2074
236 2095
236 2175
236 2221
236 2233
236 2240
236 2303
236 2310
236 2333
236 2370
236 2380
236 2413
236 2423
236 2426
236 2491
236 2544
236 2561
236 2608
236 2629
237 277
237 289
237 314
237 348
237 367
237 465
237 533
237 656
237 678
237 692
237 694
237 716
237 829
237 854
237 861
237 880
237 883
237 902
237 906
237 907
237 939
237 941
237 952
237 987
237 988
237 1001
237 1009
237 1056
237 1070
237 1125
237 1201
237 1203
237 1241
237 1256
237 1268
237 1350
237 1358
237 1359
237 1376
237 1391
237 1445
237 1492
237 1525
237 1544
237 1574
237 1590
237 1628
237 1667
237 1677
237 1680
237 1681
237 1726
237 1744
237 1791
237 1866
237 1877
237 1930
237 1934
237 1961
237 1985
237 2003
237 2015
237 2115
237 2136
237 2154
237 2157
237 2167
237 2251
237 2271
237 2295
237 2297
237 2300
237 2349
237 2375
237 2396
237 2413
237 2428
237 2495
237 2565
237 2580
237 2652
237 2666
238 377
238 645
238 692
238 793
238 874
238 965
238 1268
238 1360
238 1514
238 1695
238 1722
238 2009
238 2065
238 2166
238 2242
239 313
239 387
239 528
239 570
239 1047
239 1052
239 1171
239 1273
239 1298
239 1322
239 1344
239 1437
239 1558
239 1834
239 1923
239 1944
239 1958
239 2093
239 2327
239 2410
239 2540
239 2554
239 2585
240 275
240 278
240 287
240 315
240 328
240 331
240 332
240 372
240 395
240 423
240 437
240 470
240 477
240 493
240 543
240 584
240 606
240 641
240 674
240 681
240 691
240 737
240 738
240 765
240 772
240 800
240 881
240 891
240 892
240 905
240 920
240 930
240 932
240 970
240 990
240 996
240 998
240 1052
240 1086
240 1108
240 1144
240 1145
240 1169
240 1183
240 1186
240 1202
240 1247
240 1264
240 1271
240 1289
240 1301
240 1309
240 1395
240 1410
240 1438
240 1487
240 1541
240 1547
240 1570
240 1608
240 1615
240 1616
240 1617
240 1683
240 1684
240 1696
240 1697
240 1724
240 1733
240 1742
240 1750
240 1758
240 1778
240 1779
240 1809
240 1825
240 1840
240 1855
240 1871
240 1881
240 1887
240 1893
240 1897
240 1907
240 1912
240 1915
240 1916
240 1917
240 1935
240 1941
240 2062
240 2068
240 2083
240 2140
240 2211
240 2228
240 2294
240 2313
240 2326
240 2335
240 2347
240 2370
240 2386
240 2392
240 2417
240 2425
240 2430
240 2453
240 2528
240 2561
240 2570
240 2575
240 2609
240 2615
240 2628
240 2633
240 2634
240 2665
241 310
241 321
241 330
241 517
241 803
241 910
241 1164
241 1489
241 1607
241 1714
241 2196
241 2321
241 2452
242 317
242 318
242 322
242 327
242 331
242 406
242 452
242 462
242 508
242 517
242 679
242 695
242 718
242 726
242 736
242 858
242 905
242 927
242 963
242 1021
242 1060
242 1111
242 1117
242 1217
242 1346
242 1425
242 1466
242 1576
242 1676
242 1760
242 1795
242 1798
242 1898
242 1952
242 2016
242 2078
242 2164
242 2225
242 2263
242 2360
242 2452
242 2455
242 2478
242 2481
242 2532
242 2556
242 2574
242 2605
242 2623
243 288
243 435
243 443
243 481
243 615
243 661
243 693
243 694
243 716
243 791
243 854
243 893
243 1215
243 1400
243 1492
243 1493
243 1684
243 1711
243 1779
243 1873
243 2005
243 2170
243 2249
243 2252
243 2348
244 611
244 655
244 1299
244 2007
244 2179
244 2501
245 357
245 372
245 493
245 812
245 867
245 1212
245 1494
245 1945
245 2237
245 2324
245 2358
245 2416
245 2432
246 285
246 309
246 321
246 329
246 353
246 504
246 614
246 651
246 765
246 778
246 805
246 848
246 958
246 990
246 1013
246 1025
246 1093
246 1119
246 1124
246 1202
246 1231
246 1235
246 1339
246 1419
246 1494
246 1530
246 1533
246 1558
246 1559
246 1575
246 1678
246 1729
246 1795
246 1809
246 1834
246 1840
246 1843
246 1881
246 1912
246 2053
246 2163
246 2179
246 2228
246 2233
246 2294
246 2361
246 2365
246 2395
246 2397
246 2421
246 2457
246 2491
246 2496
246 2505
246 2536
246 2609
246 2626
246 2633
247 332
247 423
247 519
247 1366
247 1462
247 1600
247 1824
247 2086
248 268
248 330
248 333
248 347
248 355
248 362
248 368
248 382
248 441
248 457
248 462
248 469
248 472
248 510
248 580
248 582
248 592
248 633
248 698
248 739
248 746
248 760
248 761
248 770
248 771
248 824
248 826
248 864
248 889
248 917
248 991
248 1008
248 1011
248 1023
248 1065
248 1089
248 1119
248 1146
248 1150
248 1189
248 1250
248 1263
248 1296
248 1304
248 1379
248 1389
248 1397
248 1412
248 1425
248 1430
248 1440
248 1455
248 1464
248 1494
248 1506
248 1519
248 1524
248 1558
248 1575
248 1608
248 1624
248 1687
248 1706
248 1708
248 1733
248 1736
248 1773
248 1799
248 1835
248 1852
248 1888
248 1942
248 1964
248 1976
248 1979
248 1980
248 2002
248 2010
248 2046
248 2062
248 2066
248 2080
248 2091
248 2162
248 2177
248 2188
248 2189
248 2200
248 2201
248 2212
248 2225
248 2231
248 2254
248 2262
248 2274
248 2282
248 2294
248 2307
248 2347
248 2362
248 2363
248 2385
248 2387
248 2390
248 2441
248 2524
248 2549
248 2584
248 2586
248 2589
248 2623
248 2628
248 2636
248 2670
249 250
249 296
249 328
249 333
249 385
249 452
249 486
249 514
249 549
249 595
249 639
249 746
249 749
249 755
249 781
249 805
249 827
249 885
249 922
249 994
249 998
249 1055
249 1139
249 1152
249 1235
249 1251
249 1259
249 1355
249 1387
249 1399
249 1440
249 1533
249 1558
249 1570
249 1659
249 1683
249 1809
249 1916
249 1931
249 1958
249 2037
249 2163
249 2172
249 2228
249 2231
249 2294
249 2297
249 2310
249 2353
249 2426
249 2444
249 2453
249 2612
249 2626
249 2629
249 2665
249 2669
250 256
250 325
250 328
250 355
250 372
250 412
250 428
250 493
250 506
250 519
250 573
250 602
250 617
250 654
250 666
250 672
250 681
250 727
250 800
250 892
250 910
250 986
250 998
250 1011
250 1039
250 1041
250 1049
250 1054
250 1055
250 1058
250 1060
250 1082
250 1088
250 1138
250 1181
250 1220
250 1231
250 1279
250 1347
250 1354
250 1366
250 1387
250 1394
250 1477
250 1479
250 1500
250 1547
250 1575
250 1600
250 1622
250 1623
250 1629
250 1641
250 1662
250 1664
250 1683
250 1687
250 1697
250 1730
250 1798
250 1815
250 1824
250 1838
250 1846
250 1907
250 1931
250 1955
250 1996
250 2025
250 2076
250 2151
250 2182
250 2190
250 2205
250 2221
250 2228
250 2318
250 2370
250 2386
250 2395
250 2426
250 2453
250 2483
250 2489
250 2515
250 2528
250 2629
250 2647
250 2665
251 799
252 348
252 429
252 694
252 740
252 797
252 965
252 1053
252 1181
252 1305
252 1331
252 1342
252 1396
252 1513
252 1606
252 1651
252 1768
252 2009
252 2125
252 2166
253 264
253 400
253 425
253 449
253 500
253 516
253 559
253 582
253 651
253 749
253 870
253 889
253 932
253 1249
253 1263
253 1275
253 1367
253 1404
253 1460
253 1504
253 1505
253 1536
253 1586
253 1633
253 1718
253 1748
253 1879
253 2082
253 2107
253 2274
253 2281
253 2307
253 2311
253 2346
253 2385
253 2402
253 2406
253 2456
253 2460
253 2481
253 2494
253 2497
253 2505
253 2522
253 2577
253 2628
253 2640
253 2671
254 256
254 264
254 267
254 293
254 323
254 326
254 347
254 406
254 525
254 552
254 575
254 576
254 579
254 592
254 597
254 600
254 608
254 619
254 623
254 644
254 719
254 799
254 801
254 806
254 891
254 896
254 943
254 958
254 990
254 1061
254 1062
254 1081
254 1091
254 1093
254 1100
254 1124
254 1151
254 1170
254 1195
254 1206
254 1230
254 1271
254 1285
254 1356
254 1456
254 1489
254 1494
254 1532
254 1541
254 1594
254 1622
254 1673
254 1678
254 1687
254 1688
254 1693
254 1729
254 1739
254 1797
254 1829
254 1837
254 1893
254 2062
254 2182
254 2261
254 2352
254 2358
254 2361
254 2367
254 2370
254 2406
254 2459
254 2593
254 2608
255 453
255 469
255 507
255 594
255 618
255 835
255 866
255 897
255 1078
255 1126
255 1412
255 1421
255 1509
255 1607
255 1683
255 1736
255 1859
255 1870
255 2184
255 2413
255 2526
256 278
256 293
256 310
256 375
256 452
256 511
256 566
256 608
256 666
256 753
256 824
256 876
256 899
256 905
256 910
256 970
256 971
256 972
256 990
256 1045
256 1091
256 1129
256 1138
256 1151
256 1162
256 1182
256 1183
256 1206
256 1235
256 1285
256 1295
256 1401
256 1412
256 1468
256 1494
256 1495
256 1510
256 1521
256 1534
256 1541
256 1545
256 1547
256 1548
256 1565
256 1570
256 1579
256 1635
256 1675
256 1688
256 1699
256 1708
256 1742
256 1745
256 1760
256 1795
256 1796
256 1829
256 1869
256 1870
256 1885
256 1887
256 1893
256 1916
256 1924
256 1979
256 1980
256 1998
256 2025
256 2137
256 2151
256 2162
256 2201
256 2231
256 2246
256 2294
256 2342
256 2361
256 2367
256 2369
256 2390
256 2478
256 2504
256 2551
256 2570
256 2588
256 2618
256 2634
256 2660
257 259
257 282
257 328
257 332
257 437
257 446
257 454
257 485
257 496
257 499
257 584
257 639
257 651
257 704
257 759
257 813
257 822
257 863
257 879
257 901
257 978
257 1084
257 1088
257 1091
257 1202
257 1232
257 1309
257 1334
257 1385
257 1408
257 1425
257 1431
257 1454
257 1470
257 1529
257 1616
257 1618
257 1629
257 1704
257 1753
257 1758
257 1779
257 1804
257 1821
257 1825
257 1840
257 1909
257 1929
257 1957
257 2038
257 2081
257 2106
257 2109
257 2138
257 2182
257 2228
257 2277
257 2299
257 2334
257 2432
257 2470
257 2571
257 2606
257 2615
258 277
258 303
258 483
258 610
258 663
258 716
258 722
258 723
258 860
258 874
258 893
258 936
258 1027
258 1357
258 1538
258 1703
258 1722
258 1810
258 1814
258 1874
258 1988
258 2005
258 2015
258 2124
258 2129
258 2136
258 2150
258 2154
258 2167
258 2204
258 2245
258 2285
258 2440
258 2510
258 2543
258 2568
258 2580
259 328
259 332
259 335
259 354
259 360
259 372
259 387
259 393
259 470
259 471
259 498
259 499
259 504
259 552
259 564
259 644
259 674
259 755
259 794
259 827
259 855
259 881
259 913
259 920
259 923
259 930
259 936
259 989
259 1012
259 1018
259 1028
259 1032
259 1055
259 1073
259 1108
259 1128
259 1159
259 1175
259 1199
259 1248
259 1259
259 1262
259 1293
259 1372
259 1422
259 1431
259 1502
259 1541
259 1594
259 1713
259 1840
259 1912
259 1917
259 2026
259 2038
259 2163
259 2210
259 2228
259 2277
259 2397
259 2417
259 2423
259 2470
259 2474
259 2489
259 2491
259 2507
259 2559
259 2585
259 2629
259 2633
259 2651
260 303
260 308
260 656
260 660
260 941
260 946
260 987
260 1096
260 1391
260 1525
260 1667
260 1669
260 1681
260 1779
260 1877
260 1986
260 2015
260 2069
260 2109
260 2123
260 2129
260 2666
261 340
261 868
262 299
262 369
262 377
262 420
262 460
262 692
262 723
262 906
262 1243
262 1636
262 1722
262 1934
262 2195
262 2220
262 2242
263 274
263 295
263 313
263 385
263 398
263 421
263 430
263 473
263 485
263 498
263 566
263 567
263 582
263 636
263 639
263 654
263 669
263 671
263 672
263 706
263 718
263 728
263 735
263 753
263 757
263 774
263 781
263 782
263 835
263 844
263 870
263 885
263 897
263 899
263 910
263 922
263 925
263 934
263 941
263 951
263 961
263 964
263 991
263 1012
263 1031
263 1039
263 1042
263 1058
263 1062
263 1088
263 1091
263 1159
263 1165
263 1181
263 1185
263 1188
263 1191
263 1235
263 1258
263 1262
263 1275
263 1285
263 1298
263 1301
263 1343
263 1354
263 1372
263 1393
263 1400
263 1404
263 1437
263 1455
263 1461
263 1481
263 1494
263 1500
263 1537
263 1549
263 1577
263 1578
263 1597
263 1599
263 1625
263 1660
263 1662
263 1687
263 1709
263 1722
263 1730
263 1733
263 1736
263 1745
263 1824
263 1832
263 1870
263 1875
263 1881
263 1883
263 1923
263 1931
263 1933
263 1934
263 1946
263 1965
263 1970
263 1971
263 2018
263 2025
263 2038
263 2044
263 2051
263 2071
263 2073
263 2074
263 2076
263 2081
263 2110
263 2124
263 2128
263 2137
263 2149
263 2172
263 2180
263 2207
263 2213
263 2219
263 2221
263 2240
263 2251
263 2287
263 2333
263 2353
263 2370
263 2422
263 2424
263 2471
263 2479
263 2486
263 2490
263 2496
263 2500
263 2523
263 2526
263 2568
263 2614
263 2626
263 2634
263 2662
263 2668
264 266
264 321
264 362
264 419
264 433
264 449
264 482
264 500
264 503
264 616
264 628
264 634
264 635
264 700
264 805
264 806
264 819
264 894
264 954
264 962
264 991
264 994
264 1093
264 1100
264 1106
264 1146
264 1151
264 1179
264 1200
264 1207
264 1271
264 1313
264 1424
264 1464
264 1541
264 1558
264 1594
264 1617
264 1686
264 1706
264 1773
264 1798
264 1875
264 1958
264 2027
264 2039
264 2075
264 2126
264 2209
264 2261
264 2332
264 2354
264 2367
264 2369
264 2376
264 2398
264 2406
264 2437
264 2480
264 2483
264 2553
264 2560
264 2562
264 2622
264 2670
265 313
265 498
265 511
265 549
265 758
265 903
265 1042
265 1137
265 1349
265 1383
265 1530
265 1541
265 1569
265 1582
265 1638
265 1769
265 1789
265 1801
265 1909
265 1919
265 1923
265 2061
265 2093
265 2112
265 2175
265 2327
265 2370
265 2410
265 2429
265 2432
265 2544
265 2553
266 478
266 503
266 508
266 784
266 798
266 819
266 862
266 954
266 981
266 1091
266 1370
266 1425
266 1618
266 2006
266 2225
266 2332
266 2361
266 2452
266 2468
267 273
267 293
267 326
267 363
267 405
267 457
267 491
267 494
267 498
267 525
267 549
267 552
267 579
267 580
267 594
267 600
267 603
267 604
267 608
267 619
267 644
267 655
267 666
267 699
267 753
267 765
267 801
267 824
267 831
267 885
267 890
267 895
267 943
267 958
267 972
267 984
267 990
267 1015
267 1042
267 1059
267 1062
267 1081
267 1082
267 1090
267 1124
267 1127
267 1144
267 1151
267 1162
267 1170
267 1174
267 1195
267 1206
267 1223
267 1230
267 1247
267 1262
267 1264
267 1271
267 1282
267 1291
267 1343
267 1347
267 1356
267 1387
267 1394
267 1439
267 1456
267 1464
267 1479
267 1489
267 1534
267 1541
267 1555
267 1594
267 1599
267 1678
267 1687
267 1688
267 1717
267 1729
267 1733
267 1739
267 1764
267 1776
267 1795
267 1837
267 1883
267 1885
267 1890
267 1893
267 1979
267 2050
267 2062
267 2110
267 2112
267 2182
267 2201
267 2203
267 2225
267 2309
267 2358
267 2361
267 2370
267 2390
267 2413
267 2417
267 2459
267 2505
267 2526
267 2551
267 2593
267 2609
267 2615
268 336
268 355
268 419
268 425
268 510
268 599
268 641
268 805
268 850
268 889
268 910
268 930
268 1011
268 1046
268 1100
268 1108
268 1119
268 1146
268 1195
268 1205
268 1212
268 1271
268 1304
268 1375
268 1489
268 1546
268 1577
268 1718
268 1771
268 1798
268 1820
268 1888
268 1920
268 1976
268 2046
268 2062
268 2225
268 2254
268 2274
268 2321
268 2369
268 2376
268 2406
268 2497
268 2533
268 2610
268 2648
268 2651
269 417
269 793
269 1133
269 1216
269 1519
269 1628
269 1635
269 1667
269 1811
269 1877
269 1906
269 1987
269 2013
269 2440
269 2510
269 2666
270 1558
271 316
271 324
271 335
271 347
271 428
271 503
271 510
271 549
271 576
271 606
271 616
271 682
271 697
271 713
271 746
271 792
271 885
271 905
271 913
271 963
271 1166
271 1205
271 1248
271 1264
271 1299
271 1326
271 1361
271 1425
271 1442
271 1503
271 1541
271 1708
271 1719
271 1749
271 1938
271 1979
271 2038
271 2080
271 2135
271 2171
271 2173
271 2277
271 2283
271 2298
271 2398
271 2483
271 2501
271 2570
271 2598
271 2634
271 2651
272 278
272 298
272 321
272 539
272 647
272 666
272 691
272 726
272 813
272 879
272 1065
272 1123
272 1186
272 1261
272 1617
272 1816
272 1920
272 2035
272 2083
272 2186
272 2203
272 2266
272 2319
272 2321
272 2561
272 2569
272 2615
272 2623
272 2646
272 2647
273 293
273 340
273 362
273 491
273 494
273 580
273 592
273 603
273 608
273 666
273 699
273 803
273 824
273 849
273 858
273 896
273 990
273 1100
273 1119
273 1129
273 1138
273 1162
273 1172
273 1206
273 1214
273 1230
273 1271
273 1291
273 1494
273 1547
273 1706
273 1729
273 1739
273 1769
273 1776
273 1837
273 1864
273 1872
273 1969
273 1979
273 2140
273 2151
273 2177
273 2196
273 2201
273 2261
273 2370
273 2390
273 2433
273 2593
273 2604
274 291
274 313
274 385
274 430
274 433
274 473
274 478
274 499
274 564
274 568
274 672
274 683
274 712
274 735
274 757
274 760
274 771
274 774
274 782
274 799
274 872
274 923
274 934
274 939
274 948
274 1007
274 1012
274 1062
274 1099
274 1127
274 1159
274 1164
274 1174
274 1182
274 1258
274 1266
274 1303
274 1313
274 1347
274 1372
274 1389
274 1393
274 1455
274 1456
274 1475
274 1481
274 1498
274 1500
274 1519
274 1549
274 1574
274 1577
274 1594
274 1624
274 1635
274 1661
274 1662
274 1683
274 1709
274 1714
274 1717
274 1752
274 1787
274 1833
274 1861
274 1868
274 1870
274 1885
274 1933
274 1934
274 1946
274 1970
274 2031
274 2042
274 2053
274 2073
274 2087
274 2149
274 2329
274 2424
274 2434
274 2470
274 2479
274 2481
274 2502
274 2522
274 2541
274 2584
274 2614
274 2626
274 2638
274 2668
275 395
275 641
275 681
275 720
275 737
275 753
275 772
275 932
275 1183
275 1271
275 1289
275 1494
275 1570
275 1612
275 1615
275 1617
275 1634
275 1699
275 1733
275 1742
275 1765
275 1855
275 1869
275 1885
275 1893
275 1941
275 2062
275 2140
275 2228
275 2246
275 2294
275 2334
275 2395
275 2411
275 2425
275 2430
275 2521
275 2570
275 2634
275 2660
276 560
276 1075
276 1084
276 1470
276 1804
276 1810
276 2116
276 2488
276 2571
277 314
277 652
277 661
277 663
277 880
277 965
277 1067
277 1079
277 1147
277 1415
277 1814
277 1962
277 2054
277 2085
277 2111
277 2124
277 2150
277 2242
277 2245
277 2248
277 2251
277 2256
277 2405
277 2419
277 2510
277 2516
277 2565
277 2659
278 282
278 316
278 318
278 325
278 328
278 331
278 347
278 351
278 372
278 396
278 428
278 472
278 492
278 508
278 535
278 543
278 566
278 576
278 606
278 635
278 654
278 672
278 674
278 682
278 691
278 697
278 728
278 737
278 738
278 772
278 782
278 800
278 822
278 843
278 870
278 876
278 879
278 899
278 921
278 930
278 932
278 934
278 943
278 970
278 986
278 989
278 991
278 1042
278 1044
278 1055
278 1058
278 1072
278 1086
278 1091
278 1097
278 1142
278 1151
278 1159
278 1169
278 1185
278 1206
278 1223
278 1226
278 1247
278 1261
278 1275
278 1281
278 1321
278 1328
278 1365
278 1395
278 1405
278 1409
278 1426
278 1434
278 1442
278 1494
278 1503
278 1532
278 1542
278 1548
278 1559
278 1562
278 1570
278 1575
278 1579
278 1581
278 1615
278 1617
278 1626
278 1639
278 1671
278 1675
278 1696
278 1721
278 1723
278 1730
278 1733
278 1737
278 1742
278 1750
278 1760
278 1778
278 1787
278 1796
278 1829
278 1840
278 1846
278 1870
278 1871
278 1876
278 1885
278 1897
278 1902
278 1912
278 1916
278 1917
278 1938
278 1941
278 1945
278 1947
278 1954
278 1963
278 1978
278 1979
278 2025
278 2068
278 2076
278 2083
278 2104
278 2118
278 2126
278 2151
278 2163
278 2201
278 2213
278 2221
278 2228
278 2235
278 2258
278 2283
278 2286
278 2294
278 2299
278 2307
278 2316
278 2330
278 2337
278 2380
278 2385
278 2387
278 2392
278 2399
278 2424
278 2435
278 2452
278 2453
278 2456
278 2469
278 2474
278 2488
278 2570
278 2578
278 2583
278 2598
278 2607
278 2609
278 2628
278 2633
278 2634
278 2651
278 2659
279 610
280 292
280 607
280 1091
280 1113
280 1870
280 1874
280 2139
280 2293
280 2405
280 2568
281 470
281 508
281 509
281 697
281 738
281 876
281 921
281 930
281 993
281 1042
281 1097
281 1158
281 1186
281 1318
281 1395
281 1562
281 1608
281 1708
281 1733
281 1750
281 1758
281 1871
281 1897
281 1916
281 1918
281 1994
281 2023
281 2083
281 2171
281 2211
281 2392
281 2471
281 2578
281 2671
282 317
282 321
282 355
282 395
282 406
282 428
282 470
282 479
282 482
282 499
282 508
282 536
282 541
282 547
282 560
282 586
282 608
282 635
282 666
282 715
282 755
282 770
282 819
282 822
282 843
282 863
282 879
282 892
282 910
282 930
282 931
282 939
282 986
282 997
282 1003
282 1005
282 1011
282 1019
282 1058
282 1066
282 1080
282 1138
282 1146
282 1228
282 1290
282 1299
282 1306
282 1307
282 1321
282 1337
282 1378
282 1397
282 1403
282 1427
282 1484
282 1503
282 1510
282 1541
282 1553
282 1570
282 1605
282 1618
282 1634
282 1697
282 1699
282 1727
282 1733
282 1761
282 1798
282 1825
282 1840
282 1852
282 1857
282 1875
282 1913
282 1914
282 1931
282 1979
282 2025
282 2078
282 2112
282 2182
282 2189
282 2206
282 2225
282 2261
282 2278
282 2330
282 2334
282 2430
282 2449
282 2452
282 2453
282 2464
282 2468
282 2469
282 2480
282 2483
282 2501
282 2583
282 2584
282 2608
282 2616
282 2622
282 2623
282 2629
282 2633
282 2659
282 2661
282 2673
283 338
283 808
283 1553
283 2175
283 2272
283 2362
284 1467
285 336
285 342
285 393
285 549
285 666
285 765
285 865
285 901
285 990
285 1061
285 1091
285 1102
285 1128
285 1132
285 1192
285 1231
285 1235
285 1278
285 1343
285 1384
285 1454
285 1530
285 1541
285 1638
285 1664
285 1708
285 1729
285 1734
285 1795
285 1957
285 2093
285 2201
285 2353
285 2361
285 2615
286 659
286 1327
286 1421
286 1468
286 1839
286 2163
286 2299
287 328
287 332
287 354
287 372
287 423
287 437
287 470
287 543
287 584
287 641
287 794
287 891
287 930
287 996
287 1108
287 1144
287 1145
287 1183
287 1309
287 1487
287 1570
287 1581
287 1608
287 1855
287 1897
287 2068
287 2202
287 2228
287 2294
287 2347
287 2417
287 2507
287 2528
288 348
288 369
288 384
288 443
288 565
288 619
288 646
288 693
288 716
288 818
288 841
288 1768
288 2005
288 2525
288 2565
289 369
289 378
289 436
289 502
289 571
289 610
289 716
289 914
289 919
289 1009
289 1071
289 1138
289 1376
289 1621
289 1865
289 2040
289 2120
289 2166
289 2216
289 2257
289 2271
289 2349
289 2438
289 2564
289 2568
289 2580
289 2600
289 2633
289 2666
290 1187
290 1606
291 299
291 332
291 430
291 473
291 498
291 542
291 549
291 552
291 558
291 564
291 568
291 578
291 582
291 598
291 626
291 683
291 698
291 735
291 750
291 753
291 756
291 757
291 760
291 771
291 774
291 782
291 799
291 801
291 826
291 842
291 855
291 899
291 911
291 923
291 930
291 941
291 948
291 1024
291 1029
291 1062
291 1082
291 1119
291 1127
291 1150
291 1159
291 1165
291 1174
291 1182
291 1235
291 1248
291 1258
291 1264
291 1266
291 1285
291 1301
291 1313
291 1343
291 1356
291 1372
291 1374
291 1389
291 1475
291 1476
291 1487
291 1504
291 1512
291 1519
291 1537
291 1545
291 1577
291 1594
291 1624
291 1661
291 1673
291 1709
291 1717
291 1724
291 1746
291 1773
291 1861
291 1868
291 1870
291 1907
291 1910
291 1927
291 1933
291 1934
291 1946
291 1970
291 1983
291 2053
291 2071
291 2107
291 2112
291 2182
291 2243
291 2250
291 2262
291 2297
291 2329
291 2382
291 2398
291 2424
291 2470
291 2479
291 2490
291 2497
291 2500
291 2577
291 2582
291 2612
291 2614
291 2624
291 2668
292 497
292 622
292 661
292 880
292 923
292 969
292 1139
292 1268
292 1320
292 1476
292 1930
292 2087
292 2221
292 2292
292 2331
292 2479
292 2541
293 362
293 406
293 472
293 494
293 498
293 528
293 542
293 549
293 579
293 592
293 603
293 608
293 635
293 651
293 666
293 699
293 824
293 831
293 895
293 896
293 943
293 956
293 958
293 990
293 1034
293 1052
293 1058
293 1086
293 1093
293 1100
293 1124
293 1127
293 1129
293 1138
293 1151
293 1162
293 1195
293 1206
293 1214
293 1226
293 1230
293 1254
293 1264
293 1291
293 1292
293 1295
293 1296
293 1409
293 1454
293 1456
293 1467
293 1494
293 1545
293 1547
293 1558
293 1592
293 1617
293 1651
293 1678
293 1687
293 1688
293 1692
293 1708
293 1729
293 1739
293 1760
293 1769
293 1795
293 1798
293 1837
293 1869
293 1890
293 1893
293 1911
293 1916
293 1921
293 1979
293 2016
293 2119
293 2124
293 2148
293 2151
293 2177
293 2179
293 2189
293 2190
293 2201
293 2225
293 2231
293 2251
293 2261
293 2264
293 2294
293 2309
293 2367
293 2370
293 2390
293 2437
293 2467
293 2540
293 2551
293 2593
293 2598
293 2604
294 320
294 353
294 1264
294 1569
294 1801
294 2175
294 2362
294 2553
295 333
295 338
295 352
295 409
295 455
295 526
295 549
295 562
295 612
295 624
295 633
295 790
295 846
295 971
295 991
295 1121
295 1129
295 1138
295 1265
295 1286
295 1339
295 1345
295 1403
295 1510
295 1757
295 1760
295 1979
295 2016
295 2201
295 2208
295 2239
295 2258
295 2330
295 2386
295 2398
295 2423
295 2464
295 2550
296 486
296 512
296 514
296 536
296 624
296 885
296 925
296 958
296 1091
296 1220
296 1254
296 1354
296 1355
296 1387
296 1393
296 1468
296 1533
296 1587
296 1596
296 1809
296 1824
296 1837
296 1860
296 2037
296 2159
296 2172
296 2182
296 2353
296 2426
296 2563
296 2626
297 1539
298 311
298 317
298 320
298 327
298 362
298 368
298 415
298 424
298 446
298 452
298 503
298 508
298 525
298 544
298 573
298 592
298 603
298 631
298 666
298 691
298 762
298 772
298 776
298 784
298 800
298 806
298 813
298 820
298 851
298 876
298 894
298 931
298 960
298 985
298 989
298 1030
298 1073
298 1074
298 1111
298 1123
298 1166
298 1169
298 1195
298 1232
298 1270
298 1284
298 1289
298 1306
298 1330
298 1333
298 1361
298 1425
298 1431
298 1451
298 1480
298 1489
298 1546
298 1553
298 1570
298 1608
298 1617
298 1620
298 1730
298 1732
298 1733
298 1764
298 1784
298 1816
298 1840
298 1846
298 1897
298 1916
298 1937
298 1950
298 1965
298 1980
298 2061
298 2076
298 2118
298 2138
298 2160
298 2177
298 2189
298 2228
298 2232
298 2266
298 2291
298 2312
298 2324
298 2347
298 2361
298 2362
298 2449
298 2453
298 2464
298 2467
298 2512
298 2521
298 2563
298 2574
298 2583
298 2615
298 2623
298 2628
298 2633
298 2634
298 2646
298 2659
298 2674
298 2677
299 377
299 420
299 906
299 1133
299 1512
299 1768
299 2220
299 2382
299 2541
300 319
300 321
300 452
300 486
300 514
300 545
300 585
300 664
300 668
300 684
300 706
300 736
300 846
300 879
300 901
300 925
300 985
300 989
300 998
300 1015
300 1039
300 1055
300 1061
300 1093
300 1100
300 1119
300 1226
300 1298
300 1333
300 1350
300 1387
300 1393
300 1438
300 1461
300 1469
300 1518
300 1524
300 1541
300 1558
300 1594
300 1603
300 1622
300 1741
300 1786
300 1832
300 1882
300 1890
300 2039
300 2124
300 2183
300 2205
300 2207
300 2261
300 2297
300 2305
300 2318
300 2353
300 2421
300 2489
300 2548
300 2612
300 2631
300 2635
300 2639
300 2653
301 1965
302 716
302 799
302 801
302 1084
302 1759
302 2249
302 2252
302 2304
303 359
303 377
303 379
303 430
303 518
303 533
303 595
303 609
303 622
303 627
303 643
303 652
303 661
303 663
303 673
303 675
303 722
303 793
303 874
303 880
303 941
303 957
303 1032
303 1036
303 1040
303 1068
303 1070
303 1093
303 1132
303 1168
303 1215
303 1268
303 1274
303 1329
303 1340
303 1357
303 1360
303 1364
303 1391
303 1400
303 1471
303 1492
303 1511
303 1525
303 1558
303 1560
303 1614
303 1630
303 1636
303 1659
303 1674
303 1681
303 1703
303 1711
303 1722
303 1726
303 1747
303 1791
303 1848
303 1877
303 1911
303 1977
303 1986
303 1995
303 2011
303 2017
303 2115
303 2124
303 2136
303 2154
303 2157
303 2185
303 2204
303 2218
303 2230
303 2255
303 2271
303 2285
303 2289
303 2292
303 2295
303 2300
303 2328
303 2331
303 2339
303 2349
303 2350
303 2375
303 2495
303 2580
303 2618
303 2652
303 2666
304 400
304 592
304 991
304 1091
304 1119
304 1290
304 1561
304 1723
304 1822
304 1863
304 1870
304 2297
304 2579
304 2664
305 1021
305 1368
305 1539
305 1788
305 2232
305 2370
306 335
306 406
306 528
306 552
306 677
306 688
306 706
306 766
306 855
306 897
306 964
306 993
306 997
306 1060
306 1103
306 1158
306 1229
306 1272
306 1282
306 1286
306 1356
306 1397
306 1403
306 1468
306 1507
306 1509
306 1566
306 1588
306 1594
306 1622
306 1671
306 1746
306 1760
306 1803
306 1831
306 1840
306 1852
306 1881
306 1910
306 1947
306 2051
306 2112
306 2163
306 2202
306 2221
306 2228
306 2408
306 2410
306 2413
306 2421
306 2474
306 2492
306 2515
306 2526
306 2538
306 2544
306 2547
306 2608
306 2616
306 2634
307 347
307 455
307 949
307 1166
307 1270
307 1534
307 1675
307 1737
307 1885
307 2222
307 2312
307 2425
307 2544
307 2574
307 2660
308 321
308 481
308 497
308 505
308 605
308 625
308 660
308 678
308 857
308 884
308 941
308 1198
308 1203
308 1231
308 1257
308 1335
308 1525
308 1573
308 1575
308 1636
308 1667
308 1759
308 1841
308 1980
308 1986
308 2005
308 2015
308 2129
308 2136
308 2170
308 2179
308 2292
308 2374
308 2386
308 2407
308 2445
308 2447
308 2565
308 2666
309 321
309 449
309 477
309 527
309 567
309 570
309 581
309 649
309 703
309 778
309 795
309 820
309 835
309 842
309 865
309 888
309 949
309 1025
309 1031
309 1041
309 1072
309 1119
309 1127
309 1152
309 1235
309 1244
309 1246
309 1276
309 1278
309 1322
309 1343
309 1411
309 1419
309 1430
309 1457
309 1484
309 1491
309 1506
309 1533
309 1545
309 1548
309 1559
309 1571
309 1588
309 1601
309 1727
309 1788
309 1796
309 1799
309 1809
309 1817
309 1834
309 1838
309 1845
309 1923
309 1958
309 2016
309 2119
309 2142
309 2152
309 2160
309 2162
309 2192
309 2209
309 2294
309 2309
309 2352
309 2363
309 2379
309 2406
309 2413
309 2422
309 2457
309 2475
309 2505
309 2540
309 2553
309 2554
309 2655
309 2676
310 321
310 433
310 503
310 524
310 553
310 564
310 631
310 679
310 690
310 700
310 726
310 742
310 757
310 842
310 864
310 910
310 917
310 921
310 962
310 973
310 1120
310 1151
310 1164
310 1165
310 1200
310 1337
310 1343
310 1353
310 1362
310 1404
310 1455
310 1466
310 1537
310 1561
310 1577
310 1709
310 1742
310 1752
310 1795
310 1798
310 1822
310 1829
310 1832
310 1862
310 1894
310 1901
310 1904
310 1933
310 1934
310 2071
310 2078
310 2090
310 2099
310 2105
310 2143
310 2149
310 2179
310 2199
310 2200
310 2262
310 2282
310 2288
310 2361
310 2367
310 2461
310 2481
310 2490
310 2500
310 2501
310 2532
310 2594
310 2608
310 2614
310 2659
311 332
311 406
311 416
311 499
311 584
311 600
311 644
311 800
311 822
311 855
311 885
311 891
311 920
311 930
311 937
311 1049
311 1082
311 1086
311 1135
311 1171
311 1239
311 1248
311 1275
311 1350
311 1410
311 1584
311 1629
311 1686
311 1705
311 1723
311 1724
311 1758
311 1779
311 1784
311 1825
311 1935
311 2024
311 2074
311 2083
311 2126
311 2135
311 2163
311 2182
311 2202
311 2213
311 2228
311 2251
311 2290
311 2313
311 2327
311 2335
311 2370
311 2377
311 2398
311 2453
311 2460
311 2474
311 2544
311 2586
311 2589
311 2617
311 2629
311 2634
312 369
312 377
312 450
312 561
312 689
312 692
312 854
312 874
312 880
312 906
312 941
312 1006
312 1026
312 1071
312 1125
312 1235
312 1268
312 1291
312 1414
312 1549
312 1703
312 1707
312 1744
312 1792
312 1932
312 1975
312 2115
312 2134
312 2154
312 2194
312 2292
312 2328
312 2350
312 2396
312 2510
312 2516
312 2541
312 2568
312 2580
312 2652
312 2672
313 387
313 421
313 430
313 448
313 486
313 498
313 528
313 529
313 542
313 552
313 570
313 624
313 627
313 645
313 703
313 704
313 710
313 757
313 766
313 769
313 781
313 844
313 855
313 877
313 880
313 897
313 922
313 923
313 953
313 1039
313 1062
313 1102
313 1108
313 1120
313 1159
313 1235
313 1248
313 1262
313 1268
313 1278
313 1291
313 1298
313 1301
313 1344
313 1356
313 1372
313 1475
313 1476
313 1497
313 1537
313 1549
313 1569
313 1584
313 1588
313 1594
313 1625
313 1657
313 1686
313 1698
313 1705
313 1709
313 1717
313 1744
313 1770
313 1824
313 1863
313 1868
313 1910
313 1919
313 1996
313 2038
313 2042
313 2053
313 2073
313 2095
313 2163
313 2180
313 2183
313 2221
313 2318
313 2327
313 2421
313 2479
313 2496
313 2518
313 2553
313 2556
313 2559
313 2585
313 2649
314 551
314 561
314 581
314 595
314 610
314 613
314 615
314 663
314 678
314 702
314 716
314 857
314 860
314 861
314 874
314 919
314 941
314 987
314 1001
314 1203
314 1215
314 1256
314 1268
314 1326
314 1329
314 1347
314 1357
314 1358
314 1359
314 1391
314 1492
314 1537
314 1558
314 1628
314 1636
314 1667
314 1680
314 1681
314 1711
314 1743
314 1814
314 1874
314 1877
314 1930
314 1985
314 1986
314 2003
314 2015
314 2065
314 2157
314 2167
314 2185
314 2219
314 2252
314 2270
314 2331
314 2349
314 2516
314 2555
314 2666
315 452
315 486
315 669
315 991
315 1028
315 1422
315 1468
315 1478
315 1623
315 1696
315 1931
315 2228
315 2460
315 2629
316 347
316 549
316 557
316 575
316 576
316 606
316 682
316 691
316 697
316 876
316 943
316 963
316 1091
316 1205
316 1223
316 1442
316 1562
316 1745
316 1795
316 1938
316 2038
316 2078
316 2080
316 2171
316 2264
316 2277
316 2283
316 2352
316 2361
316 2467
316 2570
316 2598
316 2651
317 336
317 493
317 508
317 517
317 634
317 699
317 852
317 866
317 921
317 963
317 1111
317 1117
317 1126
317 1217
317 1284
317 1346
317 1494
317 1495
317 1676
317 1685
317 1730
317 1733
317 1797
317 1898
317 1903
317 2016
317 2263
317 2432
317 2452
317 2455
317 2467
317 2478
317 2483
317 2593
317 2623
317 2677
318 331
318 508
318 606
318 642
318 665
318 691
318 737
318 772
318 822
318 921
318 939
318 954
318 960
318 963
318 981
318 1044
318 1111
318 1166
318 1242
318 1255
318 1271
318 1289
318 1395
318 1489
318 1546
318 1570
318 1608
318 1615
318 1617
318 1733
318 1767
318 1840
318 1887
318 1897
318 1908
318 1941
318 1994
318 2164
318 2347
318 2365
318 2392
318 2401
318 2432
318 2453
318 2521
318 2570
318 2586
318 2623
318 2628
319 335
319 455
319 469
319 575
319 582
319 677
319 682
319 709
319 809
319 855
319 878
319 985
319 993
319 1028
319 1093
319 1126
319 1141
319 1153
319 1158
319 1227
319 1229
319 1233
319 1244
319 1246
319 1263
319 1264
319 1272
319 1275
319 1286
319 1353
319 1365
319 1374
319 1428
319 1430
319 1579
319 1672
319 1675
319 1737
319 1746
319 1748
319 1757
319 1773
319 1797
319 1827
319 1855
319 1915
319 1947
319 1963
319 1982
319 2048
319 2050
319 2091
319 2104
319 2137
319 2213
319 2233
319 2240
319 2269
319 2286
319 2290
319 2302
319 2303
319 2352
319 2409
319 2492
319 2523
319 2596
319 2598
319 2639
319 2651
319 2660
319 2671
319 2673
320 353
320 984
320 1448
320 1729
320 1741
320 1789
320 1801
320 2175
320 2217
321 324
321 336
321 362
321 380
321 382
321 399
321 482
321 524
321 574
321 620
321 622
321 679
321 684
321 708
321 742
321 755
321 798
321 803
321 804
321 805
321 846
321 852
321 887
321 888
321 894
321 931
321 962
321 981
321 1013
321 1017
321 1098
321 1100
321 1119
321 1151
321 1184
321 1237
321 1244
321 1257
321 1263
321 1296
321 1307
321 1335
321 1350
321 1362
321 1416
321 1425
321 1427
321 1474
321 1504
321 1506
321 1548
321 1575
321 1586
321 1687
321 1689
321 1691
321 1708
321 1714
321 1798
321 1813
321 1819
321 1822
321 1847
321 1852
321 1870
321 1903
321 1979
321 1980
321 2039
321 2090
321 2112
321 2140
321 2170
321 2172
321 2179
321 2184
321 2196
321 2209
321 2225
321 2266
321 2302
321 2307
321 2309
321 2361
321 2365
321 2445
321 2457
321 2500
321 2522
321 2536
321 2583
321 2586
321 2622
321 2657
321 2661
322 444
322 492
322 638
322 654
322 843
322 927
322 1008
322 1195
322 1281
322 1284
322 1368
322 1412
322 1426
322 1790
322 1813
322 2068
322 2162
322 2360
322 2398
323 326
323 552
323 558
323 600
323 672
323 755
323 901
323 972
323 1062
323 1081
323 1082
323 1159
323 1239
323 1282
323 1350
323 1356
323 1390
323 1475
323 1540
323 1541
323 1594
323 1638
323 1713
323 1717
323 1840
323 1881
323 1883
323 1931
323 2112
323 2182
323 2268
323 2444
323 2629
323 2633
324 336
324 362
324 491
324 509
324 603
324 608
324 701
324 849
324 939
324 963
324 999
324 1020
324 1021
324 1284
324 1397
324 1416
324 1542
324 1849
324 1899
324 1979
324 1980
324 2016
324 2075
324 2141
324 2179
324 2351
324 2483
324 2605
325 328
325 332
325 337
325 372
325 410
325 428
325 452
325 499
325 543
325 734
325 778
325 783
325 800
325 811
325 822
325 876
325 896
325 930
325 1049
325 1060
325 1232
325 1265
325 1336
325 1392
325 1434
325 1530
325 1597
325 1659
325 1696
325 1795
325 1825
325 1890
325 1907
325 1917
325 2039
325 2056
325 2203
325 2228
325 2460
326 471
326 498
326 579
326 600
326 799
326 895
326 990
326 1062
326 1091
326 1124
326 1291
326 1356
326 1456
326 1481
326 1494
326 1541
326 1574
326 1678
326 1688
326 1739
326 1837
326 1979
326 1999
326 2112
326 2182
326 2370
326 2668
327 629
327 736
327 813
327 1156
327 1837
327 1912
327 2646
328 332
328 354
328 372
328 412
328 416
328 423
328 437
328 470
328 498
328 504
328 536
328 543
328 584
328 614
328 666
328 674
328 681
328 691
328 765
328 772
328 863
328 876
328 891
328 928
328 930
328 970
328 978
328 986
328 990
328 996
328 1015
328 1039
328 1048
328 1055
328 1058
328 1072
328 1108
328 1186
328 1247
328 1259
328 1309
328 1355
328 1487
328 1570
328 1581
328 1612
328 1683
328 1697
328 1733
328 1778
328 1779
328 1821
328 1825
328 1837
328 1840
328 1858
328 1869
328 1897
328 1912
328 1916
328 1917
328 1928
328 1941
328 2025
328 2034
328 2202
328 2206
328 2210
328 2213
328 2228
328 2316
328 2333
328 2334
328 2392
328 2403
328 2417
328 2421
328 2453
328 2489
328 2491
328 2507
328 2607
328 2608
328 2633
328 2665
328 2667
329 372
329 393
329 454
329 470
329 498
329 509
329 527
329 543
329 681
329 703
329 844
329 891
329 958
329 989
329 990
329 1025
329 1073
329 1086
329 1170
329 1199
329 1202
329 1204
329 1252
329 1291
329 1487
329 1528
329 1541
329 1571
329 1575
329 1678
329 1686
329 1729
329 1758
329 1779
329 1837
329 1840
329 1881
329 1912
329 1916
329 1917
329 2034
329 2039
329 2126
329 2163
329 2210
329 2211
329 2228
329 2327
329 2343
329 2460
329 2474
329 2491
329 2509
329 2515
329 2536
329 2551
329 2633
330 331
330 402
330 430
330 479
330 521
330 538
330 553
330 628
330 631
330 684
330 700
330 708
330 757
330 799
330 803
330 820
330 858
330 864
330 910
330 917
330 960
330 962
330 973
330 1089
330 1164
330 1172
330 1236
330 1255
330 1296
330 1337
330 1404
330 1455
330 1481
330 1504
330 1537
330 1539
330 1549
330 1567
330 1574
330 1607
330 1709
330 1752
330 1806
330 1822
330 1862
330 1868
330 1904
330 1979
330 2058
330 2073
330 2099
330 2164
330 2262
330 2282
330 2321
330 2329
330 2377
330 2479
330 2481
330 2490
330 2500
330 2572
330 2594
330 2614
330 2659
331 376
331 395
331 503
331 508
331 509
331 543
331 606
331 665
331 697
331 738
331 772
331 776
331 784
331 800
331 819
331 822
331 862
331 910
331 921
331 927
331 931
331 932
331 954
331 960
331 981
331 1030
331 1044
331 1119
331 1151
331 1189
331 1242
331 1255
331 1271
331 1395
331 1500
331 1546
331 1562
331 1570
331 1608
331 1610
331 1617
331 1618
331 1634
331 1733
331 1758
331 1767
331 1777
331 1778
331 1798
331 1840
331 1855
331 1871
331 1887
331 1897
331 1912
331 1916
331 1940
331 1941
331 2062
331 2083
331 2118
331 2140
331 2164
331 2171
331 2179
331 2211
331 2228
331 2278
331 2290
331 2296
331 2326
331 2347
331 2392
331 2401
331 2453
331 2468
331 2480
331 2488
331 2533
331 2570
331 2605
331 2607
331 2611
331 2623
331 2628
331 2633
331 2634
332 354
332 372
332 393
332 395
332 423
332 428
332 430
332 437
332 444
332 452
332 454
332 467
332 470
332 471
332 498
332 525
332 543
332 549
332 571
332 584
332 585
332 614
332 617
332 620
332 674
332 720
332 765
332 777
332 794
332 806
332 811
332 881
332 891
332 892
332 910
332 913
332 920
332 923
332 930
332 970
332 990
332 996
332 1028
332 1029
332 1037
332 1039
332 1052
332 1060
332 1108
332 1144
332 1169
332 1182
332 1186
332 1202
332 1228
332 1248
332 1270
332 1272
332 1301
332 1309
332 1310
332 1334
332 1347
332 1410
332 1462
332 1477
332 1479
332 1487
332 1529
332 1541
332 1581
332 1591
332 1612
332 1623
332 1629
332 1692
332 1696
332 1697
332 1699
332 1713
332 1724
332 1760
332 1778
332 1779
332 1795
332 1824
332 1825
332 1837
332 1840
332 1871
332 1907
332 1912
332 1916
332 1917
332 1929
332 1994
332 2034
332 2037
332 2039
332 2083
332 2135
332 2182
332 2189
332 2202
332 2203
332 2206
332 2213
332 2221
332 2228
332 2243
332 2269
332 2278
332 2313
332 2327
332 2335
332 2336
332 2347
332 2370
332 2395
332 2413
332 2417
332 2421
332 2423
332 2453
332 2528
332 2544
332 2570
332 2586
332 2615
332 2617
332 2618
332 2633
332 2634
333 336
333 347
333 409
333 412
333 417
333 431
333 455
333 462
333 522
333 541
333 549
333 569
333 589
333 590
333 599
333 601
333 612
333 614
333 619
333 721
333 792
333 846
333 858
333 892
333 894
333 895
333 910
333 915
333 943
333 949
333 970
333 975
333 984
333 985
333 1028
333 1030
333 1056
333 1093
333 1122
333 1126
333 1129
333 1138
333 1195
333 1202
333 1218
333 1226
333 1247
333 1266
333 1272
333 1280
333 1295
333 1314
333 1316
333 1345
333 1348
333 1389
333 1412
333 1494
333 1498
333 1502
333 1503
333 1510
333 1545
333 1548
333 1558
333 1588
333 1597
333 1618
333 1664
333 1675
333 1699
333 1706
333 1715
333 1737
333 1794
333 1918
333 1945
333 1954
333 1984
333 2016
333 2021
333 2038
333 2050
333 2200
333 2201
333 2212
333 2231
333 2246
333 2258
333 2282
333 2289
333 2306
333 2330
333 2362
333 2380
333 2437
333 2457
333 2464
333 2469
333 2520
333 2546
333 2550
333 2576
333 2616
333 2618
333 2636
333 2645
333 2662
334 346
334 358
334 362
334 382
334 402
334 482
334 491
334 503
334 538
334 592
334 603
334 608
334 616
334 635
334 641
334 655
334 685
334 726
334 798
334 803
334 848
334 849
334 854
334 858
334 894
334 960
334 981
334 999
334 1016
334 1042
334 1046
334 1094
334 1100
334 1138
334 1172
334 1244
334 1252
334 1265
334 1284
334 1296
334 1299
334 1378
334 1397
334 1409
334 1412
334 1413
334 1553
334 1689
334 1764
334 1864
334 1969
334 1979
334 1980
334 2177
334 2188
334 2200
334 2212
334 2370
334 2457
334 2483
334 2501
334 2514
334 2605
334 2616
334 2636
334 2657
334 2659
334 2673
335 352
335 360
335 406
335 455
335 457
335 469
335 484
335 562
335 582
335 666
335 677
335 697
335 721
335 728
335 746
335 749
335 768
335 808
335 809
335 818
335 836
335 855
335 876
335 878
335 913
335 920
335 953
335 975
335 993
335 1028
335 1042
335 1091
335 1093
335 1112
335 1120
335 1126
335 1136
335 1141
335 1142
335 1153
335 1158
335 1206
335 1229
335 1264
335 1272
335 1286
335 1290
335 1295
335 1351
335 1365
335 1371
335 1374
335 1377
335 1379
335 1411
335 1426
335 1428
335 1463
335 1466
335 1473
335 1498
335 1500
335 1539
335 1558
335 1562
335 1579
335 1586
335 1671
335 1673
335 1713
335 1719
335 1723
335 1730
335 1746
335 1748
335 1750
335 1757
335 1782
335 1797
335 1799
335 1839
335 1846
335 1895
335 1918
335 1947
335 1967
335 1998
335 2000
335 2002
335 2011
335 2025
335 2068
335 2104
335 2119
335 2137
335 2171
335 2177
335 2240
335 2269
335 2286
335 2290
335 2387
335 2399
335 2437
335 2467
335 2471
335 2488
335 2492
335 2523
335 2524
335 2544
335 2578
335 2588
335 2651
335 2658
335 2671
335 2676
336 346
336 357
336 477
336 496
336 509
336 574
336 590
336 620
336 666
336 768
336 778
336 848
336 852
336 855
336 858
336 888
336 894
336 956
336 1020
336 1030
336 1066
336 1093
336 1100
336 1206
336 1237
336 1244
336 1263
336 1349
336 1403
336 1416
336 1430
336 1495
336 1533
336 1558
336 1575
336 1664
336 1721
336 1733
336 1755
336 1760
336 1797
336 1809
336 1843
336 1847
336 1890
336 1899
336 1903
336 1968
336 1980
336 2016
336 2063
336 2141
336 2172
336 2201
336 2212
336 2280
336 2294
336 2302
336 2309
336 2319
336 2351
336 2365
336 2457
336 2569
336 2593
336 2598
336 2609
337 783
337 1126
338 991
338 1046
338 1119
338 1459
338 1790
338 1883
338 2398
338 2460
338 2524
339 451
339 462
339 572
339 1093
339 2464
340 592
340 599
340 699
340 868
340 1124
340 1285
340 1748
340 1864
340 2604
341 817
341 1380
341 1486
341 1851
341 2282
342 398
342 403
342 473
342 519
342 528
342 529
342 537
342 545
342 567
342 570
342 598
342 735
342 747
342 769
342 795
342 835
342 847
342 865
342 901
342 923
342 951
342 953
342 957
342 1012
342 1031
342 1061
342 1102
342 1128
342 1175
342 1223
342 1235
342 1245
342 1278
342 1343
342 1384
342 1411
342 1518
342 1530
342 1541
342 1574
342 1585
342 1597
342 1599
342 1622
342 1649
342 1770
342 1838
342 1934
342 2039
342 2042
342 2182
342 2353
342 2422
342 2486
342 2496
342 2585
342 2591
342 2655
343 452
343 1011
343 1021
343 1034
343 1138
343 1151
343 1206
343 1231
343 1503
343 1524
343 1545
343 1575
343 1798
343 2016
343 2046
343 2179
343 2205
343 2380
343 2386
344 401
344 946
344 972
344 1093
344 1544
344 1712
344 1885
344 2517
345 384
345 646
345 1305
345 1515
345 1975
345 1988
345 2169
345 2600
346 406
346 509
346 540
346 608
346 620
346 666
346 740
346 846
346 848
346 849
346 858
346 943
346 956
346 1016
346 1046
346 1093
346 1100
346 1104
346 1126
346 1138
346 1172
346 1218
346 1230
346 1237
346 1284
346 1299
346 1416
346 1430
346 1510
346 1565
346 1569
346 1574
346 1575
346 1639
346 1675
346 1721
346 1797
346 1798
346 1864
346 1903
346 1920
346 1979
346 1980
346 2016
346 2320
346 2341
346 2351
346 2365
346 2451
346 2483
346 2501
346 2570
346 2593
346 2609
347 357
347 406
347 457
347 472
347 476
347 479
347 492
347 496
347 510
347 515
347 524
347 531
347 549
347 575
347 576
347 603
347 606
347 608
347 666
347 682
347 719
347 738
347 746
347 770
347 772
347 805
347 824
347 831
347 842
347 876
347 877
347 888
347 896
347 899
347 943
347 949
347 956
347 964
347 975
347 991
347 1028
347 1072
347 1091
347 1093
347 1100
347 1119
347 1138
347 1142
347 1166
347 1189
347 1226
347 1263
347 1270
347 1275
347 1286
347 1295
347 1363
347 1405
347 1412
347 1430
347 1440
347 1442
347 1466
347 1473
347 1474
347 1491
347 1494
347 1510
347 1558
347 1575
347 1579
347 1608
347 1675
347 1708
347 1719
347 1721
347 1730
347 1736
347 1737
347 1745
347 1750
347 1796
347 1797
347 1829
347 1830
347 1860
347 1871
347 1903
347 1905
347 1916
347 1954
347 2016
347 2025
347 2048
347 2080
347 2084
347 2151
347 2189
347 2199
347 2209
347 2212
347 2215
347 2222
347 2228
347 2231
347 2233
347 2235
347 2264
347 2269
347 2283
347 2294
347 2299
347 2309
347 2330
347 2361
347 2365
347 2367
347 2377
347 2380
347 2385
347 2387
347 2399
347 2406
347 2437
347 2467
347 2539
347 2570
347 2588
347 2593
347 2598
347 2634
347 2637
347 2648
347 2658
347 2677
348 467
348 518
348 537
348 645
348 663
348 693
348 694
348 902
348 965
348 1026
348 1093
348 1181
348 1331
348 1341
348 1358
348 1396
348 1513
348 1583
348 1702
348 1735
348 1744
348 1768
348 1814
348 1961
348 2009
348 2015
348 2166
348 2331
348 2340
349 369
349 2615
350 406
350 437
350 508
350 576
350 666
350 738
350 930
350 986
350 1011
350 1041
350 1105
350 1138
350 1206
350 1270
350 1503
350 1529
350 1542
350 1737
350 1916
350 2021
350 2025
350 2588
350 2598
350 2666
350 2677
351 358
351 363
351 368
351 457
351 469
351 482
351 522
351 524
351 599
351 616
351 633
351 635
351 641
351 647
351 655
351 666
351 700
351 706
351 708
351 726
351 737
351 738
351 746
351 770
351 792
351 801
351 815
351 991
351 1072
351 1074
351 1119
351 1138
351 1172
351 1292
351 1299
351 1363
351 1397
351 1412
351 1444
351 1474
351 1484
351 1502
351 1503
351 1536
351 1570
351 1618
351 1633
351 1685
351 1699
351 1724
351 1760
351 1769
351 1819
351 1858
351 1883
351 1897
351 1939
351 1941
351 1965
351 1979
351 1983
351 2010
351 2016
351 2046
351 2050
351 2062
351 2112
351 2118
351 2151
351 2234
351 2312
351 2346
351 2362
351 2399
351 2435
351 2501
351 2539
351 2570
351 2586
351 2608
351 2673
351 2674
352 398
352 562
352 569
352 749
352 790
352 818
352 949
352 975
352 984
352 1188
352 1229
352 1268
352 1272
352 1286
352 1377
352 1406
352 1428
352 1498
352 1500
352 1587
352 1649
352 1719
352 1721
352 1757
352 1762
352 1788
352 1858
352 1954
352 2014
352 2051
352 2101
352 2142
352 2155
352 2208
352 2239
352 2387
352 2520
352 2588
352 2591
352 2630
352 2676
353 412
353 498
353 504
353 584
353 822
353 856
353 872
353 910
353 1041
353 1063
353 1220
353 1264
353 1309
353 1339
353 1364
353 1448
353 1546
353 1589
353 1729
353 1741
353 1801
353 1885
353 1917
353 2175
353 2217
353 2339
353 2395
353 2517
353 2587
353 2607
353 2612
353 2626
353 2627
354 423
354 470
354 504
354 543
354 620
354 674
354 758
354 891
354 930
354 961
354 989
354 996
354 1039
354 1041
354 1055
354 1086
354 1108
354 1186
354 1301
354 1398
354 1487
354 1529
354 1581
354 1824
354 1837
354 1890
354 1917
354 2034
354 2163
354 2202
354 2228
354 2417
354 2491
354 2494
355 541
355 602
355 681
355 850
355 891
355 998
355 1011
355 1046
355 1065
355 1570
355 1661
355 1798
355 1914
355 2046
355 2100
355 2177
355 2284
355 2319
355 2583
355 2608
355 2623
356 651
356 704
356 713
356 758
356 765
356 913
356 990
356 1042
356 1103
356 1175
356 1282
356 1422
356 1439
356 1582
356 1584
356 1784
356 1794
356 1817
356 1831
356 1919
356 1945
356 2110
356 2421
356 2432
356 2507
356 2515
356 2608
357 372
357 493
357 531
357 590
357 666
357 867
357 876
357 971
357 985
357 1093
357 1166
357 1187
357 1206
357 1212
357 1275
357 1309
357 1442
357 1467
357 1558
357 1616
357 1766
357 1797
357 1903
357 2025
357 2079
357 2091
357 2151
357 2231
357 2246
357 2264
357 2283
357 2302
357 2385
357 2467
357 2574
357 2598
357 2623
357 2639
358 363
358 368
358 469
358 522
358 600
358 616
358 631
358 633
358 647
358 655
358 664
358 695
358 700
358 706
358 726
358 746
358 770
358 786
358 792
358 798
358 862
358 864
358 1021
358 1043
358 1074
358 1095
358 1119
358 1139
358 1207
358 1255
358 1299
358 1347
358 1363
358 1444
358 1466
358 1474
358 1484
358 1502
358 1503
358 1505
358 1536
358 1539
358 1633
358 1642
358 1699
358 1724
358 1725
358 1760
358 1769
358 1795
358 1819
358 1835
358 1858
358 1904
358 1937
358 1939
358 1979
358 2010
358 2046
358 2074
358 2099
358 2112
358 2118
358 2146
358 2160
358 2186
358 2199
358 2232
358 2234
358 2312
358 2362
358 2437
358 2497
358 2501
358 2539
358 2544
358 2618
358 2636
358 2671
358 2674
359 365
359 682
359 778
359 952
359 1018
359 1070
359 1341
359 1429
359 1533
359 1560
359 1590
359 1703
359 1749
359 1922
359 1985
359 2146
359 2156
359 2157
359 2204
359 2230
359 2393
359 2450
359 2495
359 2516
359 2517
359 2621
360 395
360 406
360 469
360 484
360 566
360 596
360 612
360 682
360 720
360 728
360 862
360 913
360 926
360 993
360 1126
360 1158
360 1166
360 1233
360 1272
360 1332
360 1361
360 1380
360 1401
360 1472
360 1519
360 1579
360 1613
360 1635
360 1675
360 1699
360 1713
360 1846
360 1870
360 1918
360 1942
360 1979
360 1998
360 2286
360 2377
360 2492
360 2599
360 2651
360 2660
360 2671
361 372
361 387
361 452
361 492
361 903
361 1089
361 1126
361 1220
361 1229
361 1327
361 1403
361 1406
361 1428
361 1437
361 1500
361 1521
361 1627
361 1649
361 1745
361 1798
361 1839
361 1944
361 2164
361 2187
361 2311
361 2370
361 2371
361 2403
361 2467
361 2469
361 2480
361 2515
361 2588
361 2631
362 452
362 479
362 482
362 491
362 494
362 522
362 524
362 528
362 529
362 570
362 576
362 580
362 592
362 603
362 608
362 651
362 665
362 666
362 669
362 699
362 715
362 726
362 742
362 753
362 765
362 801
362 803
362 824
362 831
362 848
362 849
362 858
362 896
362 910
362 939
362 962
362 990
362 991
362 998
362 999
362 1021
362 1034
362 1045
362 1065
362 1100
362 1124
362 1127
362 1129
362 1138
362 1151
362 1162
362 1172
362 1195
362 1206
362 1214
362 1230
362 1231
362 1244
362 1271
362 1285
362 1297
362 1353
362 1362
362 1378
362 1397
362 1409
362 1427
362 1430
362 1464
362 1480
362 1489
362 1494
362 1524
362 1534
362 1537
362 1545
362 1547
362 1575
362 1607
362 1687
362 1688
362 1691
362 1692
362 1696
362 1708
362 1709
362 1729
362 1739
362 1760
362 1770
362 1795
362 1798
362 1837
362 1869
362 1883
362 1890
362 1893
362 1923
362 1969
362 1979
362 1980
362 2016
362 2039
362 2062
362 2151
362 2177
362 2179
362 2201
362 2205
362 2212
362 2231
362 2232
362 2261
362 2309
362 2361
362 2367
362 2370
362 2386
362 2390
362 2426
362 2452
362 2459
362 2501
362 2561
362 2593
362 2604
362 2617
362 2657
362 2659
362 2673
363 368
363 457
363 616
363 631
363 633
363 664
363 700
363 730
363 751
363 763
363 770
363 792
363 895
363 1043
363 1074
363 1107
363 1151
363 1271
363 1299
363 1363
363 1444
363 1474
363 1484
363 1502
363 1503
363 1536
363 1618
363 1639
363 1688
363 1724
363 1760
363 1769
363 1819
363 1937
363 1939
363 1999
363 2046
363 2062
363 2074
363 2084
363 2112
363 2127
363 2261
363 2294
363 2312
363 2346
363 2361
363 2362
363 2367
363 2369
363 2539
364 673
364 1093
364 2340
365 379
365 605
365 613
365 615
365 627
365 722
365 793
365 835
365 876
365 1014
365 1040
365 1067
365 1325
365 1447
365 1492
365 1502
365 1962
365 2011
365 2059
365 2194
365 2231
365 2375
365 2450
365 2495
365 2541
366 663
366 1056
366 1257
366 1341
366 1629
366 2005
366 2102
366 2124
366 2328
366 2350
366 2510
366 2516
367 496
367 607
367 622
367 643
367 658
367 673
367 793
367 849
367 860
367 907
367 946
367 972
367 988
367 1001
367 1069
367 1079
367 1147
367 1326
367 1334
367 1359
367 1376
367 1381
367 1454
367 1457
367 1544
367 1560
367 1590
367 1621
367 1712
367 1722
367 1781
367 1784
367 1850
367 1885
367 1986
367 2069
367 2084
367 2123
367 2157
367 2270
367 2271
367 2293
367 2349
367 2450
367 2473
367 2495
367 2517
367 2555
368 395
368 428
368 453
368 522
368 551
368 561
368 577
368 600
368 616
368 618
368 628
368 631
368 633
368 635
368 641
368 647
368 664
368 695
368 700
368 706
368 708
368 718
368 726
368 728
368 770
368 786
368 792
368 862
368 914
368 919
368 954
368 1043
368 1065
368 1074
368 1119
368 1126
368 1138
368 1151
368 1185
368 1205
368 1207
368 1288
368 1296
368 1299
368 1347
368 1363
368 1392
368 1444
368 1472
368 1474
368 1484
368 1502
368 1503
368 1536
368 1570
368 1601
368 1613
368 1618
368 1724
368 1760
368 1769
368 1795
368 1819
368 1835
368 1845
368 1858
368 1897
368 1937
368 1939
368 1941
368 1979
368 2010
368 2028
368 2046
368 2062
368 2074
368 2112
368 2200
368 2228
368 2234
368 2244
368 2247
368 2312
368 2346
368 2362
368 2435
368 2460
368 2469
368 2501
368 2512
368 2516
368 2539
368 2544
368 2570
368 2599
368 2618
368 2623
368 2634
368 2636
368 2659
368 2673
368 2674
368 2676
369 377
369 420
369 435
369 450
369 537
369 565
369 605
369 645
369 661
369 662
369 673
369 689
369 696
369 716
369 723
369 854
369 988
369 1026
369 1201
369 1234
369 1274
369 1358
369 1583
369 1636
369 1658
369 1702
369 1707
369 1722
369 1744
369 1848
369 1909
369 1932
369 2123
369 2194
369 2218
369 2220
369 2253
369 2257
369 2333
369 2350
369 2375
369 2405
369 2503
369 2568
369 2597
369 2612
369 2652
369 2672
370 574
370 1174
370 1239
370 1267
370 1575
370 1578
370 1915
370 2147
370 2268
370 2423
371 525
371 529
371 600
371 619
371 635
371 822
371 876
371 901
371 950
371 972
371 1042
371 1054
371 1105
371 1138
371 1239
371 1282
371 1295
371 1299
371 1361
371 1472
371 1540
371 1541
371 1638
371 1697
371 1699
371 1840
371 1883
371 1917
371 1931
371 2037
371 2112
371 2182
371 2203
371 2228
371 2241
371 2313
371 2354
371 2368
371 2417
371 2464
371 2501
371 2507
371 2570
371 2603
371 2634
371 2673
372 393
372 437
372 452
372 493
372 498
372 525
372 584
372 619
372 674
372 727
372 794
372 800
372 811
372 812
372 813
372 840
372 867
372 872
372 881
372 895
372 898
372 920
372 950
372 972
372 989
372 996
372 1065
372 1066
372 1073
372 1108
372 1123
372 1169
372 1175
372 1186
372 1187
372 1192
372 1199
372 1202
372 1206
372 1212
372 1220
372 1259
372 1262
372 1270
372 1282
372 1355
372 1372
372 1398
372 1442
372 1461
372 1477
372 1494
372 1541
372 1571
372 1600
372 1612
372 1616
372 1697
372 1713
372 1840
372 1912
372 1917
372 1928
372 2045
372 2068
372 2144
372 2180
372 2182
372 2203
372 2210
372 2226
372 2228
372 2324
372 2334
372 2358
372 2403
372 2417
372 2470
372 2474
372 2489
372 2491
372 2507
372 2515
372 2528
372 2556
372 2608
372 2665
373 607
373 723
373 968
373 1014
373 1053
373 1067
373 1311
373 2257
373 2355
373 2484
373 2633
374 377
374 417
374 663
374 902
374 904
374 941
374 1114
374 1201
374 1430
374 1647
374 1702
374 1743
374 1763
374 1814
374 1979
374 2012
374 2111
374 2146
374 2245
374 2297
374 2428
374 2439
374 2506
375 532
375 588
375 890
375 1494
375 1542
375 1660
375 2010
375 2411
375 2514
375 2522
375 2593
376 631
376 772
376 784
376 819
376 862
376 981
376 1330
376 1427
376 1610
376 1634
376 1767
376 1940
376 2468
376 2566
376 2595
377 384
377 420
377 450
377 605
377 645
377 661
377 663
377 692
377 754
377 793
377 874
377 902
377 906
377 1093
377 1116
377 1125
377 1243
377 1329
377 1357
377 1360
377 1558
377 1628
377 1636
377 1641
377 1674
377 1703
377 1722
377 1744
377 1814
377 1823
377 1975
377 1995
377 2054
377 2084
377 2136
377 2150
377 2185
377 2194
377 2220
377 2242
377 2270
377 2297
377 2349
377 2350
377 2405
377 2510
377 2568
377 2652
378 840
378 919
378 2257
378 2438
378 2564
379 537
379 793
379 1026
379 1079
379 1414
379 1606
379 1703
379 1744
379 1823
379 2005
379 2157
379 2185
379 2195
380 409
380 511
380 526
380 569
380 576
380 675
380 768
380 846
380 867
380 871
380 895
380 971
380 1017
380 1040
380 1121
380 1136
380 1229
380 1269
380 1307
380 1339
380 1340
380 1364
380 1377
380 1447
380 1502
380 1630
380 1650
380 1659
380 1715
380 1762
380 1779
380 1843
380 1971
380 1979
380 2011
380 2101
380 2112
380 2175
380 2201
380 2240
380 2289
380 2375
380 2387
380 2451
380 2464
380 2587
380 2618
381 406
381 541
381 544
381 602
381 736
381 776
381 848
381 851
381 1008
381 1011
381 1138
381 1148
381 1166
381 1190
381 1306
381 1425
381 1503
381 1510
381 1539
381 1608
381 1898
381 2046
381 2062
381 2151
381 2214
381 2305
381 2583
381 2586
381 2641
382 402
382 430
382 479
382 484
382 592
382 596
382 628
382 698
382 742
382 760
382 771
382 803
382 852
382 858
382 887
382 894
382 974
382 981
382 1157
382 1172
382 1182
382 1228
382 1244
382 1296
382 1304
382 1353
382 1362
382 1427
382 1430
382 1443
382 1465
382 1499
382 1673
382 1690
382 1829
382 1868
382 1901
382 1979
382 2010
382 2052
382 2062
382 2162
382 2199
382 2225
382 2262
382 2307
382 2309
382 2363
382 2458
382 2614
382 2651
384 405
384 595
384 646
384 663
384 807
384 880
384 947
384 975
384 987
384 1122
384 1256
384 1264
384 1305
384 1369
384 1435
384 1447
384 1515
384 1525
384 1558
384 1667
384 1722
384 1759
384 1784
384 1814
384 1878
384 1975
384 1986
384 1988
384 2017
384 2065
384 2115
384 2132
384 2219
384 2331
384 2350
384 2375
384 2405
385 486
385 494
385 499
385 514
385 537
385 574
385 620
385 624
385 672
385 711
385 749
385 799
385 934
385 994
385 1012
385 1037
385 1061
385 1088
385 1174
385 1239
385 1254
385 1258
385 1350
385 1354
385 1355
385 1393
385 1455
385 1456
385 1468
385 1533
385 1578
385 1587
385 1597
385 1630
385 1638
385 1758
385 1778
385 1809
385 1832
385 1860
385 1870
385 1881
385 1899
385 1980
385 2004
385 2025
385 2037
385 2038
385 2128
385 2172
385 2180
385 2294
385 2421
385 2423
385 2547
385 2553
385 2607
385 2626
385 2643
385 2665
386 482
386 655
386 850
386 910
386 927
386 971
386 977
386 1008
386 1011
386 1138
386 1264
386 1271
386 1370
386 1503
386 1510
386 1760
386 1820
386 1979
386 2046
386 2062
386 2330
386 2623
386 2634
387 398
387 470
387 498
387 528
387 545
387 549
387 552
387 570
387 598
387 644
387 681
387 704
387 727
387 795
387 844
387 872
387 877
387 895
387 922
387 953
387 972
387 1025
387 1031
387 1039
387 1061
387 1073
387 1082
387 1086
387 1091
387 1108
387 1171
387 1175
387 1177
387 1192
387 1199
387 1202
387 1235
387 1262
387 1268
387 1291
387 1298
387 1301
387 1322
387 1344
387 1356
387 1428
387 1433
387 1437
387 1461
387 1487
387 1518
387 1541
387 1558
387 1569
387 1571
387 1584
387 1625
387 1698
387 1729
387 1741
387 1796
387 1824
387 1838
387 1863
387 1881
387 1912
387 1919
387 1921
387 1944
387 1958
387 1993
387 2031
387 2042
387 2095
387 2183
387 2202
387 2228
387 2299
387 2343
387 2410
387 2421
387 2489
387 2496
387 2519
387 2553
387 2585
387 2608
387 2631
387 2655
387 2667
388 430
388 690
388 780
388 1235
388 2184
388 2380
389 1017
389 1065
389 2035
390 407
390 684
390 853
390 1110
390 1299
390 1607
390 1854
390 1918
390 1979
390 2232
390 2501
390 2594
390 2614
391 489
391 1954
391 2000
391 2272
392 1000
393 470
393 471
393 498
393 509
393 549
393 564
393 619
393 727
393 765
393 795
393 800
393 901
393 989
393 1052
393 1061
393 1073
393 1108
393 1128
393 1175
393 1192
393 1202
393 1204
393 1235
393 1239
393 1262
393 1282
393 1343
393 1350
393 1356
393 1422
393 1468
393 1487
393 1530
393 1541
393 1588
393 1599
393 1696
393 1713
393 1779
393 1831
393 1840
393 1912
393 1917
393 1929
393 2011
393 2039
393 2042
393 2182
393 2210
393 2228
393 2417
393 2421
393 2474
393 2507
393 2592
393 2598
393 2608
393 2634
393 2635
394 452
394 881
394 1617
394 1742
394 1779
394 1971
394 2342
395 428
395 437
395 444
395 501
395 510
395 536
395 540
395 543
395 549
395 606
395 647
395 674
395 691
395 718
395 720
395 728
395 772
395 784
395 811
395 813
395 819
395 822
395 824
395 862
395 863
395 891
395 910
395 927
395 932
395 977
395 996
395 1169
395 1183
395 1205
395 1220
395 1232
395 1237
395 1266
395 1288
395 1289
395 1347
395 1361
395 1364
395 1392
395 1395
395 1461
395 1475
395 1494
395 1503
395 1518
395 1548
395 1559
395 1562
395 1570
395 1597
395 1612
395 1615
395 1623
395 1634
395 1641
395 1678
395 1685
395 1699
395 1733
395 1778
395 1796
395 1808
395 1817
395 1820
395 1824
395 1825
395 1836
395 1837
395 1840
395 1845
395 1860
395 1871
395 1887
395 1897
395 1907
395 1916
395 1917
395 1936
395 1940
395 1941
395 2037
395 2135
395 2176
395 2189
395 2190
395 2228
395 2246
395 2265
395 2296
395 2316
395 2326
395 2334
395 2360
395 2370
395 2378
395 2392
395 2395
395 2411
395 2425
395 2453
395 2486
395 2528
395 2533
395 2546
395 2551
395 2566
395 2570
395 2595
395 2599
395 2611
395 2634
396 406
396 697
396 921
396 1442
396 1820
396 1887
396 2171
396 2488
397 406
397 412
397 528
397 529
397 535
397 608
397 670
397 1204
397 1262
397 1361
397 1418
397 1486
397 1487
397 1534
397 1555
397 1572
397 1575
397 1638
397 1696
397 1729
397 1837
397 2004
397 2151
397 2202
397 2250
397 2309
397 2371
397 2427
397 2443
397 2654
398 403
398 410
398 430
398 461
398 473
398 485
398 486
398 498
398 506
398 528
398 552
398 567
398 570
398 574
398 582
398 669
398 706
398 727
398 735
398 757
398 782
398 795
398 835
398 847
398 865
398 866
398 885
398 897
398 923
398 925
398 930
398 934
398 957
398 964
398 1012
398 1013
398 1031
398 1039
398 1091
398 1097
398 1102
398 1119
398 1120
398 1134
398 1139
398 1152
398 1164
398 1177
398 1191
398 1235
398 1258
398 1262
398 1273
398 1276
398 1278
398 1298
398 1301
398 1322
398 1343
398 1350
398 1372
398 1404
398 1428
398 1433
398 1475
398 1500
398 1518
398 1530
398 1537
398 1549
398 1569
398 1585
398 1597
398 1599
398 1600
398 1603
398 1625
398 1648
398 1659
398 1675
398 1696
398 1709
398 1736
398 1737
398 1788
398 1831
398 1838
398 1868
398 1870
398 1917
398 1931
398 1933
398 1934
398 2039
398 2042
398 2044
398 2073
398 2074
398 2128
398 2180
398 2190
398 2192
398 2287
398 2290
398 2327
398 2353
398 2371
398 2379
398 2410
398 2413
398 2422
398 2479
398 2481
398 2486
398 2491
398 2526
398 2544
398 2553
398 2554
398 2649
398 2655
398 2662
399 1443
399 1548
399 1690
399 2246
400 522
400 562
400 684
400 1561
400 1822
400 1918
400 2027
400 2411
400 2522
400 2640
401 460
401 907
401 972
401 1544
401 1710
401 1712
401 1810
401 1866
401 1874
401 1885
401 2069
401 2088
401 2156
402 466
402 479
402 482
402 538
402 592
402 655
402 726
402 790
402 803
402 816
402 820
402 858
402 974
402 983
402 1093
402 1094
402 1172
402 1308
402 1397
402 1463
402 1465
402 1553
402 1564
402 1567
402 1660
402 1708
402 1764
402 1854
402 1858
402 1894
402 1945
402 1979
402 2027
402 2049
402 2099
402 2101
402 2142
402 2199
402 2232
402 2282
402 2389
402 2501
402 2659
403 406
403 449
403 529
403 545
403 567
403 570
403 618
403 706
403 727
403 747
403 749
403 795
403 835
403 847
403 897
403 922
403 937
403 953
403 1031
403 1039
403 1045
403 1088
403 1102
403 1119
403 1135
403 1199
403 1235
403 1278
403 1279
403 1280
403 1350
403 1387
403 1411
403 1433
403 1518
403 1599
403 1622
403 1625
403 1664
403 1770
403 1815
403 1824
403 1831
403 1838
403 1845
403 1923
403 1955
403 2039
403 2042
403 2159
403 2258
403 2396
403 2410
403 2421
403 2426
403 2475
403 2489
403 2526
403 2544
403 2591
403 2649
403 2654
403 2655
403 2662
404 451
404 482
404 570
404 624
404 671
404 922
404 1045
404 1254
404 1304
404 1355
404 1430
404 1464
404 1762
404 1923
404 1945
404 1979
404 2101
404 2231
404 2353
404 2553
405 420
405 595
405 622
405 692
405 694
405 832
405 837
405 854
405 906
405 1026
405 1032
405 1056
405 1134
405 1138
405 1300
405 1364
405 1516
405 1880
405 1922
405 2017
405 2065
405 2150
405 2219
405 2339
405 2348
405 2393
405 2516
405 2600
405 2656
406 463
406 472
406 510
406 522
406 536
406 540
406 550
406 582
406 606
406 608
406 618
406 630
406 634
406 666
406 685
406 688
406 707
406 721
406 738
406 746
406 749
406 770
406 772
406 824
406 831
406 835
406 849
406 855
406 863
406 876
406 888
406 910
406 913
406 943
406 956
406 958
406 964
406 971
406 975
406 984
406 993
406 998
406 1044
406 1058
406 1061
406 1091
406 1093
406 1100
406 1104
406 1105
406 1112
406 1129
406 1138
406 1158
406 1166
406 1181
406 1185
406 1206
406 1224
406 1226
406 1237
406 1246
406 1247
406 1264
406 1266
406 1270
406 1272
406 1290
406 1295
406 1361
406 1363
406 1365
406 1379
406 1403
406 1409
406 1412
406 1473
406 1494
406 1495
406 1503
406 1510
406 1534
406 1542
406 1558
406 1575
406 1576
406 1579
406 1617
406 1622
406 1638
406 1675
406 1685
406 1696
406 1708
406 1721
406 1730
406 1733
406 1737
406 1745
406 1746
406 1750
406 1769
406 1784
406 1798
406 1800
406 1864
406 1869
406 1885
406 1893
406 1916
406 1931
406 1947
406 1958
406 1963
406 1979
406 1984
406 1998
406 2016
406 2021
406 2048
406 2051
406 2094
406 2135
406 2151
406 2175
406 2188
406 2189
406 2190
406 2201
406 2202
406 2215
406 2221
406 2222
406 2228
406 2231
406 2258
406 2263
406 2264
406 2294
406 2316
406 2330
406 2347
406 2352
406 2380
406 2385
406 2399
406 2425
406 2435
406 2442
406 2456
406 2458
406 2460
406 2467
406 2469
406 2492
406 2523
406 2539
406 2551
406 2570
406 2574
406 2583
406 2584
406 2593
406 2595
406 2598
406 2602
406 2626
406 2628
406 2646
406 2670
406 2671
406 2677
407 576
409 455
409 511
409 526
409 562
409 590
409 612
409 688
409 843
409 846
409 867
409 895
409 943
409 971
409 1121
409 1129
409 1138
409 1269
409 1319
409 1321
409 1339
409 1345
409 1403
409 1502
409 1536
409 1630
409 1650
409 1715
409 1723
409 1843
409 1937
409 1951
409 1971
409 2011
409 2016
409 2201
409 2237
409 2289
409 2312
409 2387
409 2464
409 2469
409 2520
409 2550
409 2587
409 2616
409 2618
410 470
410 523
410 584
410 871
410 876
410 951
410 1093
410 1206
410 1231
410 1309
410 1334
410 1433
410 1518
410 1558
410 1600
410 1612
410 1958
410 1999
410 2004
410 2045
410 2080
410 2296
410 2334
410 2395
410 2422
410 2528
410 2553
410 2588
410 2607
410 2634
410 2649
410 2655
410 2677
411 434
411 608
411 761
411 848
411 894
411 897
411 1052
411 1091
411 1093
411 1138
411 1295
411 1403
411 1416
411 1494
411 1558
411 1688
411 1795
411 1798
411 1890
411 2016
411 2070
411 2201
411 2223
411 2361
411 2367
411 2593
412 428
412 473
412 486
412 509
412 522
412 525
412 529
412 545
412 666
412 672
412 691
412 759
412 772
412 813
412 822
412 872
412 913
412 923
412 930
412 961
412 971
412 998
412 1011
412 1049
412 1060
412 1105
412 1117
412 1119
412 1181
412 1187
412 1196
412 1232
412 1253
412 1260
412 1264
412 1302
412 1334
412 1336
412 1350
412 1392
412 1454
412 1503
412 1524
412 1541
412 1542
412 1555
412 1591
412 1603
412 1630
412 1665
412 1696
412 1720
412 1734
412 1779
412 1838
412 1869
412 1885
412 1950
412 2004
412 2011
412 2039
412 2053
412 2092
412 2097
412 2109
412 2151
412 2205
412 2221
412 2222
412 2227
412 2264
412 2311
412 2326
412 2344
412 2378
412 2386
412 2395
412 2413
412 2416
412 2427
412 2443
412 2451
412 2489
412 2505
412 2536
412 2615
412 2626
412 2628
412 2634
412 2669
413 591
413 762
413 1526
413 1601
413 1727
413 1979
413 2464
414 2433
415 739
415 995
415 1064
415 1732
415 1764
415 1827
415 1849
415 1965
415 2028
415 2273
415 2362
416 437
416 444
416 504
416 523
416 536
416 543
416 584
416 620
416 772
416 822
416 863
416 872
416 928
416 994
416 996
416 1037
416 1041
416 1232
416 1294
416 1309
416 1326
416 1612
416 1630
416 1697
416 1765
416 1778
416 1825
416 1885
416 1907
416 1912
416 1999
416 2182
416 2228
416 2334
416 2339
416 2386
416 2395
416 2453
416 2607
416 2609
417 420
417 429
417 518
417 529
417 613
417 662
417 663
417 673
417 689
417 692
417 696
417 880
417 902
417 904
417 941
417 976
417 1026
417 1075
417 1091
417 1114
417 1168
417 1201
417 1216
417 1233
417 1360
417 1430
417 1481
417 1519
417 1574
417 1635
417 1645
417 1647
417 1743
417 1763
417 1791
417 1814
417 1870
417 1883
417 1906
417 1916
417 1946
417 1979
417 2005
417 2012
417 2013
417 2047
417 2054
417 2084
417 2111
417 2139
417 2146
417 2150
417 2166
417 2182
417 2245
417 2251
417 2297
417 2357
417 2405
417 2428
417 2490
417 2506
417 2516
417 2597
417 2614
418 461
418 608
418 632
418 932
418 1500
418 1524
418 1579
418 1876
418 1998
418 2399
419 500
419 508
419 521
419 751
419 889
419 1106
419 1146
419 1304
419 1586
419 1885
419 1888
419 2261
419 2264
419 2309
419 2367
419 2406
419 2562
419 2622
420 436
420 511
420 533
420 622
420 692
420 765
420 781
420 793
420 880
420 906
420 1009
420 1014
420 1093
420 1268
420 1300
420 1329
420 1400
420 1447
420 1476
420 1628
420 1636
420 1674
420 1684
420 1701
420 1722
420 1726
420 1906
420 2003
420 2005
420 2146
420 2150
420 2194
420 2220
420 2242
420 2270
420 2350
420 2375
420 2428
420 2510
420 2568
420 2666
421 445
421 452
421 470
421 549
421 620
421 639
421 778
421 805
421 930
421 979
421 998
421 1052
421 1091
421 1191
421 1210
421 1310
421 1328
421 1394
421 1487
421 1533
421 1537
421 1549
421 1600
421 1638
421 1640
421 1685
421 1696
421 1709
421 1722
421 1754
421 1783
421 1809
421 1917
421 2172
421 2205
421 2251
421 2294
421 2551
421 2561
422 528
422 570
422 620
422 749
422 766
422 1031
422 1273
422 1433
422 1509
422 1566
422 1803
422 2039
422 2053
422 2192
422 2241
422 2287
422 2553
422 2667
423 437
423 444
423 452
423 470
423 543
423 571
423 584
423 620
423 674
423 765
423 777
423 891
423 920
423 930
423 932
423 970
423 990
423 996
423 1037
423 1108
423 1144
423 1301
423 1309
423 1344
423 1462
423 1477
423 1487
423 1507
423 1581
423 1696
423 1697
423 1840
423 1871
423 1907
423 2037
423 2182
423 2202
423 2206
423 2228
423 2417
423 2453
423 2634
424 1065
424 1620
425 472
425 516
425 541
425 651
425 726
425 746
425 749
425 801
425 806
425 870
425 879
425 889
425 932
425 977
425 1106
425 1119
425 1263
425 1264
425 1275
425 1286
425 1482
425 1586
425 1633
425 1664
425 1732
425 1852
425 1855
425 1856
425 2051
425 2082
425 2096
425 2274
425 2309
425 2311
425 2346
425 2363
425 2385
425 2456
425 2497
425 2505
425 2608
425 2650
425 2671
426 440
426 615
426 669
426 802
426 919
426 1040
426 1304
426 1329
426 1341
426 1513
426 1551
426 1574
426 1595
426 1749
426 1964
426 2030
426 2339
426 2350
426 2370
427 613
427 673
427 694
427 696
427 876
427 1053
427 1067
427 1325
427 1699
427 1768
427 2025
427 2116
427 2125
427 2166
427 2275
427 2574
428 437
428 444
428 525
428 536
428 620
428 674
428 720
428 728
428 772
428 800
428 813
428 822
428 841
428 863
428 872
428 928
428 961
428 1046
428 1058
428 1166
428 1205
428 1232
428 1264
428 1288
428 1290
428 1302
428 1328
428 1336
428 1347
428 1354
428 1361
428 1392
428 1472
428 1541
428 1591
428 1613
428 1634
428 1640
428 1696
428 1697
428 1730
428 1734
428 1795
428 1809
428 1840
428 1846
428 1907
428 2004
428 2025
428 2227
428 2228
428 2299
428 2334
428 2378
428 2427
428 2443
428 2556
428 2595
428 2634
429 486
429 885
429 913
429 1158
429 1934
429 2153
430 433
430 518
430 542
430 552
430 553
430 608
430 626
430 628
430 636
430 690
430 710
430 757
430 760
430 771
430 880
430 897
430 923
430 939
430 1015
430 1062
430 1088
430 1120
430 1134
430 1138
430 1159
430 1164
430 1177
430 1182
430 1248
430 1262
430 1301
430 1356
430 1372
430 1475
430 1476
430 1497
430 1500
430 1524
430 1537
430 1549
430 1569
430 1588
430 1594
430 1625
430 1703
430 1709
430 1717
430 1779
430 1817
430 1862
430 1863
430 1868
430 1881
430 1934
430 2038
430 2053
430 2073
430 2128
430 2180
430 2204
430 2228
430 2318
430 2327
430 2329
430 2410
430 2429
430 2470
430 2474
430 2479
430 2518
430 2526
430 2544
430 2601
430 2649
430 2651
430 2655
431 674
431 781
431 827
431 903
431 1030
431 1164
431 1706
431 1827
431 1968
431 2001
431 2007
431 2193
431 2362
432 632
432 1276
432 2152
433 461
433 521
433 553
433 558
433 559
433 683
433 712
433 753
433 803
433 1015
433 1091
433 1146
433 1151
433 1159
433 1182
433 1205
433 1207
433 1248
433 1266
433 1285
433 1313
433 1475
433 1504
433 1577
433 1608
433 1616
433 1718
433 1752
433 1771
433 1820
433 1870
433 1925
433 1927
433 1933
433 1934
433 2038
433 2062
433 2071
433 2078
433 2099
433 2107
433 2149
433 2171
433 2199
433 2261
433 2277
433 2288
433 2367
433 2424
433 2429
433 2490
433 2500
433 2562
433 2572
433 2577
433 2584
433 2586
433 2614
433 2638
433 2651
433 2670
434 761
434 846
434 894
434 998
434 1129
434 1138
434 1403
434 1409
434 1485
434 1574
434 1822
434 1945
434 1979
434 2021
434 2070
434 2201
434 2473
434 2593
435 442
435 518
435 610
435 622
435 627
435 661
435 692
435 696
435 722
435 854
435 880
435 902
435 923
435 1026
435 1079
435 1109
435 1116
435 1168
435 1191
435 1320
435 1335
435 1360
435 1381
435 1445
435 1492
435 1493
435 1516
435 1574
435 1583
435 1683
435 1703
435 1711
435 1726
435 1791
435 1792
435 1823
435 1873
435 1911
435 1934
435 1992
435 2005
435 2043
435 2085
435 2101
435 2124
435 2139
435 2157
435 2170
435 2207
435 2249
435 2252
435 2271
435 2339
435 2580
435 2585
435 2601
435 2652
435 2659
436 460
436 571
436 791
436 914
436 1138
436 1264
436 1381
436 1541
436 1667
436 1681
436 1841
436 1877
436 1884
436 2216
437 444
437 470
437 494
437 514
437 523
437 525
437 536
437 543
437 571
437 584
437 674
437 759
437 784
437 813
437 819
437 862
437 863
437 921
437 927
437 928
437 930
437 970
437 994
437 996
437 1086
437 1202
437 1232
437 1301
437 1310
437 1336
437 1350
437 1454
437 1468
437 1596
437 1597
437 1623
437 1629
437 1634
437 1640
437 1641
437 1683
437 1687
437 1697
437 1733
437 1765
437 1778
437 1795
437 1817
437 1825
437 1837
437 1840
437 1869
437 1887
437 1907
437 1917
437 1940
437 1999
437 2037
437 2135
437 2176
437 2189
437 2228
437 2326
437 2334
437 2360
437 2411
437 2438
437 2453
437 2486
437 2533
437 2564
437 2600
437 2611
437 2633
437 2634
437 2656
437 2665
438 1327
438 1627
438 1839
439 877
439 953
439 1108
439 1344
439 1411
439 1686
439 1698
439 2042
439 2327
440 608
440 669
440 824
440 874
440 879
440 886
440 968
440 1149
440 1329
440 1512
440 1558
440 1674
440 1749
440 2021
440 2317
440 2370
440 2400
440 2436
441 761
441 991
441 1655
441 2131
441 2177
442 661
442 1873
443 465
443 692
443 693
443 716
443 1036
443 1093
443 1257
443 1291
443 1768
443 1883
443 2005
443 2370
443 2565
444 525
444 536
444 543
444 674
444 784
444 819
444 862
444 863
444 927
444 928
444 977
444 996
444 1086
444 1431
444 1454
444 1518
444 1562
444 1581
444 1591
444 1597
444 1612
444 1634
444 1641
444 1678
444 1697
444 1733
444 1778
444 1790
444 1808
444 1817
444 1824
444 1825
444 1837
444 1840
444 1869
444 1871
444 1887
444 1907
444 1916
444 1917
444 1940
444 2037
444 2135
444 2189
444 2228
444 2265
444 2316
444 2326
444 2334
444 2360
444 2398
444 2453
444 2486
444 2533
444 2566
444 2611
444 2615
444 2634
444 2665
445 536
445 557
445 665
445 822
445 863
445 922
445 998
445 1052
445 1310
445 1328
445 1394
445 1599
445 1640
445 1754
445 1783
445 1915
445 2334
445 2390
445 2453
445 2561
446 454
446 496
446 891
446 1088
446 1117
446 1177
446 1220
446 1385
446 1431
446 1454
446 1616
446 1697
446 1704
446 1753
446 1821
446 1929
446 1957
446 2081
446 2109
446 2138
446 2206
446 2432
446 2615
447 749
447 2301
448 766
448 844
448 1301
448 1686
448 1698
448 1705
448 2318
448 2585
449 653
449 1089
449 1106
449 1188
449 1460
449 1561
449 1586
449 1718
449 1813
449 1822
449 1831
449 1923
449 1976
449 2179
449 2363
449 2376
449 2402
449 2406
449 2411
449 2553
449 2591
449 2632
449 2640
450 561
450 605
450 656
450 663
450 692
450 880
450 906
450 941
450 968
450 1009
450 1026
450 1071
450 1188
450 1291
450 1343
450 1360
450 1400
450 1414
450 1500
450 1549
450 1583
450 1703
450 1707
450 1722
450 1744
450 1814
450 1848
450 1932
450 1934
450 1942
450 1975
450 2054
450 2073
450 2087
450 2115
450 2154
450 2194
450 2285
450 2295
450 2328
450 2350
450 2428
450 2510
450 2516
450 2541
450 2580
450 2652
450 2672
451 541
451 580
451 602
451 642
451 655
451 718
451 739
451 876
451 1011
451 1074
451 1304
451 1426
451 1464
451 1638
451 1784
451 1798
451 1914
451 2076
451 2104
451 2141
451 2200
451 2324
451 2358
451 2387
451 2469
451 2483
451 2583
451 2586
452 486
452 504
452 514
452 525
452 529
452 570
452 614
452 651
452 666
452 691
452 727
452 778
452 781
452 827
452 885
452 896
452 905
452 910
452 922
452 925
452 1011
452 1015
452 1034
452 1045
452 1066
452 1138
452 1169
452 1185
452 1186
452 1206
452 1231
452 1232
452 1264
452 1270
452 1285
452 1292
452 1355
452 1385
452 1431
452 1439
452 1477
452 1489
452 1501
452 1510
452 1533
452 1547
452 1575
452 1591
452 1617
452 1692
452 1696
452 1708
452 1770
452 1778
452 1798
452 2023
452 2044
452 2062
452 2068
452 2080
452 2145
452 2151
452 2179
452 2190
452 2201
452 2205
452 2212
452 2231
452 2258
452 2313
452 2318
452 2333
452 2341
452 2342
452 2353
452 2386
452 2395
452 2426
452 2521
452 2528
452 2561
452 2578
452 2607
452 2609
452 2612
452 2629
452 2633
452 2634
452 2665
453 626
453 677
453 925
453 964
453 1091
453 1119
453 2090
453 2290
453 2367
454 496
454 614
454 753
454 765
454 972
454 978
454 989
454 996
454 1049
454 1060
454 1065
454 1088
454 1117
454 1151
454 1177
454 1202
454 1270
454 1334
454 1385
454 1408
454 1431
454 1454
454 1461
454 1479
454 1545
454 1547
454 1629
454 1641
454 1704
454 1753
454 1778
454 1795
454 1821
454 1825
454 1929
454 1931
454 1957
454 2081
454 2109
454 2138
454 2180
454 2213
454 2395
454 2413
454 2603
454 2615
455 562
455 590
455 677
455 721
455 855
455 878
455 943
455 949
455 1028
455 1229
455 1264
455 1272
455 1286
455 1345
455 1403
455 1428
455 1473
455 1534
455 1579
455 1675
455 1715
455 1719
455 1737
455 1757
455 1782
455 1947
455 2014
455 2200
455 2208
455 2251
455 2258
455 2269
455 2312
455 2330
455 2464
455 2476
455 2660
455 2671
456 1083
457 461
457 524
457 576
457 608
457 630
457 666
457 726
457 746
457 760
457 771
457 799
457 801
457 809
457 826
457 848
457 882
457 899
457 1023
457 1072
457 1091
457 1097
457 1129
457 1138
457 1150
457 1182
457 1197
457 1199
457 1206
457 1247
457 1266
457 1308
457 1343
457 1365
457 1374
457 1409
457 1412
457 1455
457 1472
457 1494
457 1500
457 1503
457 1510
457 1524
457 1532
457 1574
457 1579
457 1588
457 1608
457 1652
457 1708
457 1750
457 1760
457 1773
457 1785
457 1829
457 1870
457 1893
457 1897
457 1916
457 1923
457 1941
457 1942
457 1943
457 1979
457 1998
457 2016
457 2091
457 2119
457 2151
457 2155
457 2171
457 2188
457 2189
457 2190
457 2231
457 2262
457 2283
457 2299
457 2329
457 2361
457 2380
457 2385
457 2389
457 2456
457 2467
457 2497
457 2570
457 2577
457 2586
457 2634
457 2646
457 2658
457 2660
457 2673
458 969
458 1001
458 1518
458 1658
458 1726
458 1834
458 1874
458 1949
458 2015
458 2053
458 2328
459 2166
460 502
460 571
460 605
460 693
460 716
460 777
460 791
460 793
460 861
460 946
460 1032
460 1056
460 1079
460 1178
460 1317
460 1320
460 1335
460 1359
460 1391
460 1414
460 1445
460 1471
460 1541
460 1606
460 1667
460 1681
460 1711
460 1823
460 1841
460 1877
460 1930
460 2047
460 2065
460 2132
460 2136
460 2146
460 2157
460 2292
460 2349
460 2407
460 2447
460 2565
460 2627
461 469
461 484
461 552
461 567
461 582
461 589
461 590
461 719
461 770
461 820
461 864
461 899
461 917
461 933
461 964
461 970
461 972
461 985
461 1023
461 1031
461 1091
461 1120
461 1126
461 1182
461 1199
461 1251
461 1266
461 1290
461 1351
461 1389
461 1426
461 1428
461 1430
461 1432
461 1455
461 1494
461 1498
461 1500
461 1519
461 1549
461 1562
461 1579
461 1588
461 1599
461 1652
461 1682
461 1708
461 1736
461 1746
461 1773
461 1876
461 1883
461 1923
461 1954
461 1978
461 2073
461 2079
461 2091
461 2155
461 2179
461 2267
461 2346
461 2359
461 2380
461 2479
461 2639
461 2651
462 580
462 601
462 602
462 761
462 1046
462 1058
462 1060
462 1379
462 1920
462 1931
462 1943
462 1979
462 2177
462 2263
462 2483
462 2608
463 666
463 888
463 971
463 1093
463 1206
463 1467
463 1558
463 1918
463 2068
463 2231
463 2467
463 2595
463 2598
464 1389
464 1682
465 467
465 622
465 661
465 716
465 770
465 829
465 854
465 941
465 1093
465 1400
465 1402
465 1445
465 1476
465 1514
465 1583
465 1651
465 1703
465 1726
465 1781
465 1866
465 1883
465 1934
465 1995
465 2005
465 2084
465 2157
465 2252
465 2271
465 2495
465 2565
466 538
466 820
466 1764
467 692
467 694
467 696
467 777
467 854
467 883
467 902
467 904
467 912
467 965
467 1091
467 1109
467 1181
467 1213
467 1331
467 1342
467 1396
467 1530
467 1636
467 2009
467 2084
467 2242
467 2331
467 2348
467 2418
467 2484
467 2568
468 689
468 799
468 1064
468 1113
468 1430
468 1979
468 2182
468 2184
468 2231
468 2659
469 484
469 490
469 569
469 575
469 582
469 597
469 616
469 633
469 641
469 712
469 719
469 770
469 795
469 895
469 899
469 913
469 1028
469 1091
469 1099
469 1103
469 1112
469 1118
469 1120
469 1126
469 1164
469 1218
469 1272
469 1290
469 1351
469 1353
469 1371
469 1412
469 1426
469 1428
469 1473
469 1484
469 1498
469 1499
469 1500
469 1524
469 1567
469 1577
469 1673
469 1696
469 1719
469 1736
469 1773
469 1799
469 1822
469 1858
469 1870
469 1883
469 1901
469 1918
469 1934
469 1942
469 1998
469 2052
469 2067
469 2155
469 2162
469 2184
469 2199
469 2267
469 2269
469 2286
469 2290
469 2299
469 2301
469 2307
469 2361
469 2398
469 2435
469 2456
469 2471
469 2481
469 2540
469 2586
469 2591
469 2636
469 2640
469 2676
470 486
470 493
470 498
470 508
470 509
470 543
470 584
470 634
470 642
470 644
470 674
470 681
470 703
470 709
470 738
470 765
470 794
470 844
470 855
470 881
470 891
470 892
470 920
470 925
470 930
470 963
470 978
470 990
470 996
470 1029
470 1037
470 1041
470 1042
470 1052
470 1086
470 1091
470 1108
470 1135
470 1142
470 1144
470 1186
470 1220
470 1278
470 1301
470 1307
470 1309
470 1344
470 1395
470 1400
470 1410
470 1433
470 1434
470 1466
470 1476
470 1477
470 1478
470 1487
470 1529
470 1541
470 1569
470 1581
470 1605
470 1608
470 1616
470 1638
470 1640
470 1680
470 1683
470 1686
470 1696
470 1750
470 1758
470 1774
470 1778
470 1779
470 1808
470 1837
470 1840
470 1897
470 1907
470 1912
470 1917
470 1920
470 1994
470 2007
470 2023
470 2031
470 2034
470 2078
470 2126
470 2183
470 2202
470 2205
470 2213
470 2228
470 2250
470 2313
470 2335
470 2370
470 2395
470 2417
470 2421
470 2453
470 2474
470 2489
470 2491
470 2507
470 2528
470 2585
470 2591
470 2615
470 2622
470 2634
470 2666
470 2667
471 498
471 499
471 520
471 527
471 564
471 570
471 626
471 651
471 674
471 703
471 713
471 755
471 765
471 877
471 891
471 901
471 930
471 958
471 990
471 1012
471 1061
471 1066
471 1082
471 1108
471 1128
471 1144
471 1175
471 1191
471 1199
471 1202
471 1204
471 1252
471 1262
471 1264
471 1282
471 1307
471 1342
471 1344
471 1350
471 1356
471 1363
471 1422
471 1478
471 1487
471 1535
471 1541
471 1571
471 1575
471 1713
471 1831
471 1840
471 1881
471 1895
471 1917
471 1927
471 2041
471 2163
471 2174
471 2210
471 2241
471 2277
471 2300
471 2343
471 2370
471 2397
471 2423
471 2429
471 2474
471 2491
471 2507
471 2515
471 2561
471 2592
471 2633
471 2668
472 484
472 492
472 510
472 535
472 576
472 582
472 608
472 666
472 683
472 685
472 746
472 753
472 770
472 824
472 826
472 870
472 876
472 879
472 888
472 889
472 899
472 915
472 932
472 934
472 943
472 964
472 970
472 975
472 984
472 1097
472 1138
472 1142
472 1166
472 1169
472 1206
472 1223
472 1229
472 1246
472 1264
472 1266
472 1270
472 1275
472 1355
472 1356
472 1363
472 1389
472 1406
472 1409
472 1427
472 1494
472 1500
472 1510
472 1519
472 1624
472 1652
472 1671
472 1708
472 1733
472 1738
472 1773
472 1794
472 1870
472 1871
472 1876
472 1883
472 1902
472 1923
472 1954
472 1963
472 1978
472 1984
472 2016
472 2033
472 2048
472 2050
472 2051
472 2062
472 2104
472 2135
472 2151
472 2172
472 2175
472 2189
472 2215
472 2222
472 2231
472 2235
472 2246
472 2251
472 2258
472 2318
472 2330
472 2363
472 2380
472 2385
472 2387
472 2425
472 2456
472 2457
472 2479
472 2533
472 2570
472 2583
472 2584
472 2593
472 2671
472 2677
473 498
473 499
473 506
473 519
473 549
473 552
473 553
473 564
473 567
473 568
473 598
473 626
473 651
473 661
473 672
473 704
473 706
473 712
473 735
473 747
473 760
473 766
473 769
473 774
473 795
473 830
473 865
473 901
473 902
473 922
473 923
473 929
473 936
473 953
473 1012
473 1015
473 1031
473 1039
473 1062
473 1082
473 1088
473 1102
473 1135
473 1159
473 1165
473 1177
473 1186
473 1192
473 1235
473 1239
473 1251
473 1258
473 1264
473 1268
473 1278
473 1307
473 1322
473 1342
473 1343
473 1350
473 1356
473 1366
473 1411
473 1461
473 1475
473 1481
473 1493
473 1518
473 1530
473 1531
473 1537
473 1541
473 1577
473 1584
473 1588
473 1594
473 1597
473 1599
473 1622
473 1624
473 1673
473 1688
473 1787
473 1817
473 1833
473 1838
473 1863
473 1883
473 1919
473 1925
473 1933
473 1934
473 1946
473 1955
473 1970
473 2026
473 2042
473 2047
473 2053
473 2071
473 2074
473 2099
473 2111
473 2128
473 2149
473 2157
473 2163
473 2180
473 2183
473 2231
473 2243
473 2292
473 2293
473 2297
473 2399
473 2421
473 2422
473 2424
473 2429
473 2490
473 2500
473 2544
473 2614
473 2652
473 2655
473 2662
473 2668
474 1699
475 1292
475 1508
475 1610
475 1699
475 1835
475 1959
475 2362
475 2369
475 2499
476 492
476 552
476 683
476 779
476 835
476 996
476 1072
476 1197
476 1210
476 1227
476 1264
476 1308
476 1594
476 1743
476 1796
476 1829
476 1921
476 2209
476 2299
476 2631
476 2673
476 2676
477 524
477 557
477 570
477 620
477 639
477 671
477 747
477 753
477 770
477 778
477 781
477 804
477 805
477 827
477 852
477 865
477 888
477 891
477 894
477 922
477 951
477 990
477 1013
477 1029
477 1061
477 1127
477 1135
477 1191
477 1235
477 1251
477 1278
477 1298
477 1343
477 1355
477 1416
477 1419
477 1430
477 1439
477 1478
477 1533
477 1545
477 1627
477 1692
477 1696
477 1797
477 1809
477 1847
477 1899
477 1920
477 1998
477 2018
477 2062
477 2091
477 2119
477 2180
477 2183
477 2205
477 2212
477 2225
477 2294
477 2309
477 2310
477 2365
477 2413
477 2457
477 2540
477 2583
477 2626
477 2651
478 872
478 1264
478 1545
478 1622
478 1971
478 2031
478 2135
478 2361
478 2395
478 2474
478 2556
479 538
479 553
479 592
479 603
479 635
479 715
479 746
479 805
479 864
479 917
479 939
479 973
479 974
479 991
479 1030
479 1034
479 1100
479 1195
479 1285
479 1351
479 1378
479 1397
479 1456
479 1463
479 1465
479 1474
479 1553
479 1561
479 1660
479 1721
479 1784
479 1788
479 1798
479 1854
479 1858
479 1862
479 1894
479 1895
479 1979
479 2027
479 2078
479 2179
479 2199
479 2282
479 2324
479 2459
479 2552
479 2589
479 2640
479 2659
479 2670
479 2673
480 2101
481 497
481 605
481 884
481 1056
481 1198
481 1257
481 1335
481 2005
481 2170
481 2292
481 2300
481 2445
482 498
482 508
482 538
482 592
482 612
482 616
482 635
482 655
482 666
482 688
482 715
482 737
482 738
482 746
482 749
482 755
482 786
482 842
482 849
482 997
482 1021
482 1042
482 1054
482 1080
482 1111
482 1121
482 1138
482 1141
482 1167
482 1172
482 1233
482 1299
482 1307
482 1315
482 1378
482 1397
482 1403
482 1412
482 1468
482 1503
482 1530
482 1540
482 1541
482 1548
482 1553
482 1570
482 1608
482 1659
482 1687
482 1761
482 1764
482 1769
482 1795
482 1798
482 1840
482 1852
482 1864
482 1875
482 1881
482 1885
482 1931
482 1941
482 1947
482 1953
482 1969
482 1979
482 1983
482 2016
482 2027
482 2060
482 2112
482 2131
482 2140
482 2246
482 2301
482 2370
482 2410
482 2425
482 2435
482 2449
482 2501
482 2530
482 2547
482 2570
482 2574
482 2588
482 2589
482 2593
482 2608
482 2616
482 2629
482 2633
482 2659
482 2661
482 2671
482 2673
483 661
483 874
483 1132
483 1866
483 2015
483 2510
484 559
484 569
484 576
484 582
484 596
484 612
484 618
484 682
484 720
484 760
484 771
484 799
484 811
484 820
484 846
484 852
484 862
484 864
484 899
484 933
484 1091
484 1102
484 1126
484 1182
484 1233
484 1266
484 1351
484 1361
484 1371
484 1374
484 1389
484 1428
484 1430
484 1472
484 1498
484 1499
484 1504
484 1505
484 1518
484 1519
484 1524
484 1558
484 1597
484 1635
484 1682
484 1708
484 1732
484 1736
484 1764
484 1773
484 1778
484 1782
484 1799
484 1840
484 1876
484 1883
484 2042
484 2053
484 2146
484 2179
484 2184
484 2189
484 2199
484 2201
484 2261
484 2262
484 2267
484 2329
484 2361
484 2377
484 2380
484 2435
484 2500
484 2502
484 2514
484 2534
484 2572
484 2585
484 2591
484 2599
484 2634
484 2638
484 2676
485 528
485 565
485 570
485 598
485 659
485 766
485 808
485 812
485 818
485 897
485 903
485 925
485 930
485 937
485 957
485 967
485 1031
485 1171
485 1229
485 1278
485 1298
485 1322
485 1507
485 1520
485 1622
485 1623
485 1625
485 1629
485 1657
485 1710
485 1782
485 1831
485 1838
485 1958
485 2001
485 2031
485 2095
485 2218
485 2311
485 2408
485 2410
485 2544
485 2561
485 2629
485 2649
485 2655
486 511
486 514
486 528
486 529
486 542
486 549
486 552
486 570
486 624
486 669
486 691
486 727
486 750
486 755
486 778
486 783
486 795
486 826
486 835
486 844
486 885
486 888
486 895
486 897
486 901
486 923
486 925
486 930
486 937
486 953
486 972
486 998
486 1013
486 1015
486 1031
486 1032
486 1039
486 1043
486 1054
486 1060
486 1061
486 1062
486 1068
486 1088
486 1102
486 1120
486 1156
486 1171
486 1177
486 1192
486 1201
486 1215
486 1232
486 1235
486 1258
486 1272
486 1307
486 1343
486 1350
486 1355
486 1356
486 1387
486 1393
486 1402
486 1438
486 1468
486 1477
486 1478
486 1479
486 1518
486 1521
486 1530
486 1531
486 1541
486 1566
486 1574
486 1582
486 1587
486 1594
486 1597
486 1599
486 1603
486 1623
486 1629
486 1664
486 1683
486 1692
486 1703
486 1711
486 1717
486 1743
486 1770
486 1797
486 1809
486 1863
486 1884
486 1910
486 1921
486 1931
486 1955
486 2024
486 2031
486 2037
486 2039
486 2042
486 2044
486 2128
486 2153
486 2157
486 2162
486 2163
486 2172
486 2183
486 2192
486 2201
486 2228
486 2231
486 2292
486 2297
486 2310
486 2318
486 2333
486 2350
486 2352
486 2353
486 2362
486 2410
486 2423
486 2426
486 2429
486 2486
486 2496
486 2503
486 2527
486 2556
486 2593
486 2606
486 2612
486 2626
486 2629
486 2643
486 2655
487 550
487 680
487 1271
487 1285
487 1500
487 1561
487 1562
487 1822
487 1893
487 2002
487 2007
487 2062
487 2100
487 2118
487 2274
487 2632
488 1121
488 1696
489 2229
490 553
490 628
490 775
490 933
490 1061
490 1112
490 1119
490 1193
490 1207
490 1244
490 1299
490 1371
490 1463
490 1466
490 1484
490 1524
490 1633
490 1642
490 1716
490 1721
490 1736
490 1788
490 1799
490 1834
490 1835
490 1845
490 1894
490 1923
490 1942
490 2099
490 2179
490 2209
490 2294
490 2362
490 2379
490 2413
490 2501
490 2540
490 2554
490 2657
490 2659
490 2676
491 524
491 592
491 608
491 635
491 742
491 798
491 848
491 896
491 962
491 1100
491 1151
491 1214
491 1230
491 1284
491 1353
491 1362
491 1427
491 1494
491 1528
491 1547
491 1687
491 1691
491 1706
491 1795
491 1854
491 1969
491 1979
491 1980
491 2062
491 2201
491 2212
491 2370
491 2376
491 2390
491 2594
491 2604
491 2657
492 535
492 576
492 668
492 697
492 782
492 897
492 899
492 934
492 956
492 970
492 986
492 1061
492 1072
492 1089
492 1091
492 1097
492 1101
492 1126
492 1127
492 1141
492 1142
492 1223
492 1247
492 1281
492 1290
492 1389
492 1405
492 1406
492 1428
492 1437
492 1456
492 1475
492 1494
492 1500
492 1519
492 1521
492 1532
492 1545
492 1548
492 1559
492 1562
492 1579
492 1626
492 1671
492 1675
492 1714
492 1723
492 1796
492 1797
492 1829
492 1870
492 1871
492 1876
492 1902
492 1916
492 1923
492 1938
492 1944
492 1947
492 1954
492 1978
492 1998
492 2033
492 2036
492 2039
492 2128
492 2162
492 2187
492 2200
492 2235
492 2283
492 2299
492 2307
492 2320
492 2326
492 2352
492 2385
492 2387
492 2398
492 2452
492 2456
492 2469
492 2578
492 2583
492 2588
492 2631
493 545
493 620
493 673
493 778
493 800
493 812
493 891
493 892
493 920
493 925
493 928
493 947
493 951
493 981
493 1046
493 1049
493 1055
493 1060
493 1181
493 1187
493 1220
493 1279
493 1316
493 1355
493 1410
493 1510
493 1558
493 1600
493 1622
493 1659
493 1683
493 1824
493 1898
493 1907
493 1931
493 2180
493 2221
493 2294
493 2452
493 2489
493 2528
493 2556
493 2641
494 574
494 580
494 608
494 624
494 633
494 666
494 691
494 739
494 770
494 783
494 824
494 831
494 844
494 891
494 905
494 943
494 963
494 990
494 994
494 996
494 998
494 1013
494 1041
494 1052
494 1072
494 1100
494 1129
494 1138
494 1139
494 1162
494 1166
494 1202
494 1206
494 1230
494 1254
494 1273
494 1280
494 1282
494 1291
494 1299
494 1355
494 1393
494 1400
494 1438
494 1468
494 1484
494 1494
494 1529
494 1531
494 1541
494 1569
494 1570
494 1587
494 1596
494 1635
494 1685
494 1713
494 1729
494 1778
494 1783
494 1789
494 1837
494 1860
494 1864
494 1883
494 1890
494 1893
494 1897
494 1911
494 1916
494 1931
494 1958
494 1968
494 1979
494 2018
494 2036
494 2037
494 2062
494 2138
494 2151
494 2172
494 2175
494 2182
494 2201
494 2341
494 2364
494 2370
494 2395
494 2408
494 2425
494 2429
494 2501
494 2544
494 2551
494 2553
494 2570
494 2593
494 2626
494 2634
494 2647
494 2665
494 2673
495 557
496 622
496 749
496 755
496 849
496 891
496 896
496 907
496 972
496 978
496 991
496 1043
496 1088
496 1093
496 1117
496 1226
496 1264
496 1334
496 1385
496 1408
496 1410
496 1422
496 1431
496 1454
496 1507
496 1530
496 1558
496 1753
496 1758
496 1779
496 1784
496 1821
496 1843
496 1850
496 1929
496 1957
496 2045
496 2093
496 2109
496 2138
496 2232
496 2271
496 2345
496 2370
496 2473
496 2574
496 2615
496 2634
496 2637
497 605
497 610
497 661
497 710
497 757
497 797
497 854
497 880
497 962
497 1039
497 1055
497 1181
497 1198
497 1203
497 1257
497 1320
497 1329
497 1335
497 1402
497 1476
497 1525
497 1606
497 1824
497 1884
497 1980
497 2005
497 2133
497 2157
497 2170
497 2179
497 2270
497 2292
497 2379
497 2407
497 2448
497 2565
497 2601
498 499
498 511
498 528
498 549
498 600
498 614
498 619
498 670
498 674
498 688
498 749
498 755
498 770
498 786
498 794
498 800
498 846
498 855
498 870
498 877
498 881
498 895
498 897
498 901
498 903
498 913
498 920
498 922
498 923
498 930
498 958
498 972
498 990
498 994
498 997
498 1012
498 1055
498 1061
498 1069
498 1073
498 1080
498 1081
498 1082
498 1100
498 1108
498 1119
498 1121
498 1128
498 1163
498 1170
498 1171
498 1175
498 1181
498 1192
498 1199
498 1202
498 1206
498 1215
498 1224
498 1235
498 1239
498 1248
498 1259
498 1262
498 1282
498 1298
498 1335
498 1356
498 1365
498 1372
498 1397
498 1403
498 1410
498 1422
498 1477
498 1502
498 1509
498 1519
498 1530
498 1540
498 1541
498 1575
498 1584
498 1587
498 1594
498 1623
498 1638
498 1659
498 1667
498 1686
498 1696
498 1708
498 1713
498 1729
498 1747
498 1761
498 1769
498 1773
498 1784
498 1817
498 1838
498 1840
498 1851
498 1852
498 1860
498 1875
498 1881
498 1883
498 1909
498 1912
498 1917
498 1923
498 1928
498 1931
498 1947
498 1953
498 1971
498 1979
498 2042
498 2053
498 2060
498 2083
498 2112
498 2163
498 2172
498 2180
498 2182
498 2201
498 2202
498 2210
498 2221
498 2228
498 2287
498 2289
498 2310
498 2327
498 2328
498 2353
498 2358
498 2370
498 2397
498 2410
498 2417
498 2423
498 2444
498 2449
498 2458
498 2470
498 2474
498 2489
498 2491
498 2507
498 2526
498 2547
498 2585
498 2593
498 2603
498 2608
498 2616
498 2618
498 2629
498 2633
498 2634
498 2649
498 2651
499 536
499 549
499 564
499 600
499 624
499 774
499 1062
499 1082
499 1119
499 1128
499 1156
499 1174
499 1175
499 1239
499 1252
499 1347
499 1400
499 1541
499 1575
499 1613
499 1623
499 1624
499 1629
499 1713
499 1729
499 1770
499 1778
499 1825
499 1832
499 1837
499 1840
499 1881
499 1912
499 1931
499 1946
499 1970
499 2071
499 2112
499 2163
499 2182
499 2277
499 2285
499 2309
499 2327
499 2370
499 2397
499 2423
499 2424
499 2474
499 2491
499 2500
499 2515
499 2580
499 2614
499 2620
499 2629
499 2633
499 2668
500 516
500 521
500 761
500 801
500 889
500 917
500 1074
500 1119
500 1304
500 1498
500 1586
500 1799
500 1964
500 2027
500 2062
500 2100
500 2179
500 2184
500 2254
500 2274
500 2299
500 2406
500 2530
500 2562
500 2591
501 630
501 1742
502 571
502 1335
502 1525
502 1614
502 1636
502 1674
502 1995
502 2005
502 2255
502 2374
502 2396
502 2445
503 508
503 524
503 550
503 684
503 697
503 742
503 798
503 803
503 876
503 910
503 954
503 960
503 962
503 963
503 981
503 1003
503 1092
503 1145
503 1151
503 1166
503 1189
503 1250
503 1255
503 1284
503 1290
503 1296
503 1353
503 1425
503 1427
503 1466
503 1546
503 1562
503 1564
503 1608
503 1617
503 1624
503 1798
503 1858
503 1905
503 1918
503 1994
503 2006
503 2027
503 2046
503 2075
503 2080
503 2100
503 2135
503 2164
503 2171
503 2189
503 2232
503 2278
503 2294
503 2307
503 2309
503 2332
503 2437
503 2452
503 2469
503 2480
503 2539
503 2586
503 2605
503 2623
503 2651
504 536
504 569
504 863
504 928
504 1041
504 1051
504 1055
504 1063
504 1093
504 1310
504 1339
504 1355
504 1783
504 2092
504 2333
504 2339
504 2386
504 2395
505 605
505 722
505 902
505 1198
505 1335
505 1525
505 2005
505 2224
505 2374
505 2407
506 528
506 570
506 617
506 634
506 706
506 835
506 844
506 897
506 937
506 1012
506 1039
506 1054
506 1055
506 1152
506 1181
506 1387
506 1479
506 1506
506 1520
506 1555
506 1600
506 1622
506 1625
506 1638
506 1657
506 1662
506 1686
506 1760
506 1779
506 1824
506 1831
506 1881
506 1923
506 1931
506 1979
506 2011
506 2074
506 2095
506 2172
506 2221
506 2282
506 2297
506 2410
506 2413
506 2553
506 2634
506 2655
506 2659
507 602
507 1060
507 1091
507 1223
507 1225
507 1448
507 1456
507 1741
507 1801
507 1927
507 1980
507 2091
507 2175
507 2361
507 2456
507 2467
508 517
508 540
508 544
508 560
508 576
508 586
508 634
508 635
508 660
508 699
508 708
508 737
508 746
508 762
508 772
508 776
508 803
508 822
508 850
508 851
508 852
508 866
508 876
508 910
508 930
508 960
508 963
508 972
508 981
508 1003
508 1019
508 1041
508 1042
508 1074
508 1111
508 1117
508 1138
508 1217
508 1230
508 1289
508 1299
508 1346
508 1395
508 1401
508 1487
508 1546
508 1570
508 1605
508 1607
508 1608
508 1617
508 1635
508 1685
508 1699
508 1733
508 1767
508 1774
508 1783
508 1857
508 1883
508 1897
508 1898
508 1908
508 1914
508 1916
508 1938
508 1941
508 1979
508 1983
508 1994
508 2016
508 2023
508 2034
508 2046
508 2062
508 2083
508 2137
508 2151
508 2164
508 2177
508 2260
508 2263
508 2342
508 2360
508 2392
508 2430
508 2435
508 2452
508 2455
508 2469
508 2478
508 2501
508 2532
508 2570
508 2574
508 2586
508 2622
508 2623
508 2659
508 2666
508 2673
509 549
509 600
509 614
509 651
509 681
509 688
509 691
509 697
509 738
509 766
509 800
509 855
509 858
509 877
509 888
509 930
509 990
509 998
509 1025
509 1105
509 1202
509 1204
509 1237
509 1263
509 1264
509 1395
509 1422
509 1442
509 1562
509 1575
509 1608
509 1664
509 1670
509 1729
509 1733
509 1750
509 1758
509 1760
509 1779
509 1840
509 1871
509 1881
509 1897
509 1912
509 1916
509 1994
509 2016
509 2083
509 2109
509 2110
509 2206
509 2211
509 2228
509 2233
509 2327
509 2356
509 2392
509 2403
509 2432
509 2453
509 2474
509 2483
509 2491
509 2556
509 2608
509 2609
509 2633
509 2671
510 550
510 582
510 608
510 666
510 685
510 746
510 770
510 824
510 876
510 888
510 932
510 956
510 1093
510 1166
510 1169
510 1227
510 1266
510 1270
510 1275
510 1363
510 1406
510 1442
510 1494
510 1495
510 1500
510 1519
510 1616
510 1624
510 1635
510 1652
510 1708
510 1733
510 1738
510 1773
510 1794
510 1829
510 1830
510 1918
510 2038
510 2048
510 2051
510 2135
510 2144
510 2151
510 2189
510 2215
510 2222
510 2246
510 2267
510 2294
510 2330
510 2347
510 2363
510 2385
510 2437
510 2456
510 2467
510 2489
510 2583
510 2593
510 2598
510 2651
510 2677
511 566
511 614
511 706
511 876
511 895
511 905
511 972
511 1080
511 1135
511 1136
511 1138
511 1167
511 1235
511 1254
511 1269
511 1299
511 1339
511 1344
511 1377
511 1397
511 1401
511 1468
511 1495
511 1502
511 1534
511 1536
511 1541
511 1578
511 1594
511 1630
511 1635
511 1650
511 1659
511 1662
511 1664
511 1683
511 1685
511 1699
511 1779
511 1783
511 1843
511 1852
511 1971
511 1980
511 2011
511 2025
511 2060
511 2112
511 2137
511 2182
511 2201
511 2240
511 2246
511 2289
511 2342
511 2387
511 2410
511 2451
511 2464
511 2551
511 2587
511 2603
511 2615
511 2618
511 2660
512 528
512 624
512 897
512 1587
512 1662
512 1789
512 2172
512 2410
512 2553
513 886
513 947
513 1079
513 2659
514 542
514 624
514 669
514 671
514 778
514 781
514 865
514 885
514 922
514 923
514 925
514 970
514 1015
514 1055
514 1061
514 1062
514 1102
514 1156
514 1171
514 1199
514 1234
514 1235
514 1254
514 1291
514 1307
514 1350
514 1355
514 1356
514 1387
514 1393
514 1487
514 1533
514 1574
514 1587
514 1594
514 1630
514 1648
514 1837
514 1860
514 1931
514 2024
514 2037
514 2039
514 2042
514 2064
514 2112
514 2159
514 2172
514 2192
514 2251
514 2310
514 2313
514 2318
514 2333
514 2353
514 2362
514 2423
514 2426
514 2429
514 2474
514 2612
514 2626
514 2629
514 2643
515 1021
515 2232
515 2608
515 2634
516 559
516 651
516 749
516 806
516 889
516 932
516 1106
516 1236
516 1249
516 1263
516 1275
516 1286
516 1460
516 1504
516 1505
516 1598
516 2082
516 2233
516 2274
516 2311
516 2385
516 2460
516 2494
516 2497
516 2505
516 2623
516 2632
516 2671
517 634
517 699
517 819
517 852
517 866
517 910
517 963
517 1098
517 1217
517 1223
517 1676
517 1756
517 2016
517 2452
517 2478
517 2634
518 643
518 661
518 716
518 723
518 793
518 802
518 829
518 874
518 880
518 902
518 965
518 988
518 1001
518 1032
518 1068
518 1070
518 1093
518 1133
518 1134
518 1168
518 1215
518 1256
518 1357
518 1360
518 1400
518 1471
518 1492
518 1544
518 1574
518 1628
518 1703
518 1726
518 1791
518 1823
518 1870
518 1873
518 1874
518 1911
518 1934
518 1962
518 1985
518 1992
518 2005
518 2015
518 2017
518 2084
518 2085
518 2124
518 2150
518 2154
518 2157
518 2185
518 2204
518 2207
518 2242
518 2405
518 2510
518 2568
518 2580
518 2585
518 2652
518 2659
519 520
519 579
519 598
519 727
519 735
519 743
519 748
519 769
519 865
519 957
519 1029
519 1041
519 1042
519 1084
519 1088
519 1102
519 1170
519 1231
519 1248
519 1278
519 1282
519 1342
519 1349
519 1366
519 1394
519 1422
519 1431
519 1470
519 1518
519 1530
519 1541
519 1575
519 1582
519 1594
519 1596
519 1641
519 1670
519 1709
519 1778
519 1804
519 1815
519 1817
519 1825
519 1835
519 1909
519 1955
519 2042
519 2076
519 2093
519 2106
519 2182
519 2243
519 2250
519 2370
519 2395
519 2421
519 2429
519 2432
519 2489
519 2520
519 2571
520 670
520 713
520 929
520 1126
520 1134
520 1158
520 1258
520 1696
520 1734
520 1736
520 1815
520 1870
520 1934
520 2004
520 2502
521 553
521 559
521 577
521 628
521 695
521 698
521 718
521 753
521 799
521 889
521 899
521 923
521 955
521 962
521 991
521 1127
521 1151
521 1159
521 1249
521 1285
521 1296
521 1321
521 1412
521 1456
521 1463
521 1464
521 1475
521 1499
521 1519
521 1537
521 1545
521 1567
521 1574
521 1709
521 1736
521 1795
521 1798
521 1822
521 1854
521 1856
521 1868
521 1870
521 1885
521 1901
521 2058
521 2082
521 2199
521 2261
521 2274
521 2367
521 2369
521 2377
521 2479
521 2483
521 2500
521 2551
521 2562
521 2605
521 2638
521 2659
522 573
522 577
522 592
522 635
522 649
522 684
522 726
522 786
522 842
522 848
522 862
522 910
522 959
522 1005
522 1012
522 1021
522 1064
522 1093
522 1151
522 1185
522 1246
522 1296
522 1299
522 1397
522 1412
522 1466
522 1503
522 1524
522 1546
522 1553
522 1570
522 1610
522 1615
522 1652
522 1699
522 1729
522 1736
522 1760
522 1795
522 1847
522 1870
522 1883
522 1967
522 1979
522 1980
522 2016
522 2078
522 2137
522 2190
522 2212
522 2225
522 2274
522 2315
522 2353
522 2380
522 2423
522 2469
522 2501
522 2512
522 2514
522 2546
522 2583
522 2659
522 2673
523 584
523 720
523 910
523 1309
523 1612
523 1697
523 1778
523 1999
523 2228
523 2334
524 534
524 603
524 726
524 742
524 848
524 864
524 887
524 910
524 954
524 962
524 981
524 1021
524 1100
524 1124
524 1138
524 1151
524 1230
524 1244
524 1353
524 1362
524 1416
524 1427
524 1455
524 1564
524 1575
524 1607
524 1687
524 1691
524 1692
524 1795
524 1798
524 1897
524 1939
524 1941
524 1979
524 2016
524 2039
524 2099
524 2140
524 2179
524 2212
524 2225
524 2294
524 2367
524 2390
524 2457
524 2570
524 2605
524 2608
524 2634
524 2657
525 584
525 600
525 617
525 619
525 674
525 716
525 765
525 800
525 813
525 822
525 950
525 961
525 1105
525 1119
525 1232
525 1282
525 1309
525 1334
525 1336
525 1392
525 1477
525 1540
525 1541
525 1570
525 1591
525 1640
525 1678
525 1733
525 1778
525 1825
525 1840
525 1857
525 1883
525 1897
525 1915
525 2182
525 2203
525 2228
525 2313
525 2423
525 2453
525 2556
525 2603
525 2615
525 2633
526 612
526 634
526 846
526 867
526 949
526 971
526 1121
526 1129
526 1138
526 1269
526 1276
526 1286
526 1345
526 1374
526 1377
526 1502
526 1630
526 1659
526 1715
526 2011
526 2016
526 2137
526 2387
527 529
527 542
527 549
527 703
527 877
527 923
527 991
527 1025
527 1088
527 1091
527 1177
527 1202
527 1344
527 1372
527 1561
527 1571
527 1729
527 1834
527 1870
527 1912
527 1929
527 2042
527 2297
527 2327
527 2343
527 2421
527 2489
527 2509
527 2515
527 2540
528 542
528 570
528 582
528 608
528 617
528 651
528 672
528 703
528 749
528 753
528 766
528 794
528 818
528 870
528 897
528 899
528 937
528 943
528 967
528 972
528 990
528 996
528 998
528 1012
528 1015
528 1036
528 1039
528 1091
528 1093
528 1100
528 1127
528 1199
528 1225
528 1229
528 1251
528 1260
528 1278
528 1298
528 1301
528 1343
528 1344
528 1366
528 1409
528 1437
528 1477
528 1479
528 1507
528 1520
528 1530
528 1534
528 1545
528 1558
528 1571
528 1584
528 1622
528 1625
528 1630
528 1641
528 1657
528 1662
528 1670
528 1686
528 1687
528 1688
528 1697
528 1708
528 1713
528 1729
528 1742
528 1779
528 1786
528 1795
528 1803
528 1824
528 1837
528 1838
528 1920
528 1931
528 1942
528 1944
528 1998
528 2074
528 2095
528 2128
528 2138
528 2151
528 2163
528 2179
528 2192
528 2201
528 2221
528 2240
528 2282
528 2309
528 2310
528 2311
528 2318
528 2327
528 2353
528 2367
528 2370
528 2408
528 2410
528 2413
528 2422
528 2426
528 2540
528 2547
528 2553
528 2585
528 2593
528 2626
528 2629
528 2643
528 2649
529 545
529 567
529 570
529 582
529 620
529 651
529 669
529 727
529 766
529 778
529 795
529 799
529 822
529 922
529 930
529 953
529 972
529 989
529 990
529 1045
529 1091
529 1102
529 1231
529 1235
529 1264
529 1336
529 1387
529 1411
529 1439
529 1486
529 1489
529 1507
529 1518
529 1545
529 1555
529 1575
529 1585
529 1597
529 1622
529 1668
529 1683
529 1692
529 1696
529 1706
529 1734
529 1770
529 1838
529 1923
529 1955
529 1979
529 2039
529 2042
529 2074
529 2097
529 2137
529 2161
529 2179
529 2192
529 2205
529 2368
529 2386
529 2426
529 2486
529 2489
529 2544
529 2561
529 2592
530 1261
530 1727
530 2021
531 1430
531 1797
531 1819
531 1885
531 1903
531 2025
531 2598
531 2609
531 2646
532 1537
532 1660
532 2188
532 2476
533 537
533 554
533 595
533 643
533 646
533 661
533 663
533 676
533 694
533 696
533 829
533 860
533 880
533 885
533 902
533 941
533 980
533 1009
533 1134
533 1174
533 1181
533 1360
533 1476
533 1496
533 1515
533 1516
533 1544
533 1574
533 1619
533 1680
533 1703
533 1726
533 1768
533 1814
533 1874
533 1911
533 1934
533 2005
533 2085
533 2132
533 2139
533 2150
533 2157
533 2204
533 2219
533 2331
533 2428
533 2484
533 2516
533 2565
533 2568
533 2614
533 2652
534 1969
535 608
535 831
535 956
535 1042
535 1091
535 1097
535 1223
535 1266
535 1409
535 1548
535 1592
535 1626
535 1796
535 1870
535 1904
535 1938
535 1954
535 1963
535 1978
535 1979
535 2091
535 2297
535 2303
535 2380
535 2456
536 543
536 584
536 620
536 635
536 674
536 691
536 725
536 727
536 772
536 822
536 863
536 881
536 920
536 928
536 930
536 943
536 961
536 996
536 1037
536 1086
536 1186
536 1232
536 1264
536 1289
536 1290
536 1302
536 1309
536 1328
536 1354
536 1588
536 1591
536 1612
536 1623
536 1629
536 1634
536 1640
536 1697
536 1713
536 1723
536 1733
536 1734
536 1778
536 1825
536 1907
536 1950
536 1999
536 2045
536 2203
536 2206
536 2228
536 2326
536 2334
536 2378
536 2413
536 2422
536 2432
536 2453
536 2475
536 2633
537 598
537 605
537 617
537 624
537 645
537 656
537 661
537 663
537 669
537 692
537 723
537 793
537 802
537 812
537 833
537 874
537 880
537 937
537 952
537 1015
537 1031
537 1102
537 1134
537 1168
537 1181
537 1258
537 1274
537 1298
537 1329
537 1343
537 1350
537 1360
537 1479
537 1492
537 1530
537 1599
537 1629
537 1677
537 1703
537 1754
537 1770
537 1791
537 1823
537 1906
537 1915
537 1962
537 1964
537 2180
537 2185
537 2220
537 2242
537 2297
537 2370
537 2395
537 2405
537 2556
537 2568
537 2643
537 2652
537 2665
538 559
538 569
538 592
538 611
538 655
538 665
538 726
538 803
538 816
538 820
538 858
538 962
538 974
538 983
538 1094
538 1119
538 1172
538 1197
538 1308
538 1397
538 1412
538 1463
538 1465
538 1553
538 1564
538 1567
538 1660
538 1764
538 1854
538 1858
538 1894
538 1945
538 1979
538 2027
538 2099
538 2101
538 2199
538 2282
538 2389
538 2501
538 2659
539 544
539 653
539 977
539 1065
539 1236
539 1261
539 1315
539 1620
539 2266
539 2298
539 2305
539 2650
539 2670
540 543
540 590
540 596
540 606
540 608
540 620
540 682
540 720
540 737
540 738
540 746
540 772
540 800
540 811
540 849
540 888
540 932
540 956
540 975
540 1093
540 1126
540 1138
540 1185
540 1195
540 1237
540 1275
540 1299
540 1318
540 1330
540 1361
540 1395
540 1416
540 1451
540 1536
540 1552
540 1575
540 1685
540 1721
540 1733
540 1840
540 1887
540 1897
540 1903
540 1916
540 1941
540 2092
540 2246
540 2264
540 2387
540 2469
540 2501
540 2505
540 2547
540 2551
540 2570
540 2574
540 2593
540 2599
540 2609
540 2617
540 2623
540 2634
540 2673
541 599
541 602
541 776
541 998
541 1011
541 1046
541 1503
541 1565
541 1661
541 1797
541 1798
541 1856
541 1914
541 1920
541 1959
541 2007
541 2179
541 2284
541 2361
541 2386
541 2583
541 2608
541 2623
542 608
542 627
542 666
542 672
542 824
542 885
542 923
542 925
542 972
542 1015
542 1062
542 1102
542 1138
542 1182
542 1248
542 1291
542 1343
542 1394
542 1411
542 1561
542 1569
542 1574
542 1674
542 1711
542 1729
542 1837
542 2053
542 2134
542 2192
542 2231
542 2293
542 2318
542 2353
542 2370
542 2509
542 2526
542 2540
542 2544
542 2553
542 2655
543 584
543 674
543 765
543 772
543 800
543 822
543 891
543 927
543 928
543 930
543 978
543 990
543 996
543 1086
543 1108
543 1144
543 1185
543 1186
543 1247
543 1270
543 1301
543 1309
543 1395
543 1442
543 1454
543 1487
543 1529
543 1570
543 1581
543 1612
543 1615
543 1623
543 1683
543 1697
543 1733
543 1778
543 1821
543 1837
543 1840
543 1855
543 1869
543 1871
543 1897
543 1912
543 1915
543 1917
543 1941
543 1999
543 2007
543 2034
543 2068
543 2083
543 2202
543 2228
543 2334
543 2360
543 2392
543 2417
543 2425
543 2432
543 2453
543 2528
543 2570
543 2607
543 2633
543 2634
543 2665
544 606
544 691
544 776
544 848
544 1021
544 1044
544 1074
544 1111
544 1166
544 1169
544 1195
544 1546
544 1558
544 1608
544 1733
544 1758
544 1887
544 1897
544 2100
544 2347
544 2401
544 2432
544 2469
544 2553
544 2598
544 2615
544 2623
544 2628
544 2634
545 549
545 567
545 570
545 585
545 620
545 704
545 706
545 832
545 897
545 923
545 951
545 953
545 972
545 1039
545 1049
545 1055
545 1060
545 1061
545 1103
545 1181
545 1191
545 1220
545 1272
545 1278
545 1279
545 1350
545 1356
545 1366
545 1387
545 1411
545 1422
545 1439
545 1461
545 1518
545 1585
545 1597
545 1600
545 1603
545 1622
545 1625
545 1664
545 1692
545 1696
545 1770
545 1779
545 1824
545 1831
545 1838
545 1919
545 1935
545 1955
545 2042
545 2053
545 2154
545 2163
545 2205
545 2221
545 2231
545 2327
545 2410
545 2421
545 2426
545 2486
545 2489
545 2526
545 2592
545 2615
545 2645
546 926
546 1543
546 1673
546 1675
546 1714
546 1755
546 2076
546 2221
547 1042
547 1228
548 922
548 2311
549 564
549 567
549 570
549 582
549 598
549 614
549 620
549 666
549 685
549 746
549 753
549 766
549 770
549 778
549 795
549 805
549 865
549 872
549 878
549 888
549 895
549 901
549 933
549 934
549 953
549 972
549 975
549 984
549 1012
549 1028
549 1029
549 1042
549 1045
549 1054
549 1061
549 1062
549 1082
549 1091
549 1097
549 1102
549 1128
549 1129
549 1151
549 1153
549 1166
549 1173
549 1175
549 1177
549 1192
549 1199
549 1226
549 1233
549 1247
549 1261
549 1262
549 1278
549 1282
549 1285
549 1295
549 1333
549 1353
549 1384
549 1403
549 1419
549 1439
549 1477
549 1495
549 1502
549 1503
549 1518
549 1533
549 1537
549 1541
549 1545
549 1547
549 1558
549 1570
549 1577
549 1599
549 1612
549 1635
549 1652
549 1696
549 1708
549 1719
549 1729
549 1745
549 1760
549 1773
549 1782
549 1795
549 1796
549 1797
549 1809
549 1815
549 1817
549 1824
549 1838
549 1839
549 1863
549 1870
549 1887
549 1893
549 1897
549 1903
549 1904
549 1923
549 1933
549 1954
549 1957
549 1963
549 1970
549 1971
549 1983
549 1994
549 2010
549 2071
549 2135
549 2137
549 2138
549 2151
549 2171
549 2182
549 2189
549 2190
549 2209
549 2294
549 2309
549 2327
549 2361
549 2367
549 2399
549 2411
549 2421
549 2422
549 2425
549 2435
549 2456
549 2486
549 2490
549 2512
549 2536
549 2544
549 2560
549 2634
549 2635
549 2673
549 2676
550 682
550 749
550 855
550 876
550 910
550 1011
550 1021
550 1046
550 1091
550 1093
550 1166
550 1192
550 1228
550 1289
550 1425
550 1442
550 1608
550 1687
550 1795
550 1798
550 1979
550 2027
550 2100
550 2135
550 2189
550 2232
550 2530
550 2586
550 2598
550 2634
551 561
551 605
551 613
551 625
551 660
551 678
551 860
551 883
551 914
551 919
551 968
551 988
551 1006
551 1069
551 1138
551 1317
551 1471
551 1667
551 1961
551 2015
551 2244
551 2253
551 2285
551 2516
551 2555
551 2666
552 564
552 567
552 578
552 600
552 626
552 683
552 704
552 710
552 712
552 735
552 753
552 760
552 766
552 771
552 774
552 782
552 812
552 877
552 885
552 897
552 923
552 925
552 953
552 957
552 964
552 990
552 1012
552 1015
552 1029
552 1031
552 1062
552 1081
552 1082
552 1091
552 1151
552 1159
552 1165
552 1175
552 1177
552 1182
552 1235
552 1239
552 1248
552 1262
552 1278
552 1290
552 1343
552 1344
552 1356
552 1372
552 1393
552 1454
552 1461
552 1475
552 1530
552 1541
552 1555
552 1577
552 1594
552 1717
552 1796
552 1870
552 1881
552 1910
552 1919
552 1923
552 1933
552 1934
552 1963
552 1970
552 2020
552 2044
552 2053
552 2112
552 2182
552 2243
552 2277
552 2290
552 2327
552 2353
552 2361
552 2367
552 2421
552 2424
552 2429
552 2470
552 2490
552 2500
552 2540
552 2585
552 2668
553 559
553 628
553 695
553 718
553 757
553 782
553 931
553 934
553 962
553 1091
553 1119
553 1159
553 1164
553 1182
553 1207
553 1249
553 1266
553 1296
553 1303
553 1313
553 1404
553 1412
553 1427
553 1464
553 1475
553 1504
553 1534
553 1561
553 1567
553 1577
553 1683
553 1706
553 1718
553 1736
553 1868
553 1870
553 1883
553 1927
553 1934
553 1979
553 2052
553 2071
553 2107
553 2262
553 2274
553 2377
553 2380
553 2502
553 2586
553 2614
553 2638
554 692
554 694
554 696
554 1181
554 1396
554 1695
554 1735
554 1768
554 1823
554 2009
554 2348
554 2489
554 2551
555 1571
556 569
556 935
556 975
556 1112
556 1473
556 1500
556 1649
556 1719
556 1721
556 1799
556 2258
556 2294
556 2330
556 2389
556 2520
556 2591
556 2671
556 2676
557 620
557 708
557 813
557 879
557 1289
557 1354
557 1536
557 1783
557 1958
557 1980
557 2060
557 2231
557 2504
558 1025
558 1062
558 1081
558 1159
558 1264
558 1355
558 1356
558 1372
558 1475
558 1480
558 1528
558 1541
558 1587
558 1594
558 1717
558 1729
558 1912
558 2078
558 2175
558 2211
558 2429
558 2489
559 695
559 790
559 917
559 936
559 1007
559 1059
559 1099
559 1207
559 1280
559 1413
559 1504
559 1505
559 1508
559 1526
559 1598
559 1694
559 1727
559 1736
559 1888
559 2082
559 2262
559 2274
559 2281
559 2298
559 2460
559 2494
559 2497
559 2562
559 2572
559 2670
559 2676
560 1564
560 1885
560 1898
560 1914
560 1979
560 2021
560 2332
560 2480
560 2614
561 610
561 618
561 656
561 663
561 702
561 846
561 860
561 874
561 883
561 886
561 904
561 914
561 919
561 968
561 1006
561 1061
561 1071
561 1174
561 1176
561 1234
561 1341
561 1347
561 1488
561 1619
561 1726
561 1744
561 1772
561 1814
561 1878
561 2115
561 2194
561 2219
561 2244
561 2247
561 2252
561 2257
561 2295
561 2340
561 2350
561 2428
561 2516
561 2541
561 2568
561 2581
561 2602
561 2634
561 2672
562 573
562 612
562 790
562 971
562 993
562 1286
562 1406
562 1409
562 1428
562 1719
562 1757
562 1815
562 1858
562 1895
562 1918
562 2011
562 2014
562 2027
562 2201
562 2208
562 2239
562 2258
562 2398
562 2464
562 2520
562 2630
563 760
563 1120
563 2479
564 568
564 600
564 626
564 735
564 774
564 929
564 953
564 1062
564 1082
564 1139
564 1156
564 1165
564 1175
564 1262
564 1326
564 1343
564 1408
564 1481
564 1541
564 1577
564 1588
564 1624
564 1673
564 1713
564 1840
564 1863
564 1881
564 1883
564 1925
564 1933
564 1934
564 1946
564 1970
564 2071
564 2149
564 2163
564 2210
564 2243
564 2277
564 2293
564 2358
564 2370
564 2396
564 2413
564 2423
564 2424
564 2474
564 2490
564 2491
564 2500
564 2614
564 2633
564 2668
565 622
565 658
565 693
565 988
565 1093
565 1174
565 1274
565 1287
565 1357
565 1574
565 1658
565 1710
565 1810
565 1874
565 1986
565 2003
565 2005
565 2015
565 2102
565 2255
565 2270
565 2510
566 602
566 612
566 635
566 654
566 672
566 720
566 728
566 744
566 770
566 862
566 876
566 905
566 949
566 971
566 972
566 975
566 986
566 1042
566 1046
566 1058
566 1235
566 1328
566 1332
566 1354
566 1361
566 1401
566 1468
566 1472
566 1495
566 1534
566 1591
566 1613
566 1618
566 1635
566 1662
566 1699
566 1730
566 1762
566 1846
566 1963
566 1979
566 1980
566 2025
566 2076
566 2101
566 2110
566 2137
566 2193
566 2221
566 2240
566 2246
566 2286
566 2342
566 2599
566 2618
566 2660
567 570
567 598
567 735
567 747
567 769
567 795
567 827
567 830
567 835
567 865
567 897
567 901
567 922
567 953
567 957
567 1029
567 1031
567 1082
567 1102
567 1119
567 1191
567 1235
567 1239
567 1266
567 1273
567 1278
567 1322
567 1343
567 1350
567 1411
567 1426
567 1502
567 1509
567 1518
567 1530
567 1566
567 1585
567 1597
567 1599
567 1622
567 1625
567 1770
567 1834
567 1838
567 1883
567 1934
567 1955
567 2042
567 2044
567 2101
567 2107
567 2267
567 2287
567 2353
567 2410
567 2413
567 2421
567 2422
567 2429
567 2486
567 2526
567 2544
567 2554
567 2556
567 2577
567 2649
567 2662
568 622
568 760
568 771
568 774
568 929
568 948
568 1126
568 1150
568 1174
568 1280
568 1577
568 1624
568 1870
568 1934
568 1946
569 576
569 596
569 655
569 749
569 768
569 780
569 826
569 934
569 935
569 975
569 984
569 998
569 1091
569 1093
569 1103
569 1112
569 1126
569 1129
569 1136
569 1138
569 1188
569 1218
569 1286
569 1290
569 1339
569 1371
569 1412
569 1428
569 1473
569 1500
569 1524
569 1530
569 1649
569 1673
569 1719
569 1721
569 1736
569 1757
569 1799
569 1942
569 1979
569 2039
569 2053
569 2067
569 2184
569 2208
569 2239
569 2258
569 2290
569 2310
569 2330
569 2387
569 2520
569 2591
569 2629
569 2670
569 2673
569 2676
570 585
570 598
570 651
570 669
570 671
570 691
570 727
570 739
570 766
570 778
570 781
570 795
570 813
570 835
570 847
570 865
570 870
570 885
570 897
570 922
570 924
570 951
570 953
570 1031
570 1039
570 1045
570 1052
570 1061
570 1093
570 1102
570 1119
570 1129
570 1138
570 1152
570 1171
570 1177
570 1204
570 1229
570 1231
570 1235
570 1264
570 1272
570 1322
570 1343
570 1350
570 1387
570 1411
570 1412
570 1433
570 1439
570 1489
570 1518
570 1530
570 1531
570 1537
570 1555
570 1558
570 1569
570 1571
570 1575
570 1588
570 1597
570 1599
570 1625
570 1670
570 1679
570 1692
570 1696
570 1705
570 1706
570 1742
570 1770
570 1803
570 1809
570 1824
570 1831
570 1834
570 1838
570 1854
570 1860
570 1870
570 1881
570 1923
570 1955
570 1958
570 2008
570 2039
570 2042
570 2044
570 2074
570 2142
570 2160
570 2163
570 2172
570 2179
570 2183
570 2192
570 2205
570 2209
570 2221
570 2231
570 2290
570 2294
570 2297
570 2327
570 2352
570 2353
570 2379
570 2386
570 2389
570 2410
570 2413
570 2421
570 2422
570 2426
570 2437
570 2486
570 2489
570 2496
570 2526
570 2536
570 2540
570 2553
570 2554
570 2561
570 2585
570 2649
570 2655
571 791
571 884
571 914
571 1009
571 1138
571 1541
571 1681
571 1841
571 2030
571 2216
571 2327
571 2349
571 2564
571 2656
572 600
572 614
572 619
572 624
572 644
572 817
572 1035
572 1048
572 1105
572 1467
572 1541
572 1572
572 2109
572 2126
572 2182
572 2202
572 2203
572 2370
572 2386
572 2553
572 2603
572 2609
572 2615
573 670
573 738
573 776
573 784
573 806
573 808
573 845
573 931
573 960
573 972
573 1034
573 1039
573 1042
573 1085
573 1093
573 1138
573 1180
573 1346
573 1378
573 1403
573 1425
573 1473
573 1558
573 1609
573 1687
573 1754
573 1783
573 1908
573 1947
573 1951
573 2004
573 2032
573 2109
573 2164
573 2201
573 2203
573 2228
573 2232
573 2235
573 2258
573 2280
573 2370
573 2422
573 2432
573 2474
573 2512
573 2613
573 2623
573 2637
573 2658
573 2661
574 599
574 624
574 635
574 739
574 994
574 998
574 1139
574 1239
574 1248
574 1254
574 1258
574 1390
574 1393
574 1468
574 1575
574 1587
574 1596
574 1683
574 1778
574 1783
574 1784
574 1796
574 1860
574 1903
574 1915
574 2037
574 2159
574 2172
574 2289
574 2386
574 2426
574 2464
574 2544
574 2607
574 2626
574 2643
574 2665
575 597
575 719
575 765
575 779
575 842
575 899
575 943
575 958
575 1013
575 1091
575 1097
575 1120
575 1144
575 1151
575 1154
575 1265
575 1371
575 1442
575 1498
575 1579
575 1624
575 1746
575 1782
575 1796
575 1829
575 2039
575 2050
575 2161
575 2207
575 2209
575 2232
575 2286
575 2299
575 2359
575 2435
575 2456
575 2520
575 2570
575 2671
575 2676
576 606
576 618
576 635
576 682
576 685
576 688
576 691
576 697
576 708
576 746
576 859
576 876
576 913
576 943
576 970
576 971
576 972
576 999
576 1042
576 1082
576 1097
576 1129
576 1138
576 1206
576 1223
576 1247
576 1361
576 1371
576 1401
576 1425
576 1442
576 1456
576 1457
576 1494
576 1506
576 1519
576 1522
576 1532
576 1548
576 1570
576 1579
576 1608
576 1617
576 1635
576 1685
576 1699
576 1708
576 1733
576 1762
576 1783
576 1796
576 1797
576 1799
576 1869
576 1871
576 1883
576 1887
576 1902
576 1916
576 1941
576 1945
576 1979
576 1983
576 2021
576 2038
576 2041
576 2062
576 2068
576 2080
576 2083
576 2103
576 2106
576 2137
576 2171
576 2212
576 2316
576 2323
576 2342
576 2347
576 2434
576 2435
576 2570
576 2574
576 2586
576 2598
576 2628
576 2673
576 2676
577 655
577 718
577 728
577 765
577 786
577 819
577 862
577 939
577 1119
577 1288
577 1347
577 1370
577 1425
577 1472
577 1567
577 1610
577 1767
577 1798
577 1830
577 1845
577 1852
577 1901
577 1936
577 1979
577 2199
577 2228
577 2262
577 2532
577 2566
577 2634
578 636
578 760
578 771
578 923
578 1015
578 1182
578 1309
578 1343
578 1389
578 2053
578 2424
579 619
579 651
579 666
579 748
579 753
579 765
579 799
579 891
579 920
579 958
579 990
579 1045
579 1091
579 1124
579 1144
579 1151
579 1162
579 1206
579 1230
579 1264
579 1271
579 1291
579 1394
579 1494
579 1545
579 1547
579 1574
579 1678
579 1688
579 1692
579 1724
579 1729
579 1795
579 1837
579 1869
579 2042
579 2062
579 2313
579 2361
579 2370
580 604
580 608
580 633
580 666
580 739
580 746
580 770
580 801
580 824
580 831
580 888
580 896
580 990
580 1041
580 1064
580 1100
580 1124
580 1138
580 1150
580 1162
580 1181
580 1189
580 1206
580 1214
580 1230
580 1264
580 1272
580 1291
580 1299
580 1304
580 1323
580 1346
580 1430
580 1464
580 1504
580 1524
580 1541
580 1558
580 1570
580 1649
580 1687
580 1699
580 1719
580 1721
580 1773
580 1784
580 1819
580 1830
580 1837
580 1864
580 1914
580 1920
580 1931
580 1945
580 1979
580 2027
580 2037
580 2049
580 2062
580 2092
580 2130
580 2175
580 2184
580 2200
580 2201
580 2231
580 2254
580 2262
580 2263
580 2282
580 2305
580 2307
580 2319
580 2353
580 2358
580 2361
580 2370
580 2390
580 2483
580 2501
580 2532
580 2539
580 2547
580 2570
580 2589
580 2648
580 2659
580 2673
581 770
581 895
581 1166
581 1244
581 1495
581 1578
581 1750
581 1795
581 1953
581 2062
581 2178
581 2311
581 2513
581 2636
581 2671
582 596
582 598
582 608
582 666
582 677
582 685
582 746
582 749
582 755
582 770
582 782
582 793
582 867
582 870
582 889
582 915
582 932
582 943
582 975
582 979
582 984
582 986
582 1028
582 1039
582 1131
582 1188
582 1207
582 1210
582 1229
582 1233
582 1246
582 1263
582 1264
582 1268
582 1272
582 1275
582 1286
582 1309
582 1316
582 1346
582 1363
582 1400
582 1406
582 1412
582 1428
582 1451
582 1473
582 1494
582 1498
582 1500
582 1504
582 1505
582 1519
582 1521
582 1524
582 1588
582 1617
582 1630
582 1649
582 1650
582 1652
582 1664
582 1672
582 1675
582 1708
582 1719
582 1721
582 1736
582 1737
582 1738
582 1745
582 1773
582 1779
582 1782
582 1794
582 1823
582 1827
582 1831
582 1876
582 1881
582 1921
582 1931
582 1942
582 1945
582 1947
582 1954
582 1963
582 1979
582 1984
582 2007
582 2033
582 2039
582 2048
582 2050
582 2051
582 2065
582 2092
582 2104
582 2135
582 2144
582 2175
582 2184
582 2188
582 2189
582 2208
582 2209
582 2215
582 2233
582 2237
582 2239
582 2258
582 2269
582 2311
582 2321
582 2352
582 2363
582 2385
582 2387
582 2399
582 2456
582 2479
582 2494
582 2512
582 2520
582 2544
582 2548
582 2570
582 2578
582 2608
582 2659
582 2670
582 2671
582 2672
583 1921
584 587
584 622
584 649
584 674
584 720
584 808
584 855
584 863
584 879
584 891
584 920
584 928
584 930
584 951
584 996
584 1037
584 1043
584 1091
584 1119
584 1186
584 1309
584 1310
584 1410
584 1528
584 1570
584 1612
584 1640
584 1683
584 1697
584 1724
584 1754
584 1778
584 1840
584 1871
584 1917
584 1999
584 2206
584 2228
584 2334
584 2339
584 2408
584 2417
584 2453
584 2570
584 2595
584 2607
584 2633
585 614
585 1049
585 1344
585 1461
585 1603
585 1741
585 1954
585 1958
585 1963
585 2092
585 2163
585 2188
585 2294
585 2319
585 2370
585 2421
585 2489
585 2505
585 2569
586 939
586 1005
586 1019
586 1466
586 1979
586 2035
586 2452
587 909
587 1309
587 1321
587 1591
587 1612
587 1697
587 1825
587 1999
587 2059
587 2334
587 2378
587 2443
587 2494
587 2607
587 2627
588 594
588 782
588 839
588 890
588 1343
588 1518
588 1574
588 1870
588 1934
588 2053
588 2502
588 2522
588 2577
589 668
589 709
589 985
589 1023
589 1042
589 1153
589 1199
589 1229
589 1266
589 1500
589 1532
589 1549
589 1652
589 1708
589 1750
589 1798
589 1876
589 1923
589 1947
589 1954
589 2079
589 2179
589 2189
589 2251
589 2294
589 2380
589 2387
589 2631
590 688
590 719
590 768
590 855
590 1093
590 1195
590 1403
590 1464
590 1467
590 1494
590 1558
590 1675
590 1699
590 1733
590 1737
590 1797
590 1945
590 1967
590 2016
590 2021
590 2025
590 2267
590 2320
590 2469
590 2593
590 2598
590 2671
591 762
591 846
591 1601
591 1727
591 2141
592 603
592 608
592 631
592 665
592 666
592 699
592 715
592 726
592 742
592 803
592 824
592 858
592 896
592 910
592 959
592 962
592 998
592 1021
592 1045
592 1100
592 1119
592 1124
592 1129
592 1138
592 1151
592 1162
592 1172
592 1185
592 1195
592 1206
592 1214
592 1230
592 1244
592 1306
592 1318
592 1362
592 1378
592 1412
592 1427
592 1454
592 1481
592 1494
592 1547
592 1610
592 1687
592 1688
592 1691
592 1729
592 1732
592 1739
592 1748
592 1760
592 1764
592 1779
592 1795
592 1798
592 1847
592 1864
592 1890
592 1920
592 1969
592 1979
592 2034
592 2078
592 2090
592 2126
592 2140
592 2151
592 2177
592 2201
592 2212
592 2225
592 2232
592 2307
592 2309
592 2361
592 2367
592 2390
592 2433
592 2494
592 2512
592 2593
592 2604
592 2634
592 2657
593 610
593 1357
593 1574
593 1844
593 2015
593 2087
593 2178
593 2242
593 2244
593 2295
593 2349
594 817
594 839
594 890
594 1119
594 1518
594 2522
594 2579
595 610
595 646
595 675
595 861
595 880
595 947
595 1009
595 1032
595 1093
595 1178
595 1256
595 1264
595 1400
595 1515
595 1681
595 1988
595 2003
595 2017
595 2065
595 2132
595 2136
595 2157
595 2167
595 2195
595 2219
595 2255
595 2300
595 2331
595 2375
595 2580
595 2600
595 2601
596 618
596 682
596 695
596 719
596 720
596 728
596 744
596 746
596 770
596 792
596 808
596 809
596 855
596 878
596 896
596 935
596 949
596 975
596 1030
596 1119
596 1129
596 1138
596 1179
596 1188
596 1205
596 1226
596 1233
596 1263
596 1266
596 1286
596 1361
596 1401
596 1413
596 1426
596 1428
596 1472
596 1473
596 1484
596 1500
596 1558
596 1635
596 1649
596 1675
596 1708
596 1715
596 1719
596 1721
596 1737
596 1745
596 1782
596 1827
596 1850
596 1883
596 1916
596 1979
596 2001
596 2014
596 2050
596 2101
596 2197
596 2201
596 2208
596 2239
596 2258
596 2294
596 2330
596 2347
596 2377
596 2435
596 2475
596 2498
596 2501
596 2520
596 2530
596 2534
596 2539
596 2591
596 2599
596 2637
596 2676
597 719
597 779
597 842
597 899
597 943
597 974
597 1120
597 1254
597 1265
597 1280
597 1332
597 1426
597 1465
597 1539
597 1579
597 1624
597 1796
597 2050
597 2161
597 2286
597 2359
597 2399
597 2435
597 2570
598 704
598 769
598 795
598 842
598 844
598 847
598 865
598 953
598 957
598 1029
598 1031
598 1061
598 1091
598 1102
598 1128
598 1199
598 1235
598 1278
598 1343
598 1356
598 1500
598 1518
598 1530
598 1533
598 1541
598 1549
598 1585
598 1599
598 1622
598 1686
598 1698
598 1919
598 1923
598 2037
598 2039
598 2042
598 2081
598 2084
598 2137
598 2192
598 2243
598 2297
598 2327
598 2353
598 2379
598 2460
598 2554
598 2585
599 616
599 751
599 805
599 815
599 991
599 1085
599 1146
599 1195
599 1282
599 1409
599 1412
599 1413
599 1598
599 1655
599 1706
599 1888
599 1952
599 1976
599 2002
599 2131
599 2232
599 2261
599 2354
599 2367
599 2376
599 2402
599 2589
599 2648
599 2670
600 626
600 631
600 633
600 647
600 664
600 700
600 706
600 744
600 770
600 792
600 901
600 925
600 930
600 972
600 1015
600 1043
600 1062
600 1074
600 1081
600 1082
600 1128
600 1159
600 1239
600 1262
600 1282
600 1299
600 1311
600 1347
600 1350
600 1356
600 1363
600 1397
600 1444
600 1474
600 1484
600 1502
600 1503
600 1536
600 1540
600 1541
600 1558
600 1594
600 1597
600 1633
600 1641
600 1662
600 1724
600 1760
600 1769
600 1817
600 2010
600 2056
600 2074
600 2112
600 2182
600 2200
600 2203
600 2312
600 2313
600 2346
600 2362
600 2370
600 2539
600 2544
600 2603
600 2615
600 2618
600 2620
600 2634
600 2668
601 608
601 1253
601 2200
602 850
602 1011
602 1046
602 1058
602 1284
602 1332
602 1354
602 1661
602 1730
602 1741
602 1801
602 1846
602 1920
602 1927
602 1980
602 2025
602 2075
602 2076
602 2221
602 2284
602 2369
602 2576
602 2583
602 2608
602 2623
603 608
603 666
603 742
603 803
603 824
603 831
603 858
603 896
603 939
603 990
603 999
603 1021
603 1100
603 1124
603 1162
603 1172
603 1195
603 1206
603 1230
603 1244
603 1291
603 1362
603 1394
603 1427
603 1547
603 1607
603 1688
603 1691
603 1729
603 1795
603 1837
603 1864
603 1969
603 1979
603 2151
603 2177
603 2201
603 2305
603 2370
603 2480
603 2593
603 2604
603 2608
603 2659
604 1195
604 1206
604 1230
604 1233
604 1299
604 1304
604 1413
604 1464
604 1883
604 1979
604 1983
604 2062
604 2127
604 2200
604 2386
604 2454
604 2501
604 2673
605 645
605 820
605 884
605 914
605 1006
605 1026
605 1198
605 1256
605 1257
605 1266
605 1274
605 1320
605 1335
605 1360
605 1525
605 1590
605 1636
605 1707
605 1722
605 1744
605 1874
605 1930
605 1980
605 2005
605 2015
605 2059
605 2133
605 2170
605 2179
605 2292
605 2295
605 2300
605 2407
605 2445
605 2448
605 2565
605 2568
606 608
606 682
606 691
606 697
606 737
606 753
606 772
606 811
606 855
606 905
606 921
606 970
606 1044
606 1045
606 1091
606 1111
606 1165
606 1166
606 1169
606 1185
606 1223
606 1289
606 1353
606 1361
606 1395
606 1442
606 1456
606 1494
606 1545
606 1546
606 1562
606 1570
606 1608
606 1615
606 1616
606 1634
606 1693
606 1723
606 1733
606 1750
606 1779
606 1796
606 1840
606 1857
606 1871
606 1887
606 1897
606 1912
606 1916
606 1938
606 1941
606 1954
606 2016
606 2079
606 2135
606 2171
606 2189
606 2264
606 2277
606 2283
606 2316
606 2347
606 2392
606 2401
606 2453
606 2528
606 2570
606 2595
606 2615
606 2623
606 2628
606 2633
606 2634
607 723
607 965
607 1014
607 1053
607 1067
607 1241
607 1311
607 1590
607 2088
607 2293
607 2355
607 2415
607 2484
608 655
608 666
608 699
608 724
608 726
608 738
608 742
608 749
608 765
608 772
608 824
608 831
608 849
608 852
608 855
608 858
608 876
608 879
608 896
608 923
608 943
608 956
608 964
608 971
608 975
608 984
608 990
608 998
608 1011
608 1016
608 1034
608 1045
608 1058
608 1064
608 1072
608 1093
608 1100
608 1129
608 1138
608 1149
608 1162
608 1166
608 1172
608 1174
608 1195
608 1206
608 1224
608 1226
608 1230
608 1237
608 1266
608 1270
608 1290
608 1291
608 1292
608 1333
608 1346
608 1353
608 1361
608 1394
608 1409
608 1412
608 1413
608 1427
608 1430
608 1454
608 1473
608 1494
608 1495
608 1503
608 1507
608 1510
608 1519
608 1534
608 1539
608 1545
608 1547
608 1548
608 1558
608 1570
608 1575
608 1579
608 1592
608 1626
608 1675
608 1685
608 1687
608 1704
608 1721
608 1723
608 1729
608 1733
608 1769
608 1784
608 1788
608 1798
608 1822
608 1837
608 1864
608 1890
608 1893
608 1903
608 1914
608 1916
608 1942
608 1945
608 1954
608 1979
608 1980
608 1998
608 2000
608 2016
608 2021
608 2036
608 2060
608 2091
608 2126
608 2135
608 2140
608 2149
608 2151
608 2177
608 2189
608 2190
608 2201
608 2208
608 2215
608 2246
608 2263
608 2264
608 2294
608 2305
608 2321
608 2324
608 2330
608 2352
608 2358
608 2370
608 2380
608 2387
608 2390
608 2425
608 2442
608 2446
608 2456
608 2458
608 2464
608 2467
608 2483
608 2501
608 2530
608 2532
608 2551
608 2570
608 2574
608 2593
608 2604
608 2615
608 2634
608 2645
608 2658
608 2660
608 2670
608 2671
608 2673
608 2677
609 1722
609 2185
610 661
610 663
610 860
610 891
610 893
610 936
610 1027
610 1032
610 1093
610 1201
610 1268
610 1320
610 1322
610 1402
610 1516
610 1722
610 1726
610 1768
610 1810
610 1873
610 1874
610 1911
610 1986
610 1992
610 2003
610 2015
610 2017
610 2115
610 2136
610 2139
610 2157
610 2185
610 2262
610 2270
610 2292
610 2438
610 2585
612 695
612 737
612 749
612 784
612 786
612 819
612 822
612 846
612 862
612 971
612 1042
612 1121
612 1138
612 1156
612 1169
612 1233
612 1260
612 1332
612 1345
612 1618
612 1635
612 1641
612 1713
612 1937
612 1940
612 1982
612 2016
612 2101
612 2202
612 2274
612 2377
612 2380
612 2387
612 2435
612 2464
612 2501
612 2533
612 2599
612 2638
613 696
613 873
613 874
613 883
613 908
613 972
613 976
613 1114
613 1134
613 1201
613 1317
613 1325
613 1342
613 1513
613 1645
613 1768
613 1867
613 1906
613 2047
613 2134
613 2165
613 2166
613 2245
613 2251
613 2285
613 2405
613 2516
614 617
614 619
614 620
614 622
614 651
614 691
614 703
614 749
614 758
614 765
614 772
614 822
614 835
614 849
614 858
614 891
614 892
614 958
614 998
614 1049
614 1093
614 1097
614 1202
614 1204
614 1231
614 1232
614 1235
614 1264
614 1343
614 1356
614 1439
614 1454
614 1479
614 1486
614 1494
614 1545
614 1575
614 1599
614 1616
614 1617
614 1629
614 1696
614 1726
614 1733
614 1779
614 1824
614 1837
614 1840
614 1881
614 1920
614 1931
614 1941
614 2024
614 2074
614 2092
614 2097
614 2163
614 2179
614 2203
614 2233
614 2277
614 2303
614 2309
614 2370
614 2386
614 2417
614 2474
614 2491
614 2515
614 2544
614 2546
614 2570
614 2586
614 2606
614 2608
614 2615
614 2633
615 644
615 678
615 691
615 693
615 1009
615 1093
615 1203
615 1215
615 1248
615 1256
615 1651
615 1680
615 1684
615 1781
615 1837
615 1883
615 2030
615 2123
615 2249
615 2252
615 2450
615 2495
616 633
616 635
616 641
616 647
616 655
616 700
616 706
616 726
616 730
616 746
616 770
616 1043
616 1074
616 1206
616 1276
616 1280
616 1299
616 1363
616 1378
616 1397
616 1444
616 1484
616 1495
616 1502
616 1503
616 1548
616 1553
616 1633
616 1685
616 1760
616 1769
616 1798
616 1819
616 1858
616 1908
616 1936
616 1937
616 1979
616 2010
616 2046
616 2099
616 2177
616 2298
616 2312
616 2346
616 2362
616 2501
616 2539
616 2570
616 2574
616 2634
616 2659
616 2673
616 2674
617 706
617 757
617 835
617 897
617 937
617 951
617 1013
617 1028
617 1039
617 1049
617 1055
617 1060
617 1140
617 1152
617 1181
617 1307
617 1479
617 1507
617 1600
617 1625
617 1641
617 1657
617 1662
617 1778
617 1824
617 1825
617 1862
617 1931
617 1979
617 2074
617 2095
617 2145
617 2174
617 2221
617 2282
617 2297
617 2410
617 2413
617 2423
617 2432
617 2526
617 2618
618 682
618 695
618 718
618 728
618 786
618 862
618 899
618 1128
618 1205
618 1237
618 1266
618 1270
618 1280
618 1288
618 1347
618 1361
618 1433
618 1472
618 1534
618 1541
618 1613
618 1635
618 1845
618 2026
618 2050
618 2098
618 2188
618 2258
618 2330
618 2377
618 2467
618 2475
618 2489
618 2634
618 2660
619 670
619 738
619 755
619 765
619 891
619 901
619 950
619 972
619 990
619 998
619 1062
619 1105
619 1129
619 1170
619 1202
619 1239
619 1259
619 1282
619 1310
619 1348
619 1410
619 1454
619 1540
619 1541
619 1555
619 1582
619 1640
619 1678
619 1685
619 1713
619 1729
619 1758
619 1760
619 1783
619 1909
619 1915
619 1931
619 2062
619 2112
619 2182
619 2201
619 2203
619 2241
619 2335
619 2368
619 2370
619 2444
619 2546
619 2603
619 2618
619 2634
620 666
620 706
620 711
620 804
620 805
620 822
620 832
620 852
620 858
620 865
620 888
620 891
620 894
620 922
620 956
620 996
620 998
620 1013
620 1015
620 1016
620 1060
620 1093
620 1102
620 1181
620 1226
620 1231
620 1235
620 1237
620 1263
620 1272
620 1278
620 1307
620 1310
620 1328
620 1384
620 1416
620 1430
620 1439
620 1478
620 1527
620 1530
620 1533
620 1545
620 1575
620 1581
620 1587
620 1597
620 1600
620 1622
620 1629
620 1640
620 1641
620 1685
620 1692
620 1696
620 1770
620 1797
620 1809
620 1824
620 1847
620 1899
620 1903
620 2016
620 2031
620 2045
620 2062
620 2091
620 2138
620 2145
620 2151
620 2163
620 2172
620 2201
620 2205
620 2212
620 2221
620 2228
620 2231
620 2233
620 2235
620 2241
620 2294
620 2302
620 2309
620 2351
620 2365
620 2386
620 2486
620 2491
620 2496
620 2505
620 2534
620 2536
620 2556
620 2563
620 2574
620 2606
620 2637
620 2658
621 841
621 1010
622 643
622 652
622 663
622 692
622 704
622 715
622 722
622 736
622 749
622 765
622 777
622 778
622 793
622 844
622 854
622 860
622 880
622 907
622 1009
622 1022
622 1032
622 1036
622 1068
622 1134
622 1168
622 1274
622 1291
622 1300
622 1334
622 1343
622 1384
622 1445
622 1452
622 1514
622 1525
622 1558
622 1638
622 1651
622 1674
622 1703
622 1744
622 1749
622 1781
622 1814
622 1844
622 1881
622 1920
622 1961
622 1992
622 2005
622 2043
622 2093
622 2170
622 2179
622 2207
622 2224
622 2242
622 2252
622 2271
622 2295
622 2331
622 2333
622 2339
622 2445
622 2473
622 2495
622 2506
622 2565
622 2567
622 2580
622 2666
624 739
624 778
624 885
624 901
624 920
624 972
624 991
624 994
624 998
624 1055
624 1060
624 1102
624 1139
624 1254
624 1273
624 1282
624 1328
624 1354
624 1355
624 1393
624 1408
624 1411
624 1468
624 1509
624 1531
624 1533
624 1572
624 1587
624 1596
624 1597
624 1778
624 1783
624 1815
624 1824
624 1860
624 1920
624 1931
624 1964
624 2003
624 2037
624 2095
624 2110
624 2159
624 2172
624 2183
624 2202
624 2251
624 2287
624 2334
624 2335
624 2353
624 2399
624 2426
624 2491
624 2544
624 2553
624 2554
624 2563
624 2626
624 2643
625 660
625 722
625 1241
625 1636
625 1667
625 1680
625 2666
626 636
626 661
626 712
626 735
626 760
626 771
626 774
626 920
626 925
626 930
626 964
626 1015
626 1029
626 1062
626 1082
626 1159
626 1165
626 1248
626 1262
626 1278
626 1356
626 1411
626 1461
626 1577
626 1594
626 1624
626 1717
626 1724
626 1910
626 1933
626 1934
626 2053
626 2112
626 2149
626 2243
626 2313
626 2421
626 2424
626 2429
626 2490
626 2500
626 2614
627 661
627 675
627 1097
627 1703
627 1873
627 2001
627 2011
627 2072
627 2240
627 2375
627 2450
627 2495
628 695
628 718
628 816
628 1119
628 1207
628 1227
628 1412
628 1460
628 1463
628 1464
628 1465
628 1484
628 1537
628 1539
628 1601
628 1602
628 1709
628 1736
628 1741
628 1788
628 1790
628 1822
628 1835
628 1845
628 1854
628 1862
628 1870
628 1901
628 1923
628 2027
628 2052
628 2119
628 2162
628 2261
628 2367
628 2377
628 2398
628 2469
628 2497
628 2636
628 2644
629 707
629 2188
629 2646
630 664
630 691
630 855
630 876
630 915
630 947
630 1002
630 1166
630 1266
630 1316
630 1409
630 1495
630 1510
630 1534
630 1687
630 1733
630 1746
630 1769
630 1794
630 1882
630 1984
630 2046
630 2231
630 2235
630 2330
630 2380
630 2637
630 2658
631 633
631 647
631 664
631 700
631 706
631 770
631 792
631 820
631 879
631 955
631 986
631 1043
631 1074
631 1299
631 1347
631 1363
631 1397
631 1400
631 1444
631 1456
631 1474
631 1484
631 1502
631 1503
631 1536
631 1564
631 1574
631 1633
631 1732
631 1760
631 1764
631 1769
631 1812
631 1819
631 2010
631 2046
631 2058
631 2074
631 2084
631 2099
631 2112
631 2312
631 2346
631 2362
631 2392
631 2535
631 2539
631 2544
631 2618
632 790
632 1029
632 1126
632 1276
632 1295
632 1539
632 1822
632 2076
632 2152
632 2520
633 647
633 664
633 700
633 706
633 726
633 746
633 770
633 792
633 846
633 855
633 888
633 1024
633 1043
633 1072
633 1074
633 1093
633 1119
633 1138
633 1139
633 1154
633 1196
633 1226
633 1292
633 1295
633 1299
633 1310
633 1347
633 1363
633 1397
633 1412
633 1444
633 1459
633 1474
633 1484
633 1502
633 1503
633 1534
633 1536
633 1558
633 1570
633 1617
633 1630
633 1633
633 1635
633 1685
633 1724
633 1730
633 1736
633 1760
633 1762
633 1769
633 1819
633 1855
633 1858
633 1883
633 1897
633 1916
633 1937
633 1951
633 1963
633 1983
633 2010
633 2016
633 2037
633 2046
633 2050
633 2074
633 2076
633 2110
633 2112
633 2175
633 2177
633 2182
633 2201
633 2312
633 2333
633 2346
633 2362
633 2386
633 2387
633 2435
633 2437
633 2452
633 2464
633 2501
633 2521
633 2539
633 2544
633 2551
633 2618
633 2636
633 2647
633 2660
633 2673
633 2674
634 846
634 931
634 963
634 1091
634 1093
634 1117
634 1166
634 1174
634 1200
634 1217
634 1346
634 1425
634 1549
634 1558
634 1617
634 1676
634 1688
634 1898
634 1918
634 1954
634 2016
634 2137
634 2263
634 2437
634 2452
634 2455
634 2467
634 2488
634 2532
634 2605
634 2634
635 666
635 726
635 737
635 746
635 770
635 806
635 876
635 887
635 894
635 910
635 971
635 972
635 981
635 986
635 991
635 1008
635 1017
635 1035
635 1042
635 1054
635 1058
635 1105
635 1138
635 1195
635 1206
635 1264
635 1296
635 1299
635 1378
635 1397
635 1409
635 1468
635 1484
635 1503
635 1524
635 1548
635 1553
635 1594
635 1605
635 1618
635 1663
635 1685
635 1699
635 1737
635 1760
635 1761
635 1795
635 1798
635 1808
635 1852
635 1857
635 1875
635 1883
635 1894
635 1938
635 1979
635 2010
635 2025
635 2062
635 2209
635 2225
635 2258
635 2302
635 2312
635 2335
635 2386
635 2430
635 2435
635 2449
635 2452
635 2464
635 2468
635 2469
635 2501
635 2512
635 2529
635 2539
635 2570
635 2574
635 2583
635 2593
635 2616
635 2623
635 2659
635 2661
635 2673
636 757
636 891
636 923
636 1108
636 1177
636 1191
636 1301
636 1372
636 1487
636 1549
636 1709
636 1758
636 1779
636 1868
636 2073
636 2091
636 2470
636 2479
636 2649
637 1126
637 1923
637 2142
638 910
638 927
638 1466
638 1728
638 1790
638 2179
638 2200
638 2212
638 2360
638 2398
638 2659
639 671
639 706
639 755
639 781
639 871
639 895
639 922
639 961
639 989
639 1028
639 1039
639 1093
639 1122
639 1235
639 1239
639 1282
639 1334
639 1336
639 1346
639 1355
639 1398
639 1403
639 1478
639 1479
639 1507
639 1533
639 1575
639 1587
639 1623
639 1629
639 1638
639 1713
639 1734
639 1750
639 1779
639 1809
639 1931
639 2092
639 2168
639 2172
639 2180
639 2210
639 2231
639 2310
639 2311
639 2324
639 2395
639 2423
639 2432
639 2444
639 2457
639 2547
639 2609
639 2629
639 2657
640 757
640 771
640 817
640 924
640 997
640 1091
640 1315
640 1435
640 1870
640 1881
640 1934
640 1940
640 2096
640 2463
640 2479
640 2568
641 708
641 737
641 772
641 801
641 815
641 819
641 889
641 932
641 938
641 1011
641 1119
641 1145
641 1166
641 1183
641 1195
641 1271
641 1292
641 1299
641 1489
641 1533
641 1570
641 1608
641 1615
641 1733
641 1739
641 1742
641 1760
641 1809
641 1855
641 1856
641 1869
641 1893
641 1897
641 1908
641 1939
641 1941
641 1965
641 1994
641 2038
641 2062
641 2118
641 2140
641 2274
641 2294
641 2360
641 2361
641 2369
641 2425
641 2430
641 2457
641 2501
641 2533
641 2570
641 2586
641 2628
641 2636
641 2673
641 2674
642 798
642 910
642 930
642 939
642 999
642 1021
642 1033
642 1101
642 1119
642 1189
642 1212
642 1244
642 1254
642 1289
642 1314
642 1466
642 1548
642 1798
642 1852
642 1909
642 2141
642 2228
642 2306
642 2570
643 661
643 860
643 874
643 880
643 885
643 902
643 1070
643 1134
643 1357
643 1476
643 1703
643 1726
643 1744
643 1874
643 1934
643 1975
643 2005
643 2050
643 2085
643 2124
643 2139
643 2157
643 2204
643 2242
643 2328
643 2350
643 2516
643 2568
643 2652
644 655
644 682
644 738
644 791
644 857
644 891
644 905
644 913
644 930
644 936
644 963
644 970
644 972
644 1018
644 1058
644 1074
644 1105
644 1232
644 1264
644 1282
644 1301
644 1326
644 1335
644 1391
644 1425
644 1430
644 1431
644 1457
644 1477
644 1584
644 1673
644 1713
644 1729
644 1779
644 1885
644 1916
644 1931
644 2069
644 2109
644 2123
644 2126
644 2175
644 2202
644 2313
644 2346
644 2358
644 2422
644 2432
644 2553
644 2559
644 2570
644 2593
644 2605
644 2606
644 2617
644 2623
644 2635
644 2651
645 661
645 663
645 673
645 692
645 694
645 702
645 735
645 754
645 829
645 874
645 897
645 898
645 902
645 904
645 969
645 1018
645 1031
645 1054
645 1201
645 1331
645 1358
645 1414
645 1447
645 1509
645 1530
645 1544
645 1558
645 1606
645 1614
645 1629
645 1636
645 1695
645 1702
645 1722
645 1726
645 1744
645 1814
645 1874
645 1884
645 1930
645 2015
645 2017
645 2065
645 2085
645 2111
645 2125
645 2139
645 2194
645 2207
645 2241
645 2242
645 2292
645 2293
645 2300
645 2328
645 2396
645 2405
645 2419
645 2428
645 2486
645 2544
645 2556
645 2597
645 2612
645 2666
645 2672
646 676
646 907
646 947
646 1264
646 1305
646 1515
646 1614
646 2065
646 2132
646 2157
646 2167
646 2169
646 2219
646 2331
646 2349
646 2600
647 655
647 664
647 700
647 706
647 726
647 763
647 770
647 792
647 1021
647 1074
647 1139
647 1255
647 1299
647 1347
647 1363
647 1397
647 1444
647 1474
647 1484
647 1502
647 1503
647 1536
647 1633
647 1724
647 1760
647 1769
647 1782
647 1819
647 1858
647 1924
647 1939
647 1979
647 2010
647 2046
647 2074
647 2078
647 2112
647 2118
647 2146
647 2186
647 2232
647 2234
647 2312
647 2324
647 2346
647 2362
647 2430
647 2501
647 2539
647 2544
647 2618
647 2674
648 1027
648 1417
649 1119
649 1309
649 1840
649 2294
650 2395
650 2426
651 677
651 691
651 749
651 758
651 765
651 766
651 855
651 889
651 925
651 932
651 956
651 958
651 990
651 1086
651 1093
651 1144
651 1204
651 1206
651 1229
651 1231
651 1235
651 1239
651 1263
651 1264
651 1272
651 1295
651 1356
651 1422
651 1489
651 1533
651 1558
651 1575
651 1664
651 1692
651 1696
651 1726
651 1748
651 1770
651 1795
651 1809
651 1831
651 1837
651 1840
651 1881
651 1958
651 2008
651 2092
651 2179
651 2192
651 2233
651 2386
651 2505
651 2515
651 2547
651 2561
651 2592
651 2608
651 2615
651 2617
651 2671
652 675
652 716
652 1040
652 1132
652 1340
652 1364
652 1511
652 1630
652 1977
652 2375
652 2419
652 2618
653 868
653 977
653 1179
653 1195
653 1236
653 1586
653 1655
653 1732
653 1939
653 2131
653 2298
653 2430
653 2463
653 2599
653 2650
653 2670
654 672
654 749
654 760
654 770
654 842
654 949
654 972
654 986
654 991
654 1042
654 1058
654 1091
654 1120
654 1126
654 1223
654 1229
654 1286
654 1316
654 1354
654 1430
654 1457
654 1501
654 1591
654 1662
654 1671
654 1715
654 1730
654 1762
654 1773
654 1846
654 1870
654 1876
654 1883
654 1938
654 1963
654 1979
654 2025
654 2064
654 2073
654 2076
654 2101
654 2104
654 2110
654 2200
654 2221
654 2251
654 2286
654 2321
654 2358
654 2370
654 2380
654 2387
654 2399
654 2405
654 2435
654 2505
654 2547
654 2659
655 718
655 726
655 768
655 798
655 849
655 855
655 978
655 1016
655 1042
655 1058
655 1094
655 1100
655 1136
655 1138
655 1172
655 1224
655 1264
655 1299
655 1334
655 1397
655 1454
655 1474
655 1502
655 1553
655 1633
655 1760
655 1779
655 1784
655 1821
655 1858
655 1864
655 1875
655 1885
655 1979
655 2010
655 2011
655 2041
655 2074
655 2109
655 2182
655 2186
655 2197
655 2201
655 2234
655 2358
655 2370
655 2377
655 2473
655 2501
655 2515
655 2608
655 2615
655 2657
655 2659
655 2673
655 2674
656 663
656 692
656 793
656 829
656 880
656 904
656 941
656 1006
656 1010
656 1054
656 1093
656 1125
656 1341
656 1358
656 1360
656 1476
656 1823
656 1906
656 2084
656 2115
656 2150
656 2219
656 2331
656 2350
656 2516
656 2541
656 2568
657 787
657 1160
657 1859
657 1881
657 2052
657 2090
657 2315
658 673
658 716
658 789
658 840
658 907
658 946
658 972
658 987
658 988
658 1037
658 1069
658 1091
658 1221
658 1326
658 1336
658 1376
658 1417
658 1544
658 1621
658 1680
658 1683
658 1705
658 1712
658 1742
658 1885
658 1962
658 2040
658 2059
658 2150
658 2219
658 2257
658 2447
658 2450
658 2495
658 2517
658 2567
659 1013
659 1275
659 1648
659 1815
659 2299
660 987
660 1096
660 1391
660 1536
660 1636
660 1667
660 1669
660 1680
660 1986
660 2123
660 2129
660 2136
660 2175
660 2285
660 2349
660 2666
661 692
661 693
661 716
661 793
661 799
661 880
661 902
661 923
661 941
661 965
661 1026
661 1070
661 1079
661 1091
661 1134
661 1168
661 1191
661 1215
661 1320
661 1343
661 1357
661 1360
661 1400
661 1402
661 1415
661 1476
661 1492
661 1574
661 1628
661 1658
661 1703
661 1711
661 1726
661 1791
661 1792
661 1823
661 1848
661 1870
661 1873
661 1906
661 1934
661 1985
661 1992
661 2005
661 2015
661 2017
661 2085
661 2101
661 2124
661 2136
661 2139
661 2150
661 2154
661 2163
661 2185
661 2207
661 2218
661 2242
661 2252
661 2255
661 2285
661 2328
661 2350
661 2419
661 2510
661 2567
661 2568
661 2580
661 2585
661 2624
661 2652
662 663
662 941
662 976
662 1026
662 1216
662 1430
662 1583
662 1934
662 1979
662 2017
662 2111
662 2245
662 2297
663 673
663 694
663 716
663 741
663 807
663 841
663 880
663 886
663 902
663 904
663 976
663 1001
663 1009
663 1010
663 1036
663 1068
663 1069
663 1114
663 1134
663 1168
663 1201
663 1215
663 1216
663 1257
663 1268
663 1274
663 1341
663 1357
663 1396
663 1400
663 1402
663 1429
663 1430
663 1471
663 1492
663 1525
663 1590
663 1635
663 1647
663 1658
663 1702
663 1711
663 1722
663 1743
663 1744
663 1749
663 1763
663 1772
663 1791
663 1814
663 1878
663 1916
663 1961
663 1975
663 1979
663 1995
663 2012
663 2017
663 2054
663 2111
663 2123
663 2124
663 2134
663 2136
663 2146
663 2154
663 2185
663 2240
663 2245
663 2279
663 2295
663 2297
663 2328
663 2350
663 2428
663 2506
663 2510
663 2568
663 2580
663 2597
663 2621
663 2666
663 2672
664 666
664 691
664 700
664 706
664 736
664 770
664 792
664 888
664 1043
664 1074
664 1093
664 1100
664 1105
664 1190
664 1299
664 1347
664 1363
664 1397
664 1438
664 1444
664 1474
664 1484
664 1495
664 1502
664 1503
664 1536
664 1633
664 1696
664 1760
664 1762
664 1769
664 1819
664 1882
664 2010
664 2046
664 2074
664 2112
664 2151
664 2183
664 2190
664 2305
664 2312
664 2346
664 2362
664 2386
664 2539
664 2544
664 2618
665 726
665 772
665 803
665 921
665 960
665 1100
665 1169
665 1271
665 1395
665 1500
665 1546
665 1562
665 1570
665 1687
665 1732
665 1742
665 1764
665 1765
665 1767
665 1852
665 1871
665 1887
665 1941
665 1979
665 1994
665 2062
665 2140
665 2164
665 2189
665 2392
665 2499
665 2623
665 2677
666 683
666 699
666 721
666 726
666 738
666 742
666 746
666 753
666 770
666 824
666 831
666 842
666 849
666 855
666 858
666 876
666 888
666 891
666 910
666 923
666 925
666 932
666 943
666 956
666 958
666 962
666 971
666 975
666 984
666 986
666 990
666 996
666 998
666 1003
666 1011
666 1042
666 1044
666 1058
666 1091
666 1093
666 1100
666 1124
666 1126
666 1127
666 1129
666 1138
666 1149
666 1151
666 1162
666 1202
666 1206
666 1207
666 1226
666 1227
666 1230
666 1231
666 1243
666 1247
666 1264
666 1266
666 1270
666 1291
666 1333
666 1353
666 1361
666 1371
666 1384
666 1403
666 1409
666 1412
666 1416
666 1425
666 1427
666 1430
666 1444
666 1475
666 1494
666 1495
666 1503
666 1510
666 1530
666 1534
666 1541
666 1545
666 1547
666 1548
666 1558
666 1565
666 1570
666 1575
666 1589
666 1635
666 1639
666 1659
666 1685
666 1687
666 1688
666 1692
666 1708
666 1719
666 1721
666 1723
666 1729
666 1730
666 1733
666 1738
666 1750
666 1760
666 1769
666 1776
666 1784
666 1795
666 1798
666 1835
666 1837
666 1840
666 1855
666 1869
666 1883
666 1885
666 1890
666 1893
666 1897
666 1903
666 1914
666 1916
666 1958
666 1979
666 1983
666 2016
666 2037
666 2051
666 2062
666 2093
666 2135
666 2138
666 2147
666 2151
666 2175
666 2179
666 2182
666 2189
666 2190
666 2201
666 2212
666 2215
666 2222
666 2225
666 2258
666 2263
666 2266
666 2312
666 2330
666 2352
666 2355
666 2358
666 2363
666 2370
666 2377
666 2380
666 2385
666 2386
666 2390
666 2425
666 2426
666 2430
666 2435
666 2446
666 2456
666 2457
666 2467
666 2483
666 2551
666 2570
666 2574
666 2583
666 2586
666 2593
666 2595
666 2609
666 2623
666 2633
666 2634
666 2646
666 2658
666 2661
666 2673
666 2676
666 2677
667 2587
668 770
668 842
668 933
668 984
668 1044
668 1057
668 1266
668 1276
668 1290
668 1327
668 1374
668 1375
668 1484
668 1537
668 1558
668 1588
668 1627
668 1719
668 1923
668 1954
668 1963
668 2001
668 2079
668 2091
668 2119
668 2142
668 2188
668 2209
668 2251
668 2262
668 2294
668 2299
668 2359
668 2387
668 2437
668 2467
668 2479
668 2578
668 2593
668 2631
668 2634
668 2653
669 766
669 812
669 885
669 901
669 920
669 925
669 953
669 1015
669 1039
669 1091
669 1102
669 1135
669 1181
669 1192
669 1307
669 1329
669 1350
669 1356
669 1411
669 1477
669 1507
669 1512
669 1518
669 1530
669 1585
669 1597
669 1603
669 1687
669 1692
669 1749
669 1770
669 1838
669 1964
669 2018
669 2024
669 2039
669 2042
669 2353
669 2370
669 2429
669 2436
669 2486
669 2496
669 2544
669 2553
669 2612
670 738
670 759
670 778
670 795
670 891
670 956
670 961
670 994
670 1153
670 1318
670 1390
670 1457
670 1533
670 1555
670 1575
670 1696
670 1909
670 1915
670 1931
670 2004
670 2032
670 2076
670 2177
670 2432
670 2443
670 2483
670 2570
670 2642
670 2647
670 2654
670 2673
671 672
671 727
671 735
671 781
671 800
671 818
671 827
671 835
671 885
671 922
671 951
671 967
671 1013
671 1081
671 1093
671 1135
671 1191
671 1235
671 1251
671 1291
671 1298
671 1355
671 1366
671 1533
671 1920
671 1946
671 1955
671 2053
671 2180
671 2183
671 2310
671 2313
671 2353
671 2496
671 2544
671 2554
671 2643
672 675
672 922
672 923
672 934
672 986
672 1012
672 1058
672 1088
672 1091
672 1119
672 1159
672 1188
672 1258
672 1262
672 1301
672 1350
672 1393
672 1408
672 1455
672 1481
672 1786
672 1832
672 1846
672 1860
672 1870
672 1917
672 1926
672 2025
672 2076
672 2128
672 2180
672 2182
672 2221
672 2286
672 2413
672 2424
672 2614
672 2626
672 2662
673 716
673 724
673 840
673 880
673 891
673 941
673 981
673 987
673 988
673 1006
673 1147
673 1257
673 1305
673 1448
673 1464
673 1492
673 1544
673 1583
673 1645
673 1647
673 1652
673 1680
673 1702
673 1711
673 1713
673 1722
673 1747
673 1791
673 1962
673 2005
673 2136
673 2150
673 2242
673 2245
673 2255
673 2257
673 2279
673 2355
673 2405
673 2423
673 2428
673 2448
673 2487
673 2516
673 2580
674 691
674 765
674 772
674 794
674 813
674 822
674 863
674 881
674 891
674 892
674 920
674 930
674 970
674 978
674 986
674 990
674 996
674 1086
674 1108
674 1144
674 1183
674 1186
674 1247
674 1291
674 1301
674 1309
674 1395
674 1472
674 1487
674 1494
674 1560
674 1570
674 1581
674 1615
674 1634
674 1683
674 1697
674 1733
674 1778
674 1821
674 1825
674 1837
674 1840
674 1855
674 1871
674 1897
674 1907
674 1912
674 1915
674 1916
674 1917
674 1941
674 2034
674 2037
674 2068
674 2083
674 2202
674 2211
674 2228
674 2278
674 2316
674 2326
674 2392
674 2417
674 2425
674 2453
674 2507
674 2528
674 2570
674 2575
674 2633
674 2634
675 883
675 1012
675 1069
675 1132
675 1201
675 1210
675 1256
675 1258
675 1340
675 1356
675 1364
675 1447
675 1455
675 1511
675 1630
675 1650
675 1659
675 1735
675 1747
675 1874
675 1926
675 1930
675 1985
675 2011
675 2015
675 2128
675 2165
675 2180
675 2289
675 2328
675 2375
675 2419
675 2516
675 2618
676 1515
676 2132
676 2219
676 2331
677 709
677 749
677 808
677 818
677 855
677 878
677 971
677 984
677 991
677 1028
677 1093
677 1141
677 1142
677 1153
677 1158
677 1224
677 1229
677 1263
677 1264
677 1272
677 1286
677 1377
677 1428
677 1534
677 1558
677 1575
677 1659
677 1672
677 1719
677 1746
677 1757
677 1760
677 1782
677 1797
677 1947
677 1982
677 2163
677 2208
677 2233
677 2240
677 2269
677 2290
677 2303
677 2387
677 2460
677 2492
677 2523
677 2660
677 2671
677 2676
678 710
678 946
678 1203
678 1256
678 1391
678 1628
678 1636
678 1667
678 1681
678 1874
678 1986
678 2003
678 2015
678 2136
678 2167
678 2447
678 2474
679 742
679 894
679 910
679 962
679 1017
679 1124
679 1151
679 1244
679 1427
679 1481
679 1567
679 1795
679 1979
679 2294
679 2457
679 2500
680 761
680 943
680 1271
680 1315
680 1500
680 1562
680 1696
680 1822
680 2062
680 2361
681 769
681 844
681 891
681 892
681 930
681 1108
681 1169
681 1259
681 1291
681 1344
681 1478
681 1608
681 1698
681 1758
681 1779
681 1796
681 1912
681 1915
681 1919
681 1928
681 1950
681 1970
681 2093
681 2126
681 2228
681 2326
681 2528
681 2561
681 2633
682 697
682 720
682 737
682 792
682 801
682 811
682 862
682 869
682 876
682 913
682 963
682 1018
682 1041
682 1044
682 1091
682 1154
682 1166
682 1169
682 1205
682 1264
682 1270
682 1272
682 1361
682 1401
682 1425
682 1429
682 1442
682 1451
682 1457
682 1472
682 1495
682 1510
682 1524
682 1534
682 1541
682 1560
682 1562
682 1608
682 1635
682 1696
682 1760
682 1767
682 1798
682 1887
682 1905
682 1937
682 1938
682 1979
682 2038
682 2078
682 2080
682 2156
682 2171
682 2201
682 2222
682 2277
682 2283
682 2296
682 2312
682 2347
682 2365
682 2409
682 2425
682 2467
682 2483
682 2545
682 2586
682 2598
682 2599
682 2621
682 2634
682 2651
682 2660
683 753
683 782
683 799
683 934
683 975
683 1138
683 1264
683 1303
683 1313
683 1519
683 1574
683 1585
683 1630
683 1714
683 1718
683 1863
683 1870
683 1934
683 1978
683 2041
683 2053
683 2062
683 2064
683 2251
683 2361
683 2367
683 2377
683 2396
683 2502
683 2515
683 2522
683 2593
683 2618
683 2638
684 713
684 803
684 843
684 846
684 852
684 853
684 913
684 960
684 962
684 965
684 1065
684 1119
684 1124
684 1162
684 1168
684 1204
684 1307
684 1350
684 1561
684 1564
684 1607
684 1822
684 1858
684 1881
684 1918
684 1939
684 2039
684 2090
684 2100
684 2162
684 2232
684 2234
684 2290
684 2301
684 2399
684 2539
684 2661
685 746
685 766
685 779
685 876
685 899
685 1042
685 1091
685 1233
685 1246
685 1275
685 1363
685 1401
685 1409
685 1500
685 1519
685 1570
685 1624
685 1635
685 1685
685 1699
685 1708
685 1800
685 1829
685 1883
685 1979
685 1983
685 2048
685 2051
685 2137
685 2172
685 2189
685 2215
685 2342
685 2363
685 2380
685 2385
685 2387
685 2435
685 2574
685 2593
685 2659
686 917
686 931
686 960
686 1378
686 1498
686 2501
687 843
687 1046
687 1130
687 2007
687 2100
687 2623
688 706
688 749
688 855
688 930
688 975
688 985
688 991
688 997
688 1121
688 1141
688 1166
688 1174
688 1223
688 1224
688 1229
688 1254
688 1264
688 1286
688 1403
688 1409
688 1495
688 1540
688 1578
688 1639
688 1696
688 1715
688 1719
688 1730
688 1761
688 1782
688 1784
688 1852
688 1875
688 1883
688 1931
688 1947
688 1951
688 1979
688 2007
688 2048
688 2060
688 2104
688 2135
688 2177
688 2240
688 2258
688 2330
688 2387
688 2458
688 2464
688 2488
688 2523
688 2547
688 2616
688 2629
688 2661
688 2671
689 692
689 880
689 908
689 941
689 976
689 1006
689 1026
689 1064
689 1114
689 1201
689 1216
689 1430
689 1481
689 1647
689 1702
689 1722
689 1743
689 1906
689 1979
689 2194
689 2245
689 2270
689 2568
690 1404
690 1676
690 1838
690 2490
691 720
691 737
691 738
691 759
691 772
691 778
691 800
691 812
691 822
691 871
691 892
691 905
691 920
691 925
691 930
691 937
691 963
691 989
691 1011
691 1015
691 1037
691 1044
691 1045
691 1139
691 1166
691 1169
691 1192
691 1231
691 1232
691 1248
691 1263
691 1270
691 1289
691 1298
691 1318
691 1355
691 1395
691 1425
691 1442
691 1468
691 1477
691 1494
691 1529
691 1533
691 1562
691 1570
691 1575
691 1596
691 1608
691 1615
691 1616
691 1657
691 1683
691 1696
691 1733
691 1750
691 1778
691 1779
691 1809
691 1840
691 1885
691 1897
691 1915
691 1916
691 1920
691 1941
691 1979
691 2011
691 2031
691 2037
691 2066
691 2083
691 2092
691 2112
691 2172
691 2228
691 2266
691 2311
691 2347
691 2386
691 2395
691 2422
691 2453
691 2505
691 2528
691 2570
691 2607
691 2609
691 2628
691 2633
691 2642
691 2665
692 694
692 722
692 793
692 838
692 904
692 936
692 947
692 965
692 969
692 1001
692 1032
692 1036
692 1079
692 1109
692 1114
692 1138
692 1201
692 1215
692 1329
692 1331
692 1360
692 1381
692 1427
692 1441
692 1445
692 1471
692 1514
692 1525
692 1544
692 1558
692 1647
692 1674
692 1684
692 1695
692 1763
692 1768
692 1823
692 1873
692 1906
692 1995
692 2029
692 2047
692 2111
692 2115
692 2124
692 2134
692 2146
692 2231
692 2242
692 2271
692 2293
692 2295
692 2297
692 2300
692 2328
692 2350
692 2428
692 2440
692 2445
692 2597
692 2652
692 2672
693 694
693 696
693 716
693 854
693 904
693 988
693 1093
693 1201
693 1215
693 1256
693 1317
693 1471
693 1647
693 1651
693 1702
693 1759
693 1768
693 1873
693 1883
693 1961
693 2043
693 2252
693 2297
693 2428
693 2439
693 2545
693 2597
694 696
694 883
694 902
694 904
694 965
694 988
694 1014
694 1181
694 1215
694 1331
694 1341
694 1342
694 1360
694 1396
694 1513
694 1619
694 1695
694 1702
694 1735
694 1751
694 1768
694 2043
694 2125
694 2242
694 2340
694 2348
694 2396
694 2428
694 2439
694 2545
694 2568
694 2597
695 718
695 726
695 728
695 744
695 746
695 761
695 786
695 1119
695 1205
695 1207
695 1288
695 1292
695 1304
695 1347
695 1363
695 1403
695 1412
695 1425
695 1524
695 1526
695 1613
695 1730
695 1736
695 1830
695 1845
695 1852
695 1939
695 1942
695 1979
695 2002
695 2010
695 2050
695 2062
695 2076
695 2114
695 2162
695 2197
695 2263
695 2377
695 2460
695 2469
695 2539
695 2623
695 2636
695 2659
696 797
696 807
696 873
696 897
696 947
696 965
696 1079
696 1116
696 1181
696 1216
696 1325
696 1331
696 1358
696 1513
696 1558
696 1695
696 1726
696 1735
696 1751
696 1768
696 1811
696 1961
696 2125
696 2166
696 2185
696 2271
696 2297
696 2340
696 2348
696 2428
696 2495
697 738
697 772
697 855
697 876
697 899
697 913
697 930
697 932
697 970
697 993
697 996
697 1011
697 1042
697 1062
697 1091
697 1108
697 1158
697 1183
697 1192
697 1223
697 1247
697 1361
697 1395
697 1426
697 1428
697 1442
697 1457
697 1562
697 1570
697 1608
697 1616
697 1708
697 1730
697 1733
697 1750
697 1758
697 1796
697 1840
697 1871
697 1881
697 1897
697 1916
697 1918
697 1938
697 1994
697 2025
697 2064
697 2066
697 2079
697 2080
697 2171
697 2211
697 2212
697 2228
697 2277
697 2278
697 2294
697 2347
697 2366
697 2392
697 2467
697 2471
697 2488
697 2521
697 2528
697 2549
697 2578
697 2606
697 2607
697 2651
697 2671
698 757
698 760
698 799
698 801
698 991
698 1062
698 1089
698 1146
698 1174
698 1249
698 1271
698 1285
698 1519
698 1618
698 1624
698 1635
698 1860
698 1934
698 2082
698 2162
698 2261
698 2274
698 2307
698 2377
698 2586
698 2638
698 2659
699 742
699 751
699 831
699 868
699 896
699 962
699 963
699 990
699 1119
699 1124
699 1127
699 1129
699 1151
699 1162
699 1195
699 1206
699 1214
699 1217
699 1230
699 1271
699 1285
699 1353
699 1413
699 1489
699 1494
699 1545
699 1547
699 1687
699 1688
699 1694
699 1729
699 1739
699 1795
699 1837
699 1872
699 1898
699 1979
699 2016
699 2062
699 2151
699 2201
699 2261
699 2367
699 2370
699 2390
699 2452
699 2604
700 706
700 770
700 792
700 801
700 991
700 1074
700 1091
700 1119
700 1271
700 1299
700 1306
700 1363
700 1397
700 1444
700 1474
700 1484
700 1502
700 1503
700 1524
700 1536
700 1582
700 1633
700 1724
700 1739
700 1760
700 1769
700 1819
700 1835
700 1858
700 1937
700 2010
700 2039
700 2046
700 2062
700 2074
700 2084
700 2112
700 2312
700 2362
700 2367
700 2499
700 2539
700 2544
700 2618
700 2628
702 886
702 904
702 919
702 968
702 1093
702 1174
702 1341
702 1619
702 2125
702 2244
702 2247
702 2295
702 2350
702 2428
702 2516
703 704
703 769
703 891
703 897
703 1025
703 1084
703 1108
703 1202
703 1372
703 1479
703 1569
703 1571
703 1686
703 1729
703 1784
703 1840
703 1870
703 1881
703 1912
703 1919
703 2277
703 2327
703 2343
703 2370
703 2421
703 2489
703 2509
703 2515
703 2544
703 2615
704 769
704 774
704 844
704 877
704 953
704 964
704 978
704 990
704 1031
704 1081
704 1082
704 1088
704 1103
704 1108
704 1128
704 1177
704 1262
704 1264
704 1291
704 1334
704 1342
704 1344
704 1356
704 1422
704 1431
704 1461
704 1594
704 1686
704 1704
704 1779
704 1784
704 1817
704 1821
704 1831
704 1881
704 1910
704 1919
704 1929
704 1930
704 1946
704 1993
704 2042
704 2081
704 2093
704 2109
704 2290
704 2327
704 2421
704 2473
704 2489
704 2515
704 2544
704 2585
704 2592
705 1040
705 1340
706 727
706 735
706 770
706 778
706 786
706 792
706 818
706 827
706 871
706 901
706 922
706 930
706 951
706 991
706 1013
706 1015
706 1039
706 1042
706 1043
706 1049
706 1054
706 1055
706 1060
706 1074
706 1135
706 1138
706 1181
706 1191
706 1235
706 1239
706 1254
706 1279
706 1298
706 1299
706 1347
706 1350
706 1363
706 1397
706 1444
706 1474
706 1479
706 1484
706 1502
706 1503
706 1518
706 1528
706 1533
706 1536
706 1540
706 1555
706 1578
706 1584
706 1597
706 1600
706 1603
706 1633
706 1641
706 1685
706 1687
706 1699
706 1724
706 1760
706 1769
706 1770
706 1786
706 1795
706 1801
706 1819
706 1824
706 1838
706 1852
706 1917
706 1923
706 1931
706 1951
706 2010
706 2024
706 2042
706 2074
706 2095
706 2112
706 2180
706 2210
706 2221
706 2231
706 2310
706 2312
706 2333
706 2346
706 2362
706 2395
706 2422
706 2426
706 2496
706 2501
706 2539
706 2544
706 2548
706 2612
706 2616
706 2618
706 2673
707 1138
707 1321
707 1444
707 1565
707 1885
707 2189
707 2201
707 2646
708 864
708 876
708 944
708 963
708 972
708 973
708 1042
708 1082
708 1119
708 1138
708 1230
708 1242
708 1299
708 1304
708 1313
708 1401
708 1412
708 1524
708 1570
708 1618
708 1635
708 1685
708 1699
708 1760
708 1783
708 1883
708 1897
708 1916
708 1938
708 1939
708 1941
708 1979
708 1983
708 2090
708 2099
708 2137
708 2143
708 2162
708 2196
708 2342
708 2398
708 2434
708 2435
708 2483
708 2501
708 2570
708 2574
708 2586
708 2636
708 2659
708 2673
709 878
709 956
709 971
709 1028
709 1093
709 1153
709 1226
709 1263
709 1272
709 1286
709 1295
709 1558
709 1658
709 1827
709 1912
709 1963
709 2011
709 2233
709 2269
709 2303
709 2309
709 2474
709 2634
710 833
710 880
710 1134
710 1268
710 1320
710 1476
710 2157
710 2292
710 2541
711 996
711 1258
711 1533
711 1587
711 1899
711 2172
711 2183
711 2626
712 735
712 774
712 899
712 1062
712 1389
712 1481
712 1574
712 1577
712 1624
712 1718
712 1933
712 1934
712 2071
712 2099
712 2149
712 2243
712 2288
712 2396
712 2424
712 2429
712 2490
712 2500
712 2614
712 2668
713 758
713 765
713 852
713 853
713 1307
713 1638
713 1664
713 1817
713 1881
713 1918
713 2110
713 2334
713 2432
713 2515
713 2539
714 784
714 819
714 862
714 1917
714 1940
714 2566
715 739
715 839
715 939
715 991
715 999
715 1089
715 1185
715 1304
715 1378
715 1479
715 1504
715 1524
715 1553
715 1561
715 1567
715 1570
715 1687
715 1691
715 1798
715 1849
715 1850
715 1852
715 1894
715 1979
715 2027
715 2078
715 2197
715 2212
715 2262
715 2354
715 2377
715 2406
715 2460
715 2476
715 2512
715 2562
715 2589
715 2593
715 2659
715 2670
715 2673
716 840
716 880
716 883
716 941
716 980
716 987
716 988
716 1093
716 1134
716 1203
716 1215
716 1268
716 1317
716 1343
716 1400
716 1471
716 1476
716 1651
716 1667
716 1684
716 1707
716 1722
716 1744
716 1759
716 1791
716 1814
716 1883
716 1961
716 2003
716 2005
716 2015
716 2047
716 2150
716 2249
716 2252
716 2255
716 2292
716 2304
716 2419
716 2428
716 2495
716 2516
716 2565
716 2568
716 2666
717 918
717 1115
717 1855
717 1940
718 726
718 728
718 744
718 746
718 761
718 786
718 1028
718 1119
718 1205
718 1207
718 1288
718 1347
718 1363
718 1412
718 1425
718 1461
718 1472
718 1521
718 1524
718 1613
718 1617
718 1663
718 1736
718 1758
718 1788
718 1820
718 1830
718 1845
718 1852
718 1936
718 1979
718 2050
718 2078
718 2114
718 2162
718 2228
718 2263
718 2377
718 2460
718 2588
718 2623
718 2632
718 2634
718 2636
719 779
719 842
719 899
719 943
719 1091
719 1112
719 1120
719 1247
719 1265
719 1280
719 1389
719 1426
719 1463
719 1539
719 1579
719 1624
719 1716
719 1796
719 1829
719 1901
719 1942
719 1945
719 2050
719 2161
719 2209
719 2286
719 2299
719 2359
719 2399
719 2435
719 2570
719 2591
719 2671
720 737
720 744
720 748
720 772
720 792
720 811
720 851
720 920
720 932
720 996
720 1154
720 1169
720 1183
720 1233
720 1270
720 1284
720 1289
720 1355
720 1361
720 1451
720 1559
720 1612
720 1635
720 1733
720 1742
720 1796
720 1855
720 1887
720 1897
720 1907
720 1915
720 1937
720 2025
720 2201
720 2203
720 2309
720 2334
720 2347
720 2432
720 2453
720 2578
720 2607
720 2646
721 956
721 975
721 1021
721 1093
721 1368
721 1473
721 1510
721 1675
721 1685
721 1737
721 1783
721 1784
721 1918
721 2151
721 2200
721 2201
721 2294
721 2370
721 2551
721 2574
721 2593
721 2596
721 2634
722 723
722 777
722 854
722 863
722 886
722 907
722 919
722 941
722 1009
722 1018
722 1036
722 1300
722 1341
722 1360
722 1400
722 1417
722 1471
722 1472
722 1525
722 1559
722 1560
722 1574
722 1628
722 1636
722 1680
722 1683
722 1749
722 1772
722 1814
722 1844
722 1995
722 2069
722 2089
722 2123
722 2124
722 2150
722 2185
722 2224
722 2285
722 2339
722 2350
722 2405
722 2419
722 2445
722 2516
722 2523
722 2580
722 2581
723 1014
723 1053
723 1067
723 1093
723 1149
723 1174
723 1243
723 1311
723 1357
723 1574
723 1702
723 1722
723 1934
723 2015
723 2088
723 2355
723 2415
723 2484
723 2516
723 2652
724 2374
725 822
725 1223
725 1483
725 1555
725 2414
725 2427
725 2443
726 738
726 746
726 770
726 824
726 889
726 1021
726 1030
726 1065
726 1093
726 1100
726 1123
726 1126
726 1151
726 1172
726 1207
726 1244
726 1271
726 1299
726 1353
726 1397
726 1409
726 1412
726 1424
726 1464
726 1495
726 1510
726 1524
726 1553
726 1558
726 1570
726 1610
726 1652
726 1659
726 1727
726 1736
726 1784
726 1790
726 1795
726 1798
726 1835
726 1897
726 1931
726 1979
726 1980
726 2016
726 2062
726 2099
726 2147
726 2151
726 2266
726 2309
726 2311
726 2363
726 2376
726 2377
726 2385
726 2398
726 2403
726 2452
726 2456
726 2501
726 2512
726 2514
726 2574
726 2578
726 2586
726 2593
726 2634
726 2636
726 2638
726 2657
726 2659
726 2673
727 747
727 781
727 922
727 951
727 989
727 998
727 1013
727 1039
727 1041
727 1045
727 1061
727 1073
727 1088
727 1191
727 1199
727 1231
727 1235
727 1251
727 1366
727 1387
727 1530
727 1533
727 1575
727 1600
727 1641
727 1692
727 1770
727 1815
727 1824
727 1955
727 2042
727 2182
727 2192
727 2205
727 2210
727 2215
727 2327
727 2353
727 2370
727 2395
727 2426
727 2486
727 2496
727 2544
727 2553
727 2629
727 2655
728 744
728 786
728 939
728 986
728 1058
728 1205
728 1233
728 1347
728 1354
728 1361
728 1392
728 1472
728 1495
728 1613
728 1662
728 1760
728 1846
728 2025
728 2068
728 2076
728 2193
728 2221
728 2228
728 2265
728 2286
728 2377
728 2437
728 2599
730 1119
730 1363
730 1484
730 1819
731 761
731 1100
731 1224
731 1327
731 1403
731 1521
731 1696
731 1839
731 2588
732 815
732 821
732 876
732 1065
732 1092
732 1532
732 1608
732 1785
732 1943
732 2549
733 2007
733 2100
734 770
734 1454
734 1484
734 2435
734 2615
734 2631
734 2653
735 753
735 760
735 771
735 774
735 781
735 795
735 865
735 922
735 939
735 953
735 1015
735 1031
735 1062
735 1099
735 1159
735 1165
735 1182
735 1235
735 1251
735 1258
735 1278
735 1343
735 1356
735 1389
735 1537
735 1577
735 1588
735 1599
735 1624
735 1662
735 1717
735 1744
735 1817
735 1838
735 1863
735 1933
735 1934
735 1946
735 1970
735 2053
735 2062
735 2071
735 2128
735 2149
735 2180
735 2243
735 2282
735 2309
735 2421
735 2422
735 2424
735 2429
735 2435
735 2490
735 2500
735 2522
735 2614
735 2655
736 749
736 851
736 971
736 998
736 1093
736 1100
736 1105
736 1148
736 1190
736 1333
736 1438
736 1539
736 1558
736 1696
736 1741
736 1882
736 1937
736 2016
736 2090
736 2214
736 2305
736 2631
737 772
737 792
737 811
737 932
737 1111
737 1129
737 1138
737 1169
737 1183
737 1206
737 1271
737 1299
737 1361
737 1395
737 1427
737 1444
737 1494
737 1495
737 1570
737 1608
737 1615
737 1616
737 1635
737 1733
737 1742
737 1750
737 1840
737 1855
737 1857
737 1869
737 1887
737 1893
737 1897
737 1916
737 1941
737 1973
737 1979
737 2062
737 2294
737 2334
737 2347
737 2392
737 2401
737 2425
737 2430
737 2437
737 2501
737 2528
737 2570
737 2591
737 2599
737 2623
737 2628
737 2633
737 2673
738 746
738 765
738 770
738 772
738 776
738 801
738 876
738 891
738 892
738 910
738 930
738 931
738 956
738 971
738 986
738 1011
738 1042
738 1044
738 1058
738 1072
738 1074
738 1093
738 1119
738 1129
738 1138
738 1144
738 1154
738 1166
738 1169
738 1185
738 1226
738 1232
738 1247
738 1261
738 1299
738 1333
738 1395
738 1442
738 1495
738 1503
738 1510
738 1548
738 1559
738 1562
738 1570
738 1579
738 1608
738 1616
738 1618
738 1678
738 1685
738 1733
738 1739
738 1746
738 1750
738 1758
738 1760
738 1769
738 1840
738 1852
738 1871
738 1881
738 1897
738 1912
738 1915
738 1916
738 1931
738 1941
738 1947
738 1965
738 1967
738 1983
738 1994
738 2016
738 2025
738 2046
738 2062
738 2066
738 2068
738 2080
738 2083
738 2138
738 2151
738 2163
738 2177
738 2201
738 2206
738 2211
738 2228
738 2231
738 2235
738 2246
738 2263
738 2278
738 2302
738 2312
738 2347
738 2358
738 2387
738 2392
738 2435
738 2452
738 2453
738 2454
738 2488
738 2501
738 2528
738 2539
738 2551
738 2561
738 2570
738 2574
738 2578
738 2593
738 2598
738 2606
738 2608
738 2615
738 2623
738 2628
738 2633
738 2637
738 2648
738 2658
738 2673
739 763
739 839
739 994
739 995
739 1034
739 1141
739 1230
739 1254
739 1275
739 1299
739 1304
739 1430
739 1464
739 1490
739 1524
739 1587
739 1830
739 1849
739 1920
739 1945
739 1963
739 1979
739 2037
739 2052
739 2078
739 2184
739 2231
739 2260
739 2282
739 2501
739 2512
739 2553
739 2659
740 956
740 1138
740 2021
741 902
741 976
741 1010
741 1201
741 1430
741 1763
741 1772
741 1814
741 1878
741 1938
741 2111
741 2297
742 763
742 799
742 803
742 824
742 853
742 858
742 954
742 962
742 1100
742 1124
742 1151
742 1162
742 1172
742 1206
742 1230
742 1296
742 1353
742 1362
742 1409
742 1420
742 1427
742 1481
742 1494
742 1547
742 1574
742 1688
742 1691
742 1795
742 1798
742 1864
742 1969
742 1979
742 2016
742 2090
742 2140
742 2225
742 2390
742 2433
742 2452
742 2500
742 2593
742 2604
742 2614
743 1084
743 1374
743 1470
743 1804
743 2323
743 2571
744 792
744 799
744 863
744 877
744 888
744 956
744 1061
744 1089
744 1093
744 1197
744 1205
744 1207
744 1233
744 1332
744 1361
744 1374
744 1472
744 1484
744 1503
744 1558
744 1635
744 1694
744 1760
744 2283
744 2377
744 2389
744 2539
744 2599
744 2634
745 882
745 1093
745 1150
745 1197
745 1233
745 1308
745 1409
745 2389
746 749
746 770
746 810
746 826
746 855
746 870
746 879
746 889
746 899
746 943
746 971
746 972
746 975
746 991
746 1023
746 1097
746 1100
746 1119
746 1129
746 1138
746 1150
746 1206
746 1207
746 1223
746 1226
746 1227
746 1229
746 1233
746 1246
746 1263
746 1264
746 1266
746 1268
746 1272
746 1275
746 1286
746 1299
746 1363
746 1365
746 1400
746 1406
746 1409
746 1412
746 1413
746 1430
746 1495
746 1500
746 1502
746 1507
746 1510
746 1519
746 1524
746 1536
746 1548
746 1558
746 1570
746 1579
746 1624
746 1633
746 1635
746 1652
746 1659
746 1664
746 1699
746 1708
746 1715
746 1721
746 1736
746 1738
746 1746
746 1750
746 1760
746 1769
746 1773
746 1782
746 1784
746 1835
746 1843
746 1846
746 1850
746 1883
746 1902
746 1903
746 1916
746 1931
746 1942
746 1971
746 1979
746 1983
746 1984
746 2007
746 2016
746 2027
746 2048
746 2050
746 2051
746 2062
746 2076
746 2091
746 2092
746 2100
746 2101
746 2102
746 2147
746 2151
746 2175
746 2189
746 2201
746 2208
746 2212
746 2215
746 2231
746 2233
746 2235
746 2251
746 2289
746 2311
746 2315
746 2324
746 2352
746 2358
746 2363
746 2370
746 2380
746 2385
746 2387
746 2399
746 2435
746 2456
746 2464
746 2479
746 2501
746 2505
746 2520
746 2539
746 2547
746 2574
746 2593
746 2613
746 2617
746 2629
746 2670
746 2671
746 2673
747 794
747 795
747 897
747 922
747 951
747 953
747 1013
747 1031
747 1039
747 1135
747 1235
747 1286
747 1387
747 1411
747 1506
747 1622
747 1955
747 2042
747 2108
747 2135
747 2205
747 2361
747 2426
747 2526
747 2540
747 2544
748 812
748 865
748 866
748 1086
748 1574
748 1596
748 1778
748 1817
748 1837
748 2453
749 755
749 766
749 784
749 808
749 818
749 824
749 835
749 855
749 870
749 888
749 889
749 896
749 907
749 932
749 937
749 961
749 975
749 984
749 991
749 998
749 999
749 1008
749 1021
749 1049
749 1082
749 1085
749 1089
749 1105
749 1118
749 1179
749 1197
749 1229
749 1253
749 1264
749 1265
749 1275
749 1279
749 1286
749 1334
749 1352
749 1355
749 1368
749 1377
749 1390
749 1397
749 1403
749 1409
749 1410
749 1412
749 1424
749 1434
749 1451
749 1452
749 1468
749 1483
749 1488
749 1502
749 1504
749 1506
749 1507
749 1555
749 1598
749 1600
749 1630
749 1632
749 1638
749 1648
749 1659
749 1664
749 1687
749 1696
749 1720
749 1734
749 1750
749 1761
749 1782
749 1784
749 1805
749 1831
749 1850
749 1852
749 1863
749 1895
749 1900
749 1919
749 1931
749 1954
749 1979
749 2004
749 2007
749 2024
749 2027
749 2039
749 2051
749 2060
749 2082
749 2092
749 2097
749 2161
749 2187
749 2211
749 2233
749 2241
749 2253
749 2277
749 2310
749 2311
749 2327
749 2345
749 2346
749 2354
749 2386
749 2402
749 2417
749 2427
749 2443
749 2456
749 2458
749 2460
749 2464
749 2494
749 2501
749 2530
749 2547
749 2548
749 2561
749 2589
749 2592
749 2593
749 2608
749 2613
749 2617
749 2629
749 2642
749 2670
749 2671
750 760
750 793
750 838
750 880
750 923
750 1329
750 1400
750 1497
750 1512
750 1583
750 1677
750 1703
750 1823
750 1972
750 2154
750 2242
750 2370
750 2382
750 2404
750 2601
751 753
751 799
751 801
751 805
751 868
751 954
751 1057
751 1097
751 1119
751 1138
751 1236
751 1242
751 1255
751 1271
751 1276
751 1285
751 1353
751 1395
751 1421
751 1481
751 1494
751 1504
751 1519
751 1545
751 1547
751 1588
751 1637
751 1655
751 1688
751 1708
751 1718
751 1739
751 1760
751 1773
751 1787
751 1819
751 1934
751 2062
751 2119
751 2131
751 2140
751 2179
751 2254
751 2261
751 2262
751 2274
751 2281
751 2361
751 2367
751 2437
751 2479
751 2481
751 2494
751 2542
751 2560
751 2577
751 2586
751 2623
751 2640
751 2661
752 787
753 795
753 798
753 799
753 895
753 917
753 939
753 953
753 1029
753 1045
753 1062
753 1119
753 1127
753 1138
753 1139
753 1162
753 1165
753 1206
753 1264
753 1271
753 1285
753 1356
753 1438
753 1443
753 1456
753 1503
753 1519
753 1545
753 1547
753 1574
753 1577
753 1597
753 1630
753 1662
753 1691
753 1714
753 1744
753 1760
753 1773
753 1795
753 1837
753 1862
753 1869
753 1870
753 1913
753 1916
753 1934
753 2011
753 2042
753 2062
753 2064
753 2100
753 2163
753 2190
753 2201
753 2225
753 2251
753 2261
753 2328
753 2361
753 2362
753 2367
753 2390
753 2512
753 2522
753 2542
753 2557
753 2583
753 2584
753 2638
755 781
755 846
755 877
755 897
755 901
755 903
755 922
755 972
755 989
755 997
755 998
755 1042
755 1061
755 1080
755 1081
755 1082
755 1105
755 1121
755 1135
755 1174
755 1191
755 1229
755 1235
755 1239
755 1259
755 1262
755 1282
755 1301
755 1307
755 1344
755 1356
755 1372
755 1390
755 1403
755 1412
755 1437
755 1468
755 1475
755 1478
755 1540
755 1541
755 1569
755 1594
755 1623
755 1629
755 1638
755 1648
755 1696
755 1713
755 1722
755 1761
755 1809
755 1852
755 1870
755 1881
755 1931
755 1947
755 1979
755 2060
755 2091
755 2111
755 2112
755 2163
755 2182
755 2183
755 2201
755 2203
755 2241
755 2287
755 2310
755 2353
755 2370
755 2410
755 2423
755 2444
755 2458
755 2460
755 2474
755 2491
755 2547
755 2593
755 2603
755 2608
755 2616
755 2622
755 2629
755 2647
755 2657
755 2661
756 799
756 801
756 1174
756 1495
756 1574
756 1618
756 2659
757 760
757 771
757 775
757 793
757 880
757 897
757 917
757 923
757 960
757 973
757 1120
757 1126
757 1150
757 1182
757 1210
757 1296
757 1313
757 1332
757 1353
757 1372
757 1389
757 1404
757 1475
757 1524
757 1537
757 1549
757 1588
757 1625
757 1673
757 1709
757 1718
757 1752
757 1787
757 1862
757 1863
757 1868
757 1883
757 1933
757 1934
757 2038
757 2073
757 2099
757 2119
757 2293
757 2329
757 2377
757 2410
757 2479
757 2481
757 2518
757 2526
757 2586
757 2593
757 2649
757 2651
758 770
758 990
758 1030
758 1103
758 1342
758 1408
758 1541
758 1582
758 1784
758 1831
758 1919
758 1945
758 2041
758 2110
758 2432
758 2515
758 2587
758 2608
759 812
759 822
759 872
759 905
759 910
759 913
759 920
759 923
759 961
759 971
759 1015
759 1086
759 1138
759 1187
759 1232
759 1248
759 1264
759 1328
759 1336
759 1382
759 1477
759 1591
759 1640
759 1696
759 1734
759 1760
759 1915
759 2004
759 2037
759 2097
759 2135
759 2147
759 2277
759 2378
759 2443
759 2483
759 2553
760 771
760 774
760 799
760 801
760 826
760 842
760 899
760 911
760 923
760 934
760 948
760 971
760 1024
760 1045
760 1081
760 1091
760 1120
760 1150
760 1165
760 1174
760 1182
760 1264
760 1266
760 1280
760 1285
760 1356
760 1365
760 1372
760 1389
760 1426
760 1476
760 1504
760 1512
760 1519
760 1537
760 1549
760 1577
760 1624
760 1635
760 1661
760 1673
760 1682
760 1696
760 1709
760 1717
760 1773
760 1861
760 1868
760 1870
760 1883
760 1885
760 1927
760 1933
760 1934
760 2053
760 2107
760 2137
760 2243
760 2251
760 2329
760 2382
760 2435
760 2478
760 2479
760 2490
760 2497
760 2500
760 2577
760 2582
760 2624
761 839
761 895
761 991
761 1021
761 1030
761 1080
761 1207
761 1263
761 1264
761 1315
761 1368
761 1403
761 1413
761 1428
761 1437
761 1464
761 1482
761 1505
761 1526
761 1558
761 1694
761 1696
761 1798
761 1852
761 1920
761 1936
761 1965
761 2002
761 2027
761 2078
761 2131
761 2200
761 2201
761 2232
761 2289
761 2464
761 2469
761 2480
761 2562
761 2588
761 2596
761 2613
761 2636
762 1542
762 1601
762 1846
762 1920
762 1979
762 2464
762 2469
762 2483
763 930
763 995
763 1074
763 1118
763 1427
763 1499
763 1616
763 1819
763 1849
763 1858
763 2078
763 2186
763 2352
763 2354
763 2369
763 2402
763 2577
764 880
764 897
764 923
764 1884
764 1930
764 2029
764 2157
764 2580
765 824
765 831
765 881
765 891
765 920
765 930
765 951
765 958
765 962
765 972
765 990
765 996
765 1013
765 1045
765 1049
765 1052
765 1073
765 1074
765 1086
765 1103
765 1108
765 1124
765 1127
765 1138
765 1144
765 1151
765 1154
765 1162
765 1199
765 1202
765 1230
765 1252
765 1264
765 1285
765 1291
765 1297
765 1301
765 1309
765 1334
765 1342
765 1344
765 1394
765 1400
765 1422
765 1454
765 1456
765 1476
765 1487
765 1494
765 1530
765 1545
765 1570
765 1575
765 1581
765 1622
765 1664
765 1670
765 1678
765 1683
765 1687
765 1688
765 1760
765 1769
765 1778
765 1779
765 1795
765 1817
765 1831
765 1837
765 1840
765 1871
765 1881
765 1895
765 1911
765 1912
765 1927
765 2034
765 2066
765 2110
765 2119
765 2148
765 2170
765 2192
765 2201
765 2202
765 2210
765 2211
765 2212
765 2228
765 2342
765 2367
765 2370
765 2413
765 2432
765 2453
765 2586
765 2608
765 2615
765 2617
765 2634
765 2668
766 818
766 870
766 885
766 937
766 943
766 953
766 1015
766 1052
766 1093
766 1108
766 1119
766 1171
766 1191
766 1204
766 1229
766 1235
766 1298
766 1343
766 1344
766 1356
766 1387
766 1390
766 1422
766 1459
766 1483
766 1507
766 1520
766 1555
766 1597
766 1670
766 1696
766 1705
766 1706
766 1734
766 1803
766 1817
766 1831
766 1838
766 1881
766 1919
766 1931
766 2004
766 2037
766 2042
766 2053
766 2159
766 2163
766 2192
766 2205
766 2282
766 2290
766 2302
766 2327
766 2342
766 2352
766 2361
766 2365
766 2408
766 2421
766 2426
766 2427
766 2443
766 2444
766 2460
766 2483
766 2536
766 2585
767 1210
768 818
768 1136
768 1229
768 1239
768 1269
768 1282
768 1286
768 1377
768 1403
768 1502
768 1600
768 1630
768 1746
768 1810
768 1843
768 1947
768 1971
768 2011
768 2109
768 2177
768 2197
768 2201
768 2203
768 2240
768 2371
768 2387
768 2492
768 2556
769 795
769 810
769 844
769 865
769 877
769 925
769 1029
769 1031
769 1102
769 1268
769 1278
769 1393
769 1402
769 1500
769 1518
769 1599
769 1686
769 1698
769 1919
769 1971
769 2042
769 2081
770 781
770 792
770 827
770 885
770 888
770 949
770 951
770 1013
770 1024
770 1043
770 1058
770 1072
770 1074
770 1093
770 1119
770 1126
770 1138
770 1139
770 1191
770 1202
770 1206
770 1226
770 1235
770 1246
770 1264
770 1275
770 1295
770 1299
770 1316
770 1347
770 1354
770 1363
770 1397
770 1444
770 1474
770 1484
770 1494
770 1502
770 1503
770 1511
770 1519
770 1524
770 1536
770 1541
770 1542
770 1558
770 1570
770 1618
770 1624
770 1630
770 1635
770 1659
770 1675
770 1708
770 1715
770 1724
770 1730
770 1758
770 1760
770 1762
770 1769
770 1795
770 1797
770 1819
770 1846
770 1855
770 1871
770 1883
770 1897
770 1916
770 1923
770 1931
770 1939
770 1963
770 1978
770 1984
770 1994
770 2010
770 2016
770 2025
770 2036
770 2045
770 2046
770 2048
770 2050
770 2051
770 2074
770 2076
770 2110
770 2112
770 2135
770 2142
770 2161
770 2162
770 2175
770 2178
770 2182
770 2189
770 2201
770 2215
770 2267
770 2286
770 2294
770 2310
770 2312
770 2346
770 2362
770 2385
770 2387
770 2399
770 2411
770 2435
770 2437
770 2456
770 2501
770 2520
770 2521
770 2529
770 2539
770 2544
770 2570
770 2591
770 2593
770 2618
770 2635
770 2636
770 2647
770 2660
771 774
771 799
771 801
771 826
771 842
771 847
771 876
771 882
771 887
771 899
771 911
771 923
771 934
771 948
771 1062
771 1087
771 1091
771 1120
771 1133
771 1150
771 1165
771 1174
771 1182
771 1233
771 1264
771 1266
771 1276
771 1280
771 1285
771 1290
771 1343
771 1344
771 1372
771 1387
771 1389
771 1409
771 1481
771 1495
771 1498
771 1504
771 1512
771 1519
771 1537
771 1577
771 1624
771 1635
771 1661
771 1682
771 1709
771 1717
771 1773
771 1870
771 1885
771 1901
771 1933
771 1934
771 2039
771 2050
771 2053
771 2071
771 2073
771 2107
771 2137
771 2149
771 2243
771 2262
771 2309
771 2329
771 2365
771 2367
771 2382
771 2389
771 2424
771 2435
771 2479
771 2490
771 2497
771 2577
771 2582
771 2584
771 2614
771 2624
772 776
772 800
772 822
772 876
772 891
772 921
772 932
772 943
772 970
772 1008
772 1011
772 1044
772 1072
772 1074
772 1111
772 1119
772 1169
772 1183
772 1185
772 1232
772 1237
772 1247
772 1271
772 1289
772 1318
772 1395
772 1431
772 1494
772 1518
772 1546
772 1562
772 1570
772 1575
772 1579
772 1608
772 1615
772 1617
772 1634
772 1693
772 1729
772 1733
772 1742
772 1750
772 1765
772 1778
772 1779
772 1798
772 1837
772 1840
772 1855
772 1871
772 1887
772 1897
772 1908
772 1912
772 1915
772 1916
772 1940
772 1941
772 1973
772 1979
772 1994
772 2010
772 2025
772 2062
772 2079
772 2083
772 2151
772 2228
772 2278
772 2296
772 2334
772 2342
772 2347
772 2392
772 2401
772 2425
772 2453
772 2533
772 2570
772 2586
772 2607
772 2610
772 2615
772 2623
772 2628
772 2633
772 2634
772 2651
772 2659
772 2673
772 2675
773 971
774 775
774 842
774 948
774 1015
774 1029
774 1062
774 1082
774 1120
774 1139
774 1159
774 1165
774 1234
774 1343
774 1356
774 1541
774 1577
774 1588
774 1594
774 1624
774 1717
774 1779
774 1826
774 1863
774 1910
774 1925
774 1933
774 1934
774 1946
774 1970
774 2015
774 2053
774 2071
774 2112
774 2243
774 2329
774 2429
774 2489
774 2490
774 2500
774 2522
774 2614
774 2668
775 786
775 847
775 1061
775 1097
775 1343
775 1649
775 1845
775 1868
775 1870
775 1942
775 2137
775 2479
776 927
776 931
776 960
776 996
776 1011
776 1074
776 1111
776 1255
776 1271
776 1289
776 1306
776 1395
776 1546
776 1570
776 1608
776 1617
776 1733
776 1820
776 1897
776 1908
776 1916
776 1941
776 1994
776 2007
776 2062
776 2278
776 2392
776 2401
776 2453
776 2533
776 2570
776 2583
776 2586
776 2623
776 2628
776 2650
777 828
777 919
777 947
777 1001
777 1086
777 1178
777 1185
777 1391
777 1476
777 1496
777 1590
777 1605
777 1636
777 1680
777 1684
777 2015
777 2089
777 2295
777 2374
777 2495
777 2564
777 2621
777 2666
778 781
778 822
778 827
778 855
778 888
778 894
778 922
778 925
778 932
778 956
778 989
778 996
778 1016
778 1031
778 1060
778 1061
778 1093
778 1231
778 1235
778 1244
778 1263
778 1264
778 1295
778 1355
778 1416
778 1438
778 1528
778 1533
778 1541
778 1559
778 1575
778 1587
778 1683
778 1696
778 1778
778 1786
778 1796
778 1809
778 1838
778 1847
778 1869
778 1899
778 1958
778 2016
778 2045
778 2062
778 2172
778 2201
778 2212
778 2228
778 2231
778 2294
778 2353
778 2386
778 2505
778 2547
778 2609
778 2646
778 2665
778 2669
779 899
779 1091
779 1223
779 1308
779 1344
779 1405
779 1463
779 1579
779 1586
779 1611
779 1659
779 1787
779 1796
779 1829
779 1998
779 2209
779 2299
779 2530
779 2578
780 820
780 875
780 879
780 1091
780 1119
780 1211
780 1218
780 1254
780 1363
780 1466
780 1536
780 1633
780 1764
780 1852
780 1933
780 1965
780 2061
780 2067
780 2180
780 2362
780 2547
780 2563
780 2616
780 2634
780 2659
781 795
781 818
781 827
781 835
781 885
781 922
781 951
781 972
781 989
781 1013
781 1039
781 1060
781 1061
781 1135
781 1143
781 1152
781 1191
781 1235
781 1251
781 1282
781 1298
781 1326
781 1355
781 1393
781 1477
781 1478
781 1533
781 1584
781 1599
781 1687
781 1688
781 1713
781 1783
781 1909
781 1917
781 1920
781 2053
781 2180
781 2310
781 2318
781 2327
781 2342
781 2353
781 2413
781 2444
781 2496
781 2531
781 2554
781 2629
782 790
782 890
782 917
782 934
782 964
782 1099
782 1118
782 1142
782 1146
782 1159
782 1264
782 1295
782 1303
782 1313
782 1348
782 1411
782 1438
782 1475
782 1521
782 1524
782 1558
782 1569
782 1588
782 1594
782 1671
782 1683
782 1718
782 1730
782 1750
782 1771
782 1838
782 1863
782 1870
782 1902
782 1934
782 1952
782 1958
782 1978
782 2053
782 2152
782 2294
782 2297
782 2362
782 2502
782 2522
782 2578
782 2593
782 2651
782 2665
783 1273
783 1307
783 1466
783 1574
783 1769
783 1871
783 1994
783 2018
783 2458
783 2477
783 2515
784 819
784 861
784 862
784 910
784 927
784 954
784 960
784 977
784 981
784 1255
784 1330
784 1370
784 1377
784 1425
784 1546
784 1570
784 1597
784 1610
784 1641
784 1663
784 1767
784 1817
784 1825
784 1887
784 1940
784 2173
784 2193
784 2277
784 2296
784 2326
784 2370
784 2460
784 2468
784 2486
784 2533
784 2611
785 925
785 1354
785 1454
785 2092
786 847
786 922
786 964
786 991
786 1028
786 1031
786 1054
786 1103
786 1119
786 1128
786 1146
786 1205
786 1288
786 1299
786 1342
786 1344
786 1350
786 1356
786 1433
786 1461
786 1472
786 1518
786 1519
786 1594
786 1599
786 1613
786 1655
786 1721
786 1725
786 1835
786 1845
786 2042
786 2067
786 2228
786 2289
786 2312
786 2421
786 2501
786 2593
786 2634
786 2673
787 1160
787 1859
788 1335
788 1525
788 2407
790 842
790 882
790 1029
790 1197
790 1276
790 1304
790 1308
790 1428
790 1500
790 1539
790 1757
790 1856
790 1870
790 1891
790 1895
790 1918
790 1923
790 1942
790 2014
790 2152
790 2197
790 2208
790 2389
791 840
791 886
791 1335
791 1558
791 2386
792 811
792 876
792 1043
792 1053
792 1074
792 1129
792 1299
792 1347
792 1353
792 1363
792 1397
792 1444
792 1474
792 1484
792 1502
792 1503
792 1536
792 1617
792 1633
792 1699
792 1724
792 1760
792 1769
792 1782
792 1819
792 1837
792 1916
792 1939
792 1954
792 1963
792 1979
792 1984
792 2010
792 2074
792 2112
792 2312
792 2346
792 2347
792 2362
792 2435
792 2452
792 2539
792 2550
792 2574
792 2599
792 2618
792 2634
793 802
793 818
793 820
793 829
793 833
793 838
793 874
793 941
793 1010
793 1026
793 1125
793 1134
793 1203
793 1268
793 1329
793 1358
793 1360
793 1400
793 1403
793 1488
793 1492
793 1509
793 1515
793 1583
793 1674
793 1677
793 1681
793 1702
793 1703
793 1722
793 1749
793 1791
793 1810
793 1823
793 1873
793 1934
793 2015
793 2065
793 2111
793 2150
793 2154
793 2157
793 2185
793 2350
793 2370
793 2404
793 2428
793 2440
793 2568
793 2581
793 2585
793 2601
793 2652
794 881
794 891
794 892
794 920
794 930
794 970
794 996
794 1108
794 1169
794 1175
794 1199
794 1262
794 1372
794 1590
794 1697
794 1871
794 1950
794 2210
794 2228
794 2358
794 2417
794 2432
794 2507
794 2528
795 827
795 829
795 830
795 835
795 865
795 897
795 901
795 951
795 953
795 957
795 1013
795 1031
795 1091
795 1102
795 1119
795 1171
795 1191
795 1235
795 1251
795 1273
795 1278
795 1307
795 1322
795 1343
795 1411
795 1430
795 1433
795 1461
795 1478
795 1509
795 1518
795 1530
795 1566
795 1585
795 1597
795 1599
795 1622
795 1624
795 1673
795 1770
795 1799
795 1815
795 1834
795 1838
795 1870
795 1923
795 1934
795 1946
795 1955
795 1970
795 2024
795 2042
795 2053
795 2192
795 2287
795 2294
795 2353
795 2379
795 2421
795 2422
795 2426
795 2486
795 2526
795 2540
795 2544
795 2554
795 2577
795 2585
795 2588
795 2606
795 2644
795 2662
796 2412
797 854
797 941
797 965
797 1181
797 1320
797 1516
797 1606
797 2270
797 2292
797 2300
798 848
798 889
798 910
798 1166
798 1284
798 1425
798 1528
798 1558
798 1608
798 1655
798 1689
798 1706
798 1854
798 1980
798 2062
798 2294
798 2332
798 2376
798 2514
799 801
799 803
799 814
799 895
799 918
799 939
799 956
799 1045
799 1057
799 1064
799 1127
799 1162
799 1182
799 1185
799 1207
799 1271
799 1285
799 1321
799 1362
799 1427
799 1438
799 1456
799 1482
799 1503
799 1519
799 1545
799 1547
799 1574
799 1577
799 1691
799 1770
799 1773
799 1787
799 1861
799 1873
799 1913
799 1934
799 2053
799 2062
799 2091
799 2100
799 2115
799 2197
799 2249
799 2261
799 2262
799 2307
799 2367
799 2377
799 2500
799 2539
799 2542
799 2557
799 2614
799 2634
799 2638
799 2659
800 813
800 822
800 872
800 891
800 892
800 1065
800 1204
800 1220
800 1232
800 1251
800 1307
800 1355
800 1395
800 1494
800 1570
800 1733
800 1766
800 1779
800 1784
800 1840
800 1871
800 1897
800 1907
800 1916
800 1941
800 2145
800 2175
800 2183
800 2203
800 2211
800 2228
800 2270
800 2313
800 2392
800 2425
800 2432
800 2453
800 2515
800 2528
800 2556
800 2561
800 2569
800 2570
800 2606
800 2615
800 2633
801 806
801 819
801 826
801 862
801 891
801 913
801 948
801 955
801 1045
801 1124
801 1138
801 1144
801 1150
801 1154
801 1182
801 1195
801 1271
801 1299
801 1304
801 1306
801 1324
801 1456
801 1460
801 1489
801 1494
801 1504
801 1545
801 1685
801 1688
801 1699
801 1718
801 1739
801 1760
801 1767
801 1861
801 1931
801 1941
801 1965
801 1983
801 2010
801 2084
801 2100
801 2177
801 2193
801 2212
801 2261
801 2262
801 2307
801 2338
801 2361
801 2367
801 2406
801 2454
801 2483
801 2500
801 2501
801 2560
801 2572
801 2586
801 2608
801 2648
801 2673
802 838
802 902
802 965
802 1360
802 1414
802 1677
802 1791
802 1823
802 1870
802 1930
802 1934
802 1985
802 2005
802 2084
802 2150
802 2157
802 2185
802 2242
802 2370
802 2436
802 2568
803 820
803 849
803 852
803 858
803 1100
803 1172
803 1206
803 1230
803 1231
803 1244
803 1362
803 1397
803 1427
803 1575
803 1607
803 1732
803 1764
803 1798
803 1918
803 1921
803 1969
803 1979
803 2016
803 2140
803 2177
803 2199
803 2232
803 2235
803 2307
803 2351
803 2390
803 2452
803 2490
803 2586
803 2651
803 2659
804 805
804 1416
804 1430
804 1533
804 1575
804 1899
804 2294
804 2302
804 2309
804 2365
804 2536
805 852
805 887
805 888
805 894
805 991
805 996
805 1017
805 1034
805 1100
805 1244
805 1263
805 1271
805 1333
805 1412
805 1416
805 1419
805 1439
805 1474
805 1533
805 1575
805 1655
805 1779
805 1809
805 1847
805 1888
805 1899
805 1976
805 2016
805 2046
805 2062
805 2127
805 2172
805 2205
805 2225
805 2233
805 2235
805 2294
805 2361
805 2365
805 2367
805 2406
805 2534
806 1008
806 1065
806 1074
806 1195
806 1489
806 1732
806 1856
806 2090
806 2096
806 2160
806 2163
806 2209
806 2395
806 2398
806 2406
806 2449
806 2454
806 2512
806 2524
806 2538
807 1264
807 1614
807 1814
807 2017
807 2219
808 824
808 984
808 1229
808 1252
808 1260
808 1264
808 1286
808 1309
808 1410
808 1439
808 1506
808 1507
808 1558
808 1598
808 1638
808 1782
808 1810
808 1875
808 1883
808 1895
808 1931
808 2002
808 2039
808 2370
808 2501
808 2513
808 2520
808 2524
808 2544
808 2617
808 2629
808 2670
809 854
809 934
809 949
809 1011
809 1023
809 1042
809 1097
809 1199
809 1266
809 1275
809 1286
809 1295
809 1316
809 1335
809 1401
809 1495
809 1534
809 1582
809 1699
809 1708
809 1762
809 1773
809 1883
809 1954
809 1963
809 1984
809 2025
809 2036
809 2091
809 2101
809 2137
809 2231
809 2251
809 2283
809 2380
809 2387
809 2399
809 2539
809 2586
809 2660
809 2673
810 935
810 936
810 975
810 1120
810 1131
810 1268
810 1400
810 1402
810 1406
810 1500
810 1649
810 1673
810 1708
810 1799
810 1942
810 1949
810 2208
810 2518
810 2676
811 996
811 1326
811 1361
811 1503
811 1634
811 1733
811 1782
811 1967
811 1994
811 2039
811 2228
811 2316
811 2347
811 2599
811 2623
811 2634
811 2646
812 891
812 905
812 925
812 1015
812 1156
812 1248
812 1528
812 2311
812 2470
813 822
813 823
813 840
813 872
813 879
813 930
813 985
813 989
813 1065
813 1073
813 1123
813 1186
813 1220
813 1232
813 1261
813 1282
813 1302
813 1326
813 1354
813 1392
813 1591
813 1683
813 1727
813 1766
813 1816
813 1840
813 1907
813 1920
813 2004
813 2034
813 2035
813 2147
813 2215
813 2266
813 2319
813 2427
813 2474
813 2483
813 2515
813 2561
813 2569
814 939
814 1064
814 1456
814 1574
814 1714
814 1862
814 2522
814 2638
815 991
815 1034
815 1739
815 1976
815 2062
816 1463
816 1466
816 1539
816 1567
816 1706
816 1850
816 1854
816 1868
816 1894
816 1901
816 2199
816 2476
817 917
817 924
817 1089
817 1351
817 1380
817 1716
817 1862
817 1944
817 2282
817 2372
817 2522
818 827
818 871
818 922
818 937
818 951
818 1039
818 1135
818 1136
818 1140
818 1153
818 1191
818 1229
818 1239
818 1264
818 1272
818 1286
818 1298
818 1342
818 1366
818 1377
818 1422
818 1502
818 1520
818 1584
818 1600
818 1638
818 1657
818 1719
818 1746
818 1782
818 1805
818 1810
818 1831
818 1895
818 1931
818 1947
818 2011
818 2095
818 2269
818 2270
818 2311
818 2422
818 2444
818 2496
818 2523
818 2540
818 2592
818 2629
819 828
819 862
819 876
819 921
819 927
819 954
819 960
819 977
819 981
819 1074
819 1098
819 1145
819 1217
819 1289
819 1330
819 1370
819 1425
819 1546
819 1570
819 1597
819 1605
819 1610
819 1615
819 1618
819 1641
819 1663
819 1767
819 1777
819 1817
819 1825
819 1857
819 1887
819 1897
819 1939
819 1940
819 1941
819 2045
819 2062
819 2118
819 2140
819 2164
819 2171
819 2173
819 2177
819 2265
819 2296
819 2326
819 2430
819 2452
819 2468
819 2486
819 2501
819 2533
819 2566
819 2586
819 2611
819 2634
820 852
820 864
820 933
820 1142
820 1266
820 1389
820 1428
820 1430
820 1498
820 1524
820 1559
820 1564
820 1685
820 1732
820 1764
820 1840
820 1852
820 1876
820 1894
820 1965
820 1979
820 2179
820 2246
820 2262
820 2362
820 2500
820 2551
820 2659
821 1532
821 1785
821 1943
821 2122
822 862
822 863
822 872
822 891
822 901
822 913
822 928
822 930
822 961
822 1086
822 1117
822 1166
822 1169
822 1187
822 1232
822 1237
822 1264
822 1295
822 1302
822 1328
822 1336
822 1354
822 1392
822 1431
822 1487
822 1518
822 1555
822 1570
822 1591
822 1615
822 1696
822 1697
822 1733
822 1734
822 1778
822 1779
822 1825
822 1840
822 1857
822 1869
822 1897
822 1907
822 1912
822 1915
822 1916
822 1920
822 1931
822 1941
822 1950
822 2004
822 2037
822 2053
822 2083
822 2097
822 2172
822 2182
822 2183
822 2203
822 2213
822 2214
822 2227
822 2228
822 2299
822 2311
822 2326
822 2378
822 2386
822 2416
822 2427
822 2453
822 2483
822 2504
822 2556
822 2570
822 2615
822 2633
822 2634
822 2666
824 831
824 849
824 852
824 855
824 858
824 910
824 943
824 956
824 971
824 975
824 984
824 990
824 1052
824 1058
824 1093
824 1097
824 1100
824 1119
824 1129
824 1138
824 1151
824 1162
824 1166
824 1202
824 1206
824 1230
824 1254
824 1264
824 1266
824 1270
824 1291
824 1295
824 1333
824 1346
824 1353
824 1403
824 1409
824 1427
824 1470
824 1473
824 1494
824 1495
824 1503
824 1506
824 1510
824 1534
824 1539
824 1541
824 1547
824 1548
824 1558
824 1570
824 1575
824 1592
824 1598
824 1608
824 1626
824 1675
824 1685
824 1699
824 1716
824 1721
824 1723
824 1729
824 1733
824 1736
824 1762
824 1769
824 1784
824 1797
824 1798
824 1837
824 1864
824 1890
824 1893
824 1903
824 1916
824 1945
824 1979
824 2016
824 2039
824 2124
824 2135
824 2151
824 2188
824 2189
824 2190
824 2201
824 2316
824 2321
824 2324
824 2352
824 2358
824 2370
824 2380
824 2390
824 2402
824 2425
824 2438
824 2442
824 2446
824 2464
824 2467
824 2501
824 2551
824 2571
824 2574
824 2593
824 2658
824 2660
824 2670
824 2671
824 2677
825 1518
826 855
826 1097
826 1150
826 1197
826 1266
826 1280
826 1308
826 1343
826 1365
826 1374
826 1403
826 1409
826 1494
826 1618
826 1708
826 1773
826 1923
826 2091
826 2188
826 2209
826 2262
826 2307
826 2380
826 2385
826 2389
826 2467
826 2593
826 2658
826 2671
827 871
827 922
827 951
827 989
827 1031
827 1039
827 1054
827 1061
827 1081
827 1229
827 1235
827 1262
827 1278
827 1298
827 1350
827 1393
827 1440
827 1478
827 1518
827 1533
827 1584
827 1597
827 1599
827 1659
827 1809
827 1815
827 2092
827 2095
827 2175
827 2180
827 2221
827 2231
827 2310
827 2311
827 2362
827 2422
827 2496
827 2544
827 2619
827 2654
828 909
828 1093
828 1335
828 1370
828 1560
828 1772
828 2349
828 2517
828 2666
829 833
829 925
829 1001
829 1015
829 1026
829 1031
829 1343
829 1411
829 1445
829 1597
829 1599
829 1674
829 1703
829 1726
829 1823
829 2085
829 2405
829 2426
830 953
830 1012
830 1031
830 1091
830 1119
830 1235
830 1278
830 1518
830 1566
830 1597
830 1599
830 1622
830 2042
830 2446
830 2662
831 943
831 956
831 990
831 1045
831 1093
831 1100
831 1129
831 1138
831 1162
831 1206
831 1229
831 1230
831 1266
831 1291
831 1409
831 1494
831 1534
831 1558
831 1592
831 1617
831 1687
831 1746
831 1769
831 1837
831 1890
831 1916
831 1947
831 1954
831 1979
831 2016
831 2124
831 2135
831 2148
831 2151
831 2189
831 2190
831 2201
831 2312
831 2442
831 2452
831 2464
831 2532
831 2574
831 2593
831 2660
832 965
832 1055
832 1060
832 1091
832 1243
832 1301
832 1334
832 1344
832 1487
832 1824
832 2110
832 2172
832 2194
832 2221
832 2231
832 2318
832 2536
833 880
833 941
833 1268
833 1329
833 1400
833 1402
833 1667
833 1677
833 1703
833 1823
833 2111
833 2150
833 2157
833 2370
833 2428
833 2493
833 2597
833 2652
834 910
835 854
835 864
835 865
835 897
835 922
835 951
835 964
835 1012
835 1031
835 1045
835 1053
835 1091
835 1119
835 1152
835 1188
835 1191
835 1197
835 1235
835 1258
835 1262
835 1264
835 1285
835 1308
835 1343
835 1355
835 1372
835 1404
835 1433
835 1455
835 1475
835 1479
835 1518
835 1536
835 1569
835 1574
835 1577
835 1594
835 1599
835 1625
835 1659
835 1699
835 1742
835 1834
835 1870
835 1923
835 1926
835 1931
835 1934
835 2025
835 2044
835 2074
835 2128
835 2142
835 2149
835 2154
835 2180
835 2209
835 2251
835 2275
835 2297
835 2299
835 2327
835 2361
835 2369
835 2410
835 2413
835 2526
835 2540
835 2554
835 2574
835 2606
835 2614
835 2626
835 2649
835 2655
836 2524
837 1072
837 1138
837 2233
838 874
838 880
838 936
838 952
838 1026
838 1027
838 1109
838 1168
838 1294
838 1329
838 1674
838 1677
838 1703
838 1749
838 1791
838 1792
838 1823
838 1906
838 1946
838 2146
838 2150
838 2185
838 2242
838 2328
838 2370
838 2404
838 2440
838 2536
838 2601
839 890
839 995
839 1207
839 1299
839 1518
839 1611
839 1618
839 1726
839 1849
839 2078
839 2118
839 2234
839 2332
839 2464
839 2501
839 2522
839 2577
839 2659
839 2673
840 872
840 1068
840 1257
840 1326
840 1492
840 1684
840 2005
840 2242
840 2257
840 2297
840 2394
841 1046
841 1556
841 1781
841 1878
841 1995
841 2025
841 2126
841 2495
841 2666
842 897
842 899
842 934
842 943
842 948
842 949
842 964
842 974
842 991
842 1023
842 1031
842 1091
842 1112
842 1120
842 1151
842 1165
842 1174
842 1182
842 1233
842 1276
842 1280
842 1343
842 1361
842 1371
842 1400
842 1426
842 1433
842 1442
842 1476
842 1498
842 1500
842 1504
842 1519
842 1532
842 1537
842 1549
842 1577
842 1588
842 1624
842 1625
842 1635
842 1654
842 1709
842 1719
842 1745
842 1750
842 1796
842 1868
842 1870
842 1876
842 1883
842 1923
842 1933
842 1934
842 2050
842 2053
842 2073
842 2078
842 2084
842 2091
842 2099
842 2119
842 2152
842 2155
842 2161
842 2251
842 2261
842 2329
842 2353
842 2359
842 2361
842 2367
842 2399
842 2410
842 2435
842 2479
842 2490
842 2495
842 2500
842 2502
842 2526
842 2570
842 2651
842 2676
843 1046
843 1063
843 1113
843 1130
843 1207
843 1233
843 1321
843 1339
843 1605
843 1611
843 1708
843 1723
843 1742
843 1829
843 1857
843 1926
843 2100
843 2215
843 2299
843 2370
843 2501
843 2599
843 2623
843 2659
843 2660
844 890
844 895
844 922
844 930
844 1015
844 1088
844 1108
844 1177
844 1199
844 1235
844 1291
844 1293
844 1307
844 1344
844 1366
844 1422
844 1478
844 1479
844 1594
844 1698
844 1743
844 1824
844 1863
844 1912
844 1919
844 1921
844 1954
844 1958
844 1996
844 2081
844 2183
844 2300
844 2318
844 2327
844 2362
844 2421
844 2429
844 2474
844 2553
844 2585
846 849
846 867
846 913
846 971
846 1040
846 1065
846 1080
846 1121
846 1129
846 1138
846 1200
846 1238
846 1247
846 1260
846 1307
846 1339
846 1340
846 1345
846 1350
846 1353
846 1413
846 1447
846 1468
846 1503
846 1617
846 1638
846 1648
846 1757
846 1760
846 1843
846 1883
846 1937
846 1953
846 1963
846 1971
846 1979
846 1983
846 2011
846 2016
846 2024
846 2039
846 2068
846 2137
846 2177
846 2208
846 2231
846 2237
846 2289
846 2301
846 2387
846 2399
846 2419
846 2435
846 2464
846 2532
846 2550
846 2608
846 2661
846 2673
846 2677
847 922
847 933
847 951
847 1031
847 1119
847 1128
847 1278
847 1343
847 1356
847 1389
847 1411
847 1433
847 1449
847 1461
847 1530
847 1571
847 1625
847 1666
847 1721
847 1725
847 1835
847 1845
847 2001
847 2042
847 2053
847 2189
847 2236
847 2243
847 2327
847 2421
847 2442
847 2475
847 2655
848 889
848 910
848 991
848 1046
848 1119
848 1148
848 1172
848 1190
848 1271
848 1284
848 1416
848 1425
848 1528
848 1532
848 1558
848 1617
848 1760
848 1822
848 1830
848 1847
848 1864
848 1899
848 1914
848 1945
848 1979
848 1980
848 2016
848 2062
848 2082
848 2113
848 2130
848 2179
848 2201
848 2212
848 2294
848 2354
848 2367
848 2390
848 2398
848 2437
848 2442
848 2469
848 2512
848 2514
848 2550
848 2563
848 2608
849 858
849 907
849 943
849 956
849 1016
849 1094
849 1100
849 1138
849 1172
849 1263
849 1413
849 1416
849 1430
849 1510
849 1575
849 1798
849 1850
849 1864
849 1903
849 1941
849 2016
849 2109
849 2197
849 2351
849 2365
849 2550
849 2637
850 910
850 1074
850 1546
850 1570
850 1798
850 1897
850 1908
850 1941
850 2062
850 2347
850 2360
850 2369
850 2401
850 2610
850 2623
850 2661
851 1111
851 1138
851 1148
851 1190
851 1271
851 1333
851 1416
851 1539
851 1548
851 1570
851 1733
851 1855
851 1897
851 1937
851 1941
851 2062
851 2214
851 2305
851 2401
851 2430
851 2623
852 866
852 913
852 963
852 984
852 1093
852 1166
852 1174
852 1204
852 1206
852 1226
852 1263
852 1266
852 1389
852 1416
852 1430
852 1495
852 1498
852 1547
852 1558
852 1639
852 1693
852 1797
852 1847
852 1899
852 1903
852 1921
852 2050
852 2100
852 2119
852 2171
852 2212
852 2235
852 2263
852 2294
852 2309
852 2361
852 2365
852 2369
852 2452
852 2455
852 2534
852 2574
852 2598
852 2634
852 2651
853 1088
853 1162
853 1456
853 1607
853 1688
853 1918
853 2232
853 2261
854 902
854 1009
854 1026
854 1032
854 1056
854 1201
854 1210
854 1320
854 1335
854 1358
854 1445
854 1476
854 1514
854 1516
854 1558
854 1606
854 1703
854 1711
854 1726
854 1744
854 1791
854 1873
854 1930
854 1995
854 2024
854 2040
854 2043
854 2124
854 2139
854 2157
854 2249
854 2270
854 2271
854 2292
854 2293
854 2297
854 2328
854 2331
854 2565
854 2567
854 2624
854 2652
854 2672
855 878
855 891
855 932
855 949
855 956
855 970
855 971
855 975
855 993
855 998
855 1042
855 1058
855 1059
855 1061
855 1074
855 1093
855 1100
855 1137
855 1186
855 1204
855 1223
855 1224
855 1226
855 1228
855 1229
855 1247
855 1263
855 1264
855 1272
855 1275
855 1279
855 1286
855 1295
855 1310
855 1374
855 1379
855 1430
855 1437
855 1442
855 1473
855 1484
855 1487
855 1499
855 1502
855 1510
855 1558
855 1575
855 1617
855 1639
855 1670
855 1675
855 1686
855 1708
855 1713
855 1721
855 1724
855 1730
855 1746
855 1757
855 1758
855 1779
855 1782
855 1783
855 1784
855 1786
855 1797
855 1808
855 1846
855 1871
855 1875
855 1882
855 1885
855 1895
855 1927
855 1947
855 1979
855 1984
855 2007
855 2051
855 2061
855 2068
855 2104
855 2109
855 2110
855 2126
855 2151
855 2163
855 2228
855 2233
855 2258
855 2264
855 2269
855 2294
855 2305
855 2311
855 2313
855 2327
855 2330
855 2380
855 2385
855 2387
855 2423
855 2437
855 2458
855 2467
855 2488
855 2491
855 2492
855 2523
855 2544
855 2585
855 2608
855 2615
855 2616
855 2646
855 2651
855 2671
855 2676
856 1589
856 1693
857 987
857 1061
857 1096
857 1215
857 1667
857 1680
857 1759
857 1779
857 2015
857 2129
857 2167
857 2447
857 2602
857 2666
858 910
858 943
858 956
858 991
858 1093
858 1100
858 1138
858 1172
858 1230
858 1237
858 1244
858 1263
858 1333
858 1416
858 1427
858 1443
858 1481
858 1575
858 1708
858 1764
858 1798
858 1864
858 1903
858 1916
858 2016
858 2138
858 2140
858 2177
858 2351
858 2367
858 2390
858 2505
858 2595
859 1482
859 1798
859 2063
859 2141
860 893
860 914
860 936
860 968
860 1006
860 1027
860 1402
860 1619
860 1810
860 1874
860 1992
860 2115
860 2244
860 2245
860 2247
860 2428
860 2516
860 2543
861 874
861 994
861 1264
861 1355
861 1410
861 1515
861 1988
861 2132
861 2495
861 2516
861 2606
862 913
862 927
862 954
862 960
862 977
862 981
862 1166
862 1205
862 1232
862 1255
862 1264
862 1284
862 1330
862 1336
862 1361
862 1370
862 1412
862 1425
862 1472
862 1546
862 1570
862 1591
862 1597
862 1610
862 1618
862 1635
862 1641
862 1663
862 1685
862 1761
862 1767
862 1798
862 1817
862 1825
862 1887
862 1937
862 1940
862 2039
862 2126
862 2193
862 2265
862 2296
862 2326
862 2468
862 2483
862 2486
862 2533
862 2566
862 2599
862 2611
862 2634
862 2661
863 928
863 993
863 1037
863 1197
863 1231
863 1232
863 1290
863 1309
863 1326
863 1354
863 1612
863 1634
863 1694
863 1697
863 1724
863 1733
863 1734
863 1825
863 1885
863 1907
863 1999
863 2228
863 2326
863 2334
863 2563
863 2634
864 882
864 921
864 962
864 991
864 1012
864 1151
864 1210
864 1211
864 1266
864 1353
864 1363
864 1393
864 1397
864 1455
864 1498
864 1499
864 1504
864 1524
864 1660
864 1715
864 1736
864 1750
864 1795
864 1850
864 1868
864 1870
864 1876
864 1967
864 2010
864 2099
864 2146
864 2161
864 2179
864 2188
864 2199
864 2212
864 2262
864 2274
864 2380
864 2389
864 2498
864 2532
864 2593
864 2659
865 901
865 925
865 953
865 957
865 1012
865 1013
865 1015
865 1031
865 1039
865 1061
865 1081
865 1091
865 1102
865 1128
865 1139
865 1151
865 1177
865 1191
865 1192
865 1229
865 1235
865 1262
865 1278
865 1298
865 1343
865 1372
865 1384
865 1411
865 1518
865 1530
865 1541
865 1597
865 1599
865 1622
865 1724
865 1838
865 1860
865 1923
865 2037
865 2042
865 2044
865 2128
865 2182
865 2183
865 2184
865 2188
865 2192
865 2353
865 2361
865 2362
865 2410
865 2422
865 2486
865 2496
865 2544
865 2591
865 2655
866 1117
866 1119
866 1200
866 1676
866 1683
866 1720
866 1898
866 2074
866 2163
866 2171
866 2263
866 2452
866 2455
866 2474
866 2478
866 2491
867 971
867 1121
867 1138
867 1212
867 1260
867 1269
867 1339
867 1345
867 1398
867 1494
867 1616
867 1630
867 1650
867 1843
867 1945
867 1971
867 2011
867 2016
867 2237
867 2289
867 2296
867 2324
867 2326
867 2358
867 2464
867 2469
867 2550
867 2587
868 1285
868 2261
868 2361
868 2367
869 1004
869 1018
869 1070
869 1429
869 1922
869 2621
870 889
870 932
870 943
870 1108
870 1177
870 1229
870 1263
870 1275
870 1633
870 1664
870 1706
870 1708
870 1738
870 1854
870 2039
870 2048
870 2051
870 2092
870 2160
870 2163
870 2233
870 2311
870 2327
870 2352
870 2385
870 2456
870 2464
870 2547
870 2617
870 2671
871 922
871 937
871 951
871 998
871 1039
871 1135
871 1191
871 1229
871 1235
871 1278
871 1298
871 1356
871 1437
871 1520
871 1533
871 1584
871 1600
871 1657
871 1783
871 2042
871 2180
871 2231
871 2310
871 2311
871 2422
871 2629
871 2654
872 895
872 913
872 961
872 1058
872 1117
872 1171
872 1264
872 1336
872 1339
872 1392
872 1518
872 1591
872 1603
872 1612
872 1696
872 1729
872 1734
872 1824
872 1836
872 1885
872 1928
872 1996
872 2031
872 2042
872 2053
872 2094
872 2097
872 2214
872 2221
872 2264
872 2378
872 2627
872 2662
872 2674
873 965
873 1277
873 1325
873 1751
873 2166
873 2341
873 2375
874 886
874 902
874 1009
874 1014
874 1030
874 1125
874 1134
874 1174
874 1329
874 1341
874 1357
874 1360
874 1396
874 1512
874 1628
874 1674
874 1681
874 1702
874 1703
874 1722
874 1814
874 1823
874 1962
874 1975
874 2005
874 2015
874 2085
874 2136
874 2150
874 2154
874 2167
874 2185
874 2238
874 2242
874 2270
874 2285
874 2299
874 2349
874 2350
874 2396
874 2404
874 2436
874 2516
874 2568
874 2580
874 2652
875 1211
875 1239
875 1852
875 1915
875 1947
875 1965
876 888
876 891
876 895
876 905
876 913
876 930
876 934
876 970
876 972
876 975
876 993
876 1003
876 1011
876 1042
876 1053
876 1074
876 1091
876 1092
876 1126
876 1138
876 1158
876 1166
876 1167
876 1182
876 1185
876 1195
876 1205
876 1206
876 1227
876 1233
876 1235
876 1247
876 1251
876 1272
876 1299
876 1301
876 1326
876 1346
876 1401
876 1425
876 1434
876 1442
876 1457
876 1468
876 1487
876 1495
876 1502
876 1503
876 1519
876 1534
876 1570
876 1608
876 1616
876 1630
876 1635
876 1639
876 1650
876 1659
876 1685
876 1699
876 1708
876 1714
876 1719
876 1733
876 1750
876 1779
876 1783
876 1796
876 1797
876 1870
876 1871
876 1883
876 1897
876 1914
876 1916
876 1917
876 1918
876 1927
876 1938
876 1941
876 1963
876 1967
876 1979
876 1980
876 1983
876 2016
876 2021
876 2023
876 2025
876 2038
876 2046
876 2066
876 2068
876 2078
876 2080
876 2083
876 2109
876 2116
876 2137
876 2171
876 2189
876 2202
876 2211
876 2228
876 2231
876 2246
876 2258
876 2263
876 2269
876 2275
876 2277
876 2280
876 2283
876 2294
876 2302
876 2312
876 2316
876 2330
876 2335
876 2342
876 2358
876 2389
876 2434
876 2435
876 2452
876 2464
876 2467
876 2471
876 2492
876 2501
876 2528
876 2529
876 2551
876 2570
876 2574
876 2578
876 2584
876 2588
876 2598
876 2618
876 2623
876 2628
876 2633
876 2638
876 2651
876 2660
876 2673
876 2677
877 882
877 901
877 937
877 956
877 1013
877 1082
877 1088
877 1089
877 1093
877 1103
877 1153
877 1175
877 1177
877 1191
877 1204
877 1263
877 1282
877 1286
877 1298
877 1327
877 1334
877 1342
877 1344
877 1351
877 1356
877 1412
877 1416
877 1422
877 1437
877 1454
877 1575
877 1594
877 1657
877 1698
877 1722
877 1779
877 1805
877 1831
877 1850
877 1881
877 1884
877 1903
877 1910
877 1919
877 1993
877 2081
877 2109
877 2163
877 2233
877 2241
877 2327
877 2380
877 2421
877 2474
877 2491
877 2553
877 2585
877 2592
877 2594
877 2608
877 2629
877 2633
878 932
878 971
878 1028
878 1093
878 1138
878 1153
878 1183
878 1229
878 1263
878 1264
878 1272
878 1286
878 1350
878 1558
878 1570
878 1672
878 1797
878 1827
878 1855
878 1982
878 2062
878 2208
878 2233
878 2269
878 2294
878 2303
878 2399
878 2430
878 2474
878 2520
878 2634
878 2671
879 889
879 985
879 986
879 1008
879 1065
879 1123
879 1149
879 1186
879 1261
879 1275
879 1363
879 1486
879 1502
879 1536
879 1633
879 1766
879 1783
879 1816
879 1851
879 1852
879 1920
879 2021
879 2266
879 2334
879 2561
879 2615
880 883
880 902
880 923
880 926
880 969
880 976
880 1001
880 1015
880 1070
880 1120
880 1134
880 1139
880 1168
880 1201
880 1210
880 1234
880 1268
880 1317
880 1331
880 1357
880 1358
880 1362
880 1372
880 1381
880 1414
880 1447
880 1476
880 1497
880 1509
880 1544
880 1647
880 1667
880 1677
880 1681
880 1695
880 1702
880 1703
880 1704
880 1709
880 1711
880 1722
880 1726
880 1744
880 1791
880 1792
880 1811
880 1814
880 1884
880 1975
880 2005
880 2015
880 2017
880 2073
880 2087
880 2139
880 2157
880 2204
880 2231
880 2292
880 2297
880 2300
880 2328
880 2329
880 2331
880 2350
880 2396
880 2419
880 2420
880 2428
880 2440
880 2484
880 2518
880 2526
880 2541
880 2597
880 2624
880 2652
880 2672
881 891
881 892
881 920
881 930
881 1052
881 1108
881 1166
881 1248
881 1262
881 1487
881 1518
881 1560
881 1724
881 1935
881 1950
881 2228
881 2313
881 2417
881 2453
881 2507
881 2528
881 2590
882 899
882 962
882 1012
882 1091
882 1182
882 1197
882 1266
882 1308
882 1393
882 1455
882 1466
882 1537
882 1709
882 1745
882 1750
882 1788
882 1798
882 1850
882 1870
882 1876
882 1923
882 1934
882 1967
882 2010
882 2099
882 2101
882 2119
882 2161
882 2179
882 2188
882 2197
882 2199
882 2209
882 2251
882 2282
882 2294
882 2299
882 2377
882 2380
882 2389
882 2532
883 904
883 965
883 1181
883 1331
883 1396
883 1400
883 1735
883 1768
883 1870
883 1909
883 1932
883 1934
883 2054
883 2125
883 2150
883 2251
883 2285
883 2350
883 2405
883 2428
883 2435
883 2516
883 2555
883 2568
883 2597
883 2672
884 1257
884 1335
884 1525
884 2005
884 2133
884 2170
884 2292
884 2374
884 2407
884 2445
884 2565
885 922
885 923
885 925
885 1015
885 1032
885 1061
885 1062
885 1082
885 1156
885 1168
885 1171
885 1215
885 1235
885 1262
885 1264
885 1272
885 1307
885 1350
885 1355
885 1356
885 1387
885 1393
885 1468
885 1507
885 1518
885 1541
885 1587
885 1594
885 1597
885 1599
885 1629
885 1683
885 1695
885 1696
885 1703
885 1726
885 1743
885 1809
885 1910
885 1931
885 2007
885 2024
885 2064
885 2112
885 2128
885 2153
885 2157
885 2172
885 2182
885 2231
885 2251
885 2269
885 2297
885 2310
885 2313
885 2318
885 2333
885 2353
885 2362
885 2423
885 2426
885 2429
885 2484
885 2486
885 2496
885 2544
885 2612
885 2629
885 2643
885 2655
886 904
886 956
886 1001
886 1070
886 1149
886 1415
886 1560
886 1685
886 1789
886 1878
886 1962
886 2017
886 2124
886 2175
886 2248
886 2256
886 2339
886 2400
886 2428
887 939
887 1151
887 1296
887 1481
887 1524
887 1691
887 1787
887 1798
887 2078
887 2179
887 2199
887 2225
887 2307
887 2522
887 2614
888 894
888 921
888 956
888 1013
888 1093
888 1226
888 1231
888 1237
888 1263
888 1374
888 1416
888 1439
888 1484
888 1494
888 1506
888 1533
888 1558
888 1569
888 1575
888 1686
888 1708
888 1742
888 1748
888 1782
888 1789
888 1796
888 1798
888 1800
888 1809
888 1899
888 1903
888 1979
888 2016
888 2048
888 2076
888 2175
888 2177
888 2189
888 2190
888 2215
888 2294
888 2347
888 2361
888 2380
888 2399
888 2437
888 2457
888 2467
888 2529
888 2539
889 932
889 977
889 1011
889 1074
889 1106
889 1146
889 1263
889 1275
889 1284
889 1354
889 1363
889 1386
889 1451
889 1482
889 1503
889 1528
889 1536
889 1547
889 1633
889 1664
889 1706
889 1748
889 1779
889 1809
889 1852
889 1980
889 2002
889 2007
889 2051
889 2062
889 2241
889 2274
889 2311
889 2346
889 2363
889 2385
889 2387
889 2456
889 2505
889 2523
889 2524
889 2562
889 2628
889 2650
889 2671
890 929
890 1127
890 1369
890 1380
890 1494
890 1518
890 1558
890 1569
890 1574
890 1688
890 1696
890 1934
890 2084
890 2192
890 2303
890 2361
890 2367
890 2522
890 2577
890 2581
890 2609
891 892
891 910
891 920
891 925
891 930
891 957
891 990
891 996
891 1012
891 1025
891 1037
891 1041
891 1042
891 1049
891 1058
891 1074
891 1086
891 1105
891 1115
891 1117
891 1138
891 1144
891 1169
891 1181
891 1186
891 1202
891 1204
891 1247
891 1251
891 1264
891 1299
891 1307
891 1309
891 1329
891 1334
891 1344
891 1356
891 1357
891 1395
891 1410
891 1442
891 1454
891 1487
891 1529
891 1541
891 1560
891 1562
891 1570
891 1571
891 1582
891 1594
891 1638
891 1678
891 1685
891 1686
891 1696
891 1713
891 1724
891 1729
891 1733
891 1754
891 1758
891 1760
891 1778
891 1779
891 1784
891 1810
891 1825
891 1840
891 1864
891 1871
891 1881
891 1897
891 1907
891 1909
891 1912
891 1915
891 1916
891 1920
891 1931
891 1935
891 1941
891 1965
891 2015
891 2034
891 2062
891 2068
891 2083
891 2093
891 2109
891 2110
891 2115
891 2136
891 2163
891 2177
891 2182
891 2202
891 2206
891 2211
891 2228
891 2263
891 2270
891 2277
891 2313
891 2327
891 2335
891 2343
891 2349
891 2370
891 2392
891 2395
891 2397
891 2411
891 2414
891 2417
891 2423
891 2425
891 2432
891 2451
891 2452
891 2453
891 2469
891 2473
891 2474
891 2491
891 2528
891 2561
891 2570
891 2583
891 2608
891 2615
891 2629
891 2633
891 2634
891 2668
891 2673
892 910
892 920
892 930
892 932
892 996
892 1086
892 1108
892 1169
892 1247
892 1395
892 1438
892 1442
892 1562
892 1608
892 1616
892 1684
892 1724
892 1742
892 1750
892 1758
892 1825
892 1840
892 1881
892 1907
892 2062
892 2066
892 2211
892 2228
892 2313
892 2336
892 2347
892 2370
892 2417
892 2453
892 2528
892 2561
892 2575
893 936
893 1027
893 1268
893 1350
893 1402
893 1516
893 1538
893 1810
893 1992
893 2293
893 2348
893 2364
894 956
894 1003
894 1017
894 1093
894 1129
894 1145
894 1195
894 1226
894 1244
894 1416
894 1430
894 1533
894 1798
894 1809
894 1847
894 1899
894 1994
894 2070
894 2225
894 2294
894 2309
894 2370
894 2457
894 2464
895 972
895 1045
895 1080
895 1091
895 1119
895 1127
895 1136
895 1138
895 1229
895 1233
895 1269
895 1285
895 1339
895 1343
895 1345
895 1377
895 1403
895 1437
895 1494
895 1502
895 1503
895 1541
895 1545
895 1574
895 1575
895 1630
895 1650
895 1659
895 1722
895 1737
895 1773
895 1779
895 1819
895 1843
895 1852
895 1921
895 1923
895 1944
895 1954
895 1971
895 1999
895 2011
895 2073
895 2162
895 2225
895 2246
895 2251
895 2289
895 2309
895 2361
895 2362
895 2387
895 2451
895 2464
895 2587
895 2618
895 2636
896 990
896 991
896 1057
896 1093
896 1127
896 1138
896 1151
896 1162
896 1206
896 1214
896 1244
896 1264
896 1265
896 1285
896 1296
896 1368
896 1454
896 1482
896 1547
896 1558
896 1687
896 1691
896 1696
896 1708
896 1795
896 1796
896 1835
896 1837
896 1852
896 1882
896 1893
896 1965
896 1969
896 1979
896 2201
896 2232
896 2261
896 2362
896 2469
896 2512
896 2530
896 2583
896 2584
896 2596
896 2634
897 923
897 934
897 937
897 964
897 1012
897 1031
897 1120
897 1152
897 1159
897 1166
897 1235
897 1252
897 1258
897 1298
897 1343
897 1356
897 1372
897 1400
897 1433
897 1475
897 1478
897 1479
897 1537
897 1569
897 1625
897 1641
897 1657
897 1662
897 1696
897 1709
897 1722
897 1797
897 1868
897 1870
897 1883
897 1904
897 1934
897 2003
897 2037
897 2073
897 2074
897 2101
897 2128
897 2149
897 2221
897 2243
897 2297
897 2333
897 2353
897 2361
897 2370
897 2389
897 2410
897 2413
897 2456
897 2526
897 2582
897 2649
897 2655
897 2667
898 1039
898 1060
898 1220
898 2207
898 2496
898 2515
898 2548
898 2635
899 964
899 970
899 980
899 993
899 1031
899 1042
899 1091
899 1097
899 1101
899 1112
899 1120
899 1142
899 1182
899 1197
899 1233
899 1264
899 1266
899 1280
899 1308
899 1332
899 1344
899 1351
899 1389
899 1405
899 1428
899 1498
899 1504
899 1519
899 1521
899 1524
899 1532
899 1537
899 1539
899 1548
899 1559
899 1579
899 1588
899 1624
899 1635
899 1652
899 1686
899 1708
899 1745
899 1773
899 1787
899 1796
899 1824
899 1829
899 1868
899 1883
899 1923
899 1934
899 1942
899 1945
899 1969
899 1978
899 1998
899 2119
899 2151
899 2155
899 2161
899 2163
899 2188
899 2209
899 2215
899 2299
899 2329
899 2359
899 2380
899 2385
899 2389
899 2399
899 2421
899 2435
899 2456
899 2479
899 2578
899 2586
899 2588
899 2598
899 2637
899 2651
900 1416
901 972
901 1012
901 1015
901 1039
901 1061
901 1066
901 1073
901 1081
901 1091
901 1119
901 1128
901 1135
901 1175
901 1192
901 1199
901 1204
901 1235
901 1239
901 1262
901 1264
901 1278
901 1282
901 1343
901 1344
901 1350
901 1356
901 1384
901 1518
901 1530
901 1541
901 1555
901 1572
901 1594
901 1603
901 1713
901 1786
901 1931
901 1934
901 1957
901 1964
901 2037
901 2112
901 2137
901 2172
901 2182
901 2203
901 2210
901 2310
901 2327
901 2422
901 2444
901 2544
901 2585
901 2612
901 2629
901 2635
902 904
902 1026
902 1053
902 1067
902 1070
902 1102
902 1109
902 1114
902 1125
902 1134
902 1201
902 1216
902 1357
902 1360
902 1396
902 1476
902 1492
902 1595
902 1702
902 1703
902 1711
902 1743
902 1744
902 1763
902 1970
902 1995
902 2003
902 2005
902 2017
902 2084
902 2111
902 2150
902 2154
902 2157
902 2220
902 2242
902 2297
902 2300
902 2331
902 2428
902 2439
902 2484
902 2506
902 2568
902 2586
902 2597
902 2652
903 1264
903 1327
903 1397
903 1403
903 1439
903 1449
903 1541
903 1594
903 1638
903 1666
903 1696
903 1761
903 1783
903 1784
903 1839
903 1923
903 1963
903 1979
903 2001
903 2027
903 2060
903 2112
903 2287
903 2410
903 2423
903 2449
903 2475
903 2547
903 2562
904 976
904 1001
904 1004
904 1010
904 1053
904 1114
904 1116
904 1201
904 1216
904 1341
904 1430
904 1619
904 1647
904 1684
904 1702
904 1703
904 1768
904 1772
904 1814
904 1848
904 1878
904 1979
904 2043
904 2115
904 2125
904 2146
904 2174
904 2245
904 2297
904 2328
904 2331
904 2428
904 2484
904 2506
904 2545
904 2568
904 2597
905 963
905 971
905 972
905 989
905 1166
905 1187
905 1235
905 1264
905 1270
905 1328
905 1401
905 1425
905 1468
905 1495
905 1534
905 1608
905 1616
905 1635
905 1696
905 1699
905 1779
905 1979
905 1980
905 2004
905 2025
905 2078
905 2109
905 2137
905 2246
905 2342
905 2378
905 2609
905 2618
905 2628
905 2660
906 1473
906 1722
906 1934
906 2017
906 2157
906 2194
906 2220
906 2251
906 2350
906 2510
906 2541
907 914
907 946
907 972
907 980
907 987
907 988
907 1001
907 1010
907 1056
907 1147
907 1235
907 1264
907 1326
907 1334
907 1376
907 1381
907 1396
907 1452
907 1454
907 1467
907 1488
907 1541
907 1544
907 1560
907 1575
907 1621
907 1636
907 1674
907 1680
907 1696
907 1712
907 1722
907 1747
907 1781
907 1784
907 1850
907 1885
907 1986
907 2043
907 2069
907 2123
907 2136
907 2157
907 2270
907 2271
907 2450
907 2473
907 2495
907 2517
907 2555
908 976
908 1216
908 1747
908 1883
908 2005
908 2047
908 2245
908 2300
908 2516
908 2581
909 1222
909 1772
909 2052
909 2059
909 2339
909 2517
909 2607
910 921
910 939
910 954
910 956
910 962
910 971
910 981
910 1003
910 1046
910 1100
910 1119
910 1123
910 1124
910 1127
910 1129
910 1138
910 1145
910 1151
910 1169
910 1185
910 1189
910 1206
910 1217
910 1230
910 1244
910 1255
910 1264
910 1270
910 1289
910 1309
910 1346
910 1353
910 1409
910 1425
910 1427
910 1466
910 1477
910 1510
910 1546
910 1570
910 1579
910 1615
910 1688
910 1692
910 1696
910 1728
910 1760
910 1767
910 1795
910 1807
910 1822
910 1840
910 1857
910 1887
910 1897
910 1898
910 1908
910 1912
910 1914
910 1941
910 1945
910 1957
910 1979
910 1980
910 2016
910 2031
910 2046
910 2062
910 2118
910 2140
910 2151
910 2164
910 2189
910 2200
910 2201
910 2206
910 2212
910 2215
910 2222
910 2258
910 2262
910 2294
910 2330
910 2347
910 2365
910 2385
910 2390
910 2395
910 2430
910 2452
910 2469
910 2483
910 2486
910 2584
910 2605
910 2610
910 2623
910 2634
910 2651
910 2659
911 972
911 1133
911 1134
911 1512
911 1717
911 1885
911 1934
911 1987
911 2053
911 2243
911 2382
911 2582
911 2624
912 1181
912 1213
912 1329
912 1400
912 1934
912 1987
913 936
913 961
913 993
913 994
913 1018
913 1046
913 1111
913 1126
913 1140
913 1154
913 1158
913 1162
913 1166
913 1185
913 1204
913 1232
913 1252
913 1264
913 1272
913 1301
913 1336
913 1346
913 1361
913 1390
913 1400
913 1425
913 1442
913 1472
913 1485
913 1530
913 1551
913 1591
913 1607
913 1639
913 1673
913 1675
913 1713
913 1734
913 1760
913 1846
913 1867
913 1898
913 1918
913 1945
913 1998
913 2037
913 2039
913 2153
913 2171
913 2200
913 2250
913 2286
913 2290
913 2302
913 2307
913 2338
913 2344
913 2378
913 2454
913 2467
913 2474
913 2483
913 2486
913 2488
913 2491
913 2492
913 2524
913 2532
913 2550
913 2586
913 2651
913 2677
914 919
914 1006
914 1381
914 1619
914 1681
914 2043
914 2136
914 2157
914 2244
914 2580
915 949
915 1002
915 1166
915 1223
915 1246
915 1275
915 1316
915 1762
915 1794
915 1938
915 1954
915 1984
915 2048
915 2080
915 2101
915 2104
915 2138
915 2347
915 2387
915 2634
916 2623
917 973
917 1091
917 1151
917 1164
917 1236
917 1304
917 1337
917 1353
917 1378
917 1380
917 1404
917 1498
917 1504
917 1549
917 1625
917 1709
917 1752
917 1787
917 1862
917 1904
917 1933
917 1934
917 1964
917 1979
917 2073
917 2090
917 2099
917 2143
917 2179
917 2254
917 2282
917 2367
917 2479
917 2481
917 2490
917 2614
917 2638
917 2659
918 1338
918 1940
918 2634
919 968
919 1006
919 1032
919 1288
919 1341
919 1391
919 1619
919 1651
919 1680
919 1747
919 1749
919 1779
919 2003
919 2089
919 2166
919 2191
919 2244
919 2247
919 2252
919 2414
919 2438
919 2495
919 2516
919 2564
919 2600
919 2634
919 2666
920 930
920 970
920 996
920 1037
920 1052
920 1086
920 1102
920 1108
920 1144
920 1186
920 1248
920 1410
920 1476
920 1487
920 1518
920 1529
920 1591
920 1612
920 1724
920 1808
920 1825
920 1915
920 1935
920 2228
920 2313
920 2335
920 2417
920 2453
920 2507
920 2528
920 2590
920 2617
921 931
921 954
921 960
921 981
921 1011
921 1030
921 1061
921 1151
921 1189
921 1255
921 1271
921 1353
921 1395
921 1425
921 1546
921 1562
921 1570
921 1608
921 1615
921 1618
921 1733
921 1742
921 1750
921 1758
921 1760
921 1767
921 1795
921 1840
921 1887
921 1897
921 1908
921 1912
921 1941
921 1979
921 2010
921 2062
921 2066
921 2099
921 2118
921 2164
921 2212
921 2228
921 2278
921 2294
921 2337
921 2347
921 2362
921 2392
921 2432
921 2452
921 2453
921 2468
921 2488
921 2607
921 2623
921 2628
922 951
922 953
922 972
922 989
922 994
922 998
922 1012
922 1013
922 1031
922 1039
922 1045
922 1054
922 1055
922 1060
922 1061
922 1119
922 1122
922 1128
922 1135
922 1143
922 1159
922 1177
922 1191
922 1192
922 1239
922 1251
922 1258
922 1262
922 1265
922 1272
922 1282
922 1298
922 1343
922 1355
922 1366
922 1387
922 1393
922 1411
922 1433
922 1440
922 1461
922 1468
922 1477
922 1478
922 1518
922 1531
922 1533
922 1572
922 1584
922 1585
922 1599
922 1638
922 1649
922 1659
922 1688
922 1717
922 1721
922 1725
922 1731
922 1754
922 1783
922 1809
922 1815
922 1824
922 1835
922 1845
922 1860
922 1881
922 1883
922 1920
922 1931
922 1955
922 2018
922 2026
922 2042
922 2044
922 2053
922 2086
922 2095
922 2110
922 2128
922 2163
922 2172
922 2180
922 2183
922 2192
922 2221
922 2231
922 2287
922 2310
922 2311
922 2328
922 2342
922 2353
922 2370
922 2413
922 2421
922 2422
922 2474
922 2496
922 2540
922 2554
922 2556
922 2603
922 2629
923 925
923 929
923 953
923 969
923 1015
923 1031
923 1032
923 1062
923 1102
923 1134
923 1138
923 1139
923 1159
923 1177
923 1182
923 1248
923 1262
923 1268
923 1296
923 1301
923 1350
923 1356
923 1362
923 1372
923 1384
923 1411
923 1475
923 1476
923 1497
923 1513
923 1518
923 1530
923 1537
923 1549
923 1569
923 1574
923 1575
923 1594
923 1625
923 1709
923 1711
923 1717
923 1726
923 1778
923 1792
923 1851
923 1863
923 1868
923 1870
923 1873
923 1904
923 1910
923 1934
923 1992
923 2031
923 2034
923 2038
923 2042
923 2053
923 2073
923 2087
923 2134
923 2201
923 2211
923 2231
923 2252
923 2277
923 2292
923 2318
923 2328
923 2329
923 2353
923 2429
923 2460
923 2470
923 2479
923 2507
923 2518
923 2526
923 2541
923 2582
923 2586
923 2655
924 1343
924 1435
924 1706
924 1944
924 2096
924 2282
924 2463
924 2540
925 953
925 956
925 990
925 1013
925 1039
925 1061
925 1062
925 1192
925 1207
925 1258
925 1298
925 1307
925 1343
925 1350
925 1356
925 1357
925 1387
925 1393
925 1412
925 1454
925 1461
925 1518
925 1594
925 1659
925 1683
925 1686
925 1733
925 1738
925 1770
925 1835
925 1838
925 1840
925 1897
925 1920
925 1931
925 2015
925 2016
925 2024
925 2042
925 2044
925 2093
925 2097
925 2112
925 2124
925 2147
925 2163
925 2180
925 2183
925 2184
925 2207
925 2318
925 2333
925 2353
925 2361
925 2363
925 2370
925 2377
925 2426
925 2429
925 2432
925 2486
925 2496
925 2544
925 2612
925 2629
925 2635
925 2665
926 993
926 1079
926 1228
926 1357
926 1415
926 1543
926 1673
926 1675
926 2292
926 2671
927 977
927 1086
927 1111
927 1271
927 1284
927 1608
927 1634
927 1641
927 1728
927 1733
927 1790
927 1813
927 1869
927 1897
927 1908
927 1940
927 2100
927 2135
927 2189
927 2360
927 2398
927 2533
927 2566
927 2611
927 2623
927 2665
928 1037
928 1186
928 1223
928 1232
928 1264
928 1309
928 1612
928 1697
928 1724
928 1778
928 1907
928 1917
928 1999
928 2228
928 2334
928 2453
928 2633
929 933
929 1577
929 1787
929 1933
929 1934
929 1970
929 2071
929 2297
929 2396
929 2490
929 2500
929 2577
929 2614
929 2668
930 963
930 972
930 990
930 996
930 998
930 1011
930 1037
930 1041
930 1052
930 1074
930 1108
930 1117
930 1119
930 1144
930 1166
930 1186
930 1187
930 1189
930 1233
930 1248
930 1254
930 1289
930 1301
930 1306
930 1307
930 1309
930 1310
930 1328
930 1334
930 1344
930 1354
930 1395
930 1410
930 1422
930 1442
930 1454
930 1518
930 1529
930 1541
930 1569
930 1581
930 1608
930 1616
930 1640
930 1668
930 1683
930 1686
930 1696
930 1724
930 1750
930 1758
930 1770
930 1774
930 1778
930 1779
930 1808
930 1837
930 1840
930 1852
930 1897
930 1907
930 1912
930 1915
930 1917
930 1920
930 1935
930 1994
930 2023
930 2034
930 2037
930 2046
930 2066
930 2068
930 2081
930 2093
930 2094
930 2110
930 2141
930 2177
930 2202
930 2211
930 2213
930 2228
930 2243
930 2277
930 2278
930 2313
930 2327
930 2335
930 2343
930 2395
930 2417
930 2421
930 2441
930 2453
930 2486
930 2491
930 2507
930 2528
930 2544
930 2549
930 2615
930 2616
930 2617
930 2622
930 2628
930 2633
930 2634
930 2667
931 960
931 1003
931 1065
931 1074
931 1085
931 1138
931 1184
931 1195
931 1346
931 1378
931 1425
931 1479
931 1546
931 1570
931 1617
931 1733
931 1754
931 1760
931 1795
931 1897
931 1908
931 1945
931 1947
931 1963
931 2021
931 2096
931 2164
931 2280
931 2370
931 2401
931 2406
931 2452
931 2474
931 2583
931 2605
931 2623
931 2636
931 2637
931 2658
932 975
932 993
932 1023
932 1138
932 1145
932 1166
932 1183
932 1185
932 1224
932 1229
932 1263
932 1264
932 1271
932 1275
932 1286
932 1346
932 1451
932 1521
932 1534
932 1562
932 1570
932 1575
932 1615
932 1633
932 1634
932 1664
932 1693
932 1733
932 1738
932 1748
932 1784
932 1809
932 1855
932 1869
932 1885
932 1887
932 1897
932 1916
932 1926
932 1938
932 1941
932 1998
932 2051
932 2062
932 2083
932 2092
932 2118
932 2140
932 2151
932 2228
932 2233
932 2264
932 2294
932 2303
932 2311
932 2316
932 2346
932 2385
932 2425
932 2456
932 2488
932 2505
932 2521
932 2570
932 2617
932 2623
932 2628
932 2634
932 2646
932 2651
932 2671
932 2673
933 953
933 1119
933 1128
933 1193
933 1208
933 1234
933 1276
933 1286
933 1351
933 1369
933 1389
933 1432
933 1498
933 1518
933 1549
933 1563
933 1642
933 1682
933 1721
933 1788
933 1834
933 1845
933 1876
933 1923
933 2001
933 2142
933 2155
933 2267
933 2294
933 2380
933 2399
933 2421
933 2478
933 2520
933 2540
933 2544
933 2578
933 2588
933 2591
934 949
934 956
934 964
934 970
934 975
934 986
934 1009
934 1030
934 1042
934 1093
934 1097
934 1118
934 1120
934 1140
934 1142
934 1146
934 1159
934 1167
934 1207
934 1266
934 1270
934 1272
934 1284
934 1290
934 1303
934 1313
934 1356
934 1389
934 1438
934 1455
934 1475
934 1503
934 1545
934 1558
934 1579
934 1664
934 1671
934 1683
934 1718
934 1719
934 1721
934 1723
934 1730
934 1771
934 1870
934 1871
934 1876
934 1902
934 1916
934 1923
934 1938
934 1947
934 1954
934 1958
934 1963
934 1967
934 1978
934 2053
934 2101
934 2128
934 2180
934 2188
934 2234
934 2235
934 2290
934 2294
934 2299
934 2502
934 2512
934 2526
934 2578
934 2586
934 2626
934 2655
934 2665
935 975
935 984
935 1112
935 1131
935 1286
935 1371
935 1406
935 1428
935 1473
935 1498
935 1500
935 1649
935 1719
935 1721
935 1827
935 2014
935 2208
935 2239
935 2258
935 2294
935 2330
935 2520
935 2591
935 2676
936 1012
936 1018
936 1027
936 1093
936 1397
936 1538
936 1574
936 1823
936 1934
936 1946
936 2146
936 2262
936 2659
937 965
937 1013
937 1039
937 1103
937 1135
937 1175
937 1188
937 1191
937 1298
937 1342
937 1437
937 1479
937 1507
937 1584
937 1600
937 1625
937 1629
937 1657
937 1662
937 1698
937 1824
937 1881
937 1934
937 2042
937 2128
937 2180
937 2182
937 2221
937 2410
937 2413
937 2526
937 2629
937 2649
937 2655
938 1145
938 1697
938 2062
938 2623
938 2628
939 956
939 962
939 999
939 1005
939 1007
939 1021
939 1033
939 1062
939 1064
939 1087
939 1091
939 1099
939 1119
939 1127
939 1151
939 1182
939 1195
939 1285
939 1314
939 1353
939 1378
939 1412
939 1456
939 1464
939 1466
939 1481
939 1508
939 1524
939 1545
939 1548
939 1561
939 1577
939 1687
939 1691
939 1696
939 1699
939 1714
939 1773
939 1787
939 1795
939 1862
939 1864
939 1870
939 1883
939 1920
939 1934
939 1979
939 1980
939 2027
939 2068
939 2078
939 2162
939 2179
939 2189
939 2193
939 2212
939 2225
939 2261
939 2262
939 2263
939 2266
939 2309
939 2367
939 2478
939 2480
939 2500
939 2522
939 2584
939 2586
939 2596
939 2614
939 2638
939 2659
939 2673
940 1329
941 946
941 972
941 980
941 987
941 1032
941 1069
941 1070
941 1096
941 1168
941 1201
941 1215
941 1254
941 1256
941 1268
941 1317
941 1342
941 1358
941 1359
941 1391
941 1414
941 1492
941 1496
941 1558
941 1606
941 1628
941 1636
941 1667
941 1677
941 1680
941 1681
941 1704
941 1711
941 1726
941 1743
941 1759
941 1763
941 1811
941 1848
941 1866
941 1874
941 1877
941 1883
941 1892
941 1962
941 1985
941 1986
941 2003
941 2015
941 2111
941 2115
941 2136
941 2146
941 2157
941 2167
941 2218
941 2219
941 2244
941 2249
941 2252
941 2293
941 2297
941 2300
941 2509
941 2510
941 2555
941 2597
941 2649
941 2652
941 2666
941 2672
942 1151
942 1170
942 1535
942 1678
942 2544
943 998
943 1100
943 1124
943 1127
943 1138
943 1151
943 1206
943 1246
943 1247
943 1261
943 1275
943 1291
943 1315
943 1320
943 1372
943 1400
943 1406
943 1409
943 1412
943 1426
943 1442
943 1482
943 1494
943 1500
943 1510
943 1545
943 1652
943 1675
943 1688
943 1708
943 1723
943 1729
943 1733
943 1738
943 1745
943 1795
943 1798
943 1822
943 1837
943 1864
943 1875
943 1893
943 1916
943 1941
943 1942
943 1945
943 2016
943 2039
943 2048
943 2051
943 2090
943 2138
943 2151
943 2189
943 2201
943 2283
943 2327
943 2352
943 2363
943 2370
943 2385
943 2389
943 2454
943 2520
943 2570
943 2593
943 2616
943 2671
944 955
944 1179
944 2027
945 1018
946 972
946 990
946 1069
946 1326
946 1356
946 1376
946 1391
946 1587
946 1685
946 1712
946 1747
946 1884
946 1934
946 1970
946 1986
946 2112
946 2285
946 2418
946 2447
946 2495
946 2516
946 2555
946 2580
947 1056
947 1093
947 1178
947 1325
947 1329
947 1515
947 1516
947 1636
947 1995
947 2089
947 2132
947 2169
947 2219
947 2600
948 1126
948 1150
948 1165
948 1182
948 1280
948 1285
948 1313
948 1389
948 1577
948 1624
948 1635
948 1661
948 1709
948 1717
948 1861
948 1934
948 2053
948 2243
948 2286
948 2582
948 2651
949 956
949 994
949 998
949 1041
949 1042
949 1058
949 1097
949 1120
949 1126
949 1153
949 1165
949 1226
949 1229
949 1266
949 1272
949 1275
949 1286
949 1295
949 1304
949 1316
949 1344
949 1401
949 1406
949 1426
949 1499
949 1534
949 1539
949 1626
949 1639
949 1675
949 1685
949 1699
949 1715
949 1727
949 1737
949 1744
949 1762
949 1773
949 1782
949 1794
949 1816
949 1850
949 1870
949 1895
949 1921
949 1923
949 1954
949 1963
949 1979
949 1984
949 2033
949 2076
949 2091
949 2101
949 2104
949 2137
949 2184
949 2197
949 2223
949 2321
949 2370
949 2380
949 2387
949 2391
949 2399
949 2523
949 2532
949 2547
949 2591
949 2634
949 2660
949 2673
949 2676
949 2677
950 959
950 1058
950 1105
950 1239
950 1260
950 1282
950 1540
950 1541
950 1824
950 1883
950 1931
950 2182
950 2203
950 2241
950 2368
950 2378
950 2444
950 2603
950 2629
951 953
951 990
951 1013
951 1031
951 1039
951 1045
951 1055
951 1060
951 1102
951 1119
951 1128
951 1135
951 1181
951 1191
951 1199
951 1235
951 1251
951 1258
951 1278
951 1298
951 1309
951 1344
951 1350
951 1387
951 1411
951 1440
951 1461
951 1478
951 1479
951 1518
951 1530
951 1533
951 1597
951 1600
951 1612
951 1622
951 1797
951 1815
951 1824
951 1845
951 1996
951 1999
951 2018
951 2042
951 2053
951 2095
951 2172
951 2180
951 2205
951 2221
951 2231
951 2334
951 2412
951 2421
951 2422
951 2423
951 2426
951 2474
951 2486
951 2496
951 2544
951 2607
951 2626
951 2629
951 2654
952 969
952 1329
952 1331
952 1414
952 1558
952 1658
952 1677
952 1702
952 1865
952 2146
952 2293
952 2331
952 2339
952 2350
952 2396
952 2405
952 2487
952 2541
952 2652
953 990
953 1013
953 1031
953 1088
953 1091
953 1102
953 1135
953 1139
953 1175
953 1191
953 1235
953 1278
953 1343
953 1387
953 1411
953 1433
953 1454
953 1461
953 1478
953 1518
953 1520
953 1530
953 1537
953 1541
953 1566
953 1585
953 1597
953 1599
953 1600
953 1611
953 1622
953 1657
953 1692
953 1706
953 1709
953 1770
953 1803
953 1815
953 1817
953 1838
953 1848
953 1870
953 1934
953 1946
953 1955
953 2039
953 2042
953 2053
953 2084
953 2163
953 2192
953 2295
953 2297
953 2327
953 2353
953 2421
953 2426
953 2486
953 2489
953 2544
953 2585
953 2626
953 2644
953 2662
954 960
954 962
954 981
954 1030
954 1127
954 1151
954 1162
954 1195
954 1230
954 1242
954 1255
954 1271
954 1285
954 1353
954 1370
954 1395
954 1425
954 1427
954 1489
954 1494
954 1524
954 1545
954 1546
954 1561
954 1562
954 1570
954 1610
954 1617
954 1618
954 1688
954 1767
954 1777
954 1795
954 1798
954 1887
954 1897
954 1941
954 1994
954 2062
954 2113
954 2140
954 2162
954 2164
954 2179
954 2261
954 2361
954 2367
954 2390
954 2392
954 2398
954 2449
954 2468
954 2469
954 2533
954 2605
954 2611
954 2623
954 2651
955 991
955 1249
955 1292
955 1856
955 1953
955 2262
955 2406
955 2460
955 2608
956 971
956 994
956 998
956 1017
956 1039
956 1058
956 1093
956 1100
956 1104
956 1129
956 1138
956 1142
956 1153
956 1162
956 1173
956 1174
956 1206
956 1224
956 1226
956 1231
956 1237
956 1263
956 1264
956 1295
956 1299
956 1333
956 1334
956 1345
956 1374
956 1379
956 1403
956 1409
956 1416
956 1426
956 1430
956 1440
956 1457
956 1510
956 1558
956 1569
956 1575
956 1587
956 1592
956 1617
956 1649
956 1659
956 1685
956 1696
956 1721
956 1723
956 1733
956 1741
956 1742
956 1750
956 1758
956 1769
956 1782
956 1784
956 1789
956 1797
956 1798
956 1847
956 1864
956 1870
956 1882
956 1883
956 1899
956 1902
956 1903
956 1909
956 1916
956 1958
956 1965
956 1967
956 2016
956 2021
956 2048
956 2073
956 2081
956 2093
956 2101
956 2172
956 2175
956 2177
956 2201
956 2205
956 2212
956 2233
956 2294
956 2305
956 2309
956 2387
956 2435
956 2457
956 2464
956 2501
956 2532
956 2534
956 2539
956 2550
956 2551
956 2553
956 2556
956 2570
956 2574
956 2593
956 2609
956 2658
957 994
957 1029
957 1031
957 1082
957 1102
957 1159
957 1278
957 1293
957 1355
957 1356
957 1475
957 1520
957 1594
957 1622
957 1625
957 1638
957 1696
957 1717
957 1743
957 1779
957 1822
957 1838
957 1910
957 1931
957 2018
957 2163
957 2175
957 2293
957 2318
957 2423
957 2474
957 2655
958 990
958 1013
958 1025
958 1045
958 1108
958 1124
958 1144
958 1151
958 1162
958 1170
958 1202
958 1206
958 1230
958 1291
958 1456
958 1494
958 1533
958 1541
958 1545
958 1547
958 1575
958 1678
958 1687
958 1688
958 1729
958 1795
958 1817
958 1837
958 1840
958 1911
958 1912
958 1969
958 1979
958 2163
958 2170
958 2207
958 2370
958 2474
958 2491
958 2515
958 2633
959 990
959 1030
959 1064
959 1095
959 1119
959 1466
959 1553
959 1574
959 1618
959 1979
959 2016
959 2298
959 2512
959 2591
960 981
960 1151
960 1164
960 1242
960 1255
960 1271
960 1337
960 1395
960 1397
960 1425
960 1546
960 1562
960 1570
960 1607
960 1691
960 1733
960 1798
960 1822
960 1839
960 1857
960 1887
960 1897
960 1904
960 1908
960 1916
960 1941
960 2075
960 2118
960 2140
960 2164
960 2179
960 2261
960 2278
960 2296
960 2367
960 2390
960 2392
960 2401
960 2467
960 2468
960 2469
960 2479
960 2501
960 2583
960 2586
960 2605
960 2623
961 1187
961 1232
961 1253
961 1264
961 1269
961 1334
961 1336
961 1398
961 1422
961 1541
961 1591
961 1697
961 1734
961 1760
961 2004
961 2016
961 2039
961 2053
961 2097
961 2109
961 2147
961 2182
961 2210
961 2227
961 2228
961 2370
961 2378
961 2416
961 2427
961 2432
961 2548
961 2561
961 2629
961 2674
962 990
962 1021
962 1091
962 1124
962 1129
962 1138
962 1151
962 1206
962 1207
962 1230
962 1242
962 1255
962 1285
962 1291
962 1362
962 1427
962 1503
962 1524
962 1547
962 1561
962 1564
962 1607
962 1687
962 1688
962 1691
962 1692
962 1745
962 1773
962 1795
962 1822
962 1868
962 1901
962 1979
962 2011
962 2062
962 2100
962 2118
962 2179
962 2201
962 2212
962 2228
962 2361
962 2370
962 2377
962 2389
962 2390
962 2464
962 2598
962 2605
963 1111
963 1117
963 1123
963 1166
963 1217
963 1270
963 1425
963 1442
963 1495
963 1529
963 1539
963 1541
963 1608
963 1618
963 1767
963 1849
963 2016
963 2066
963 2078
963 2214
963 2263
963 2452
963 2478
963 2598
963 2628
963 2677
964 1012
964 1120
964 1126
964 1229
964 1272
964 1286
964 1293
964 1356
964 1389
964 1519
964 1537
964 1558
964 1588
964 1594
964 1648
964 1717
964 1745
964 1870
964 1876
964 1910
964 1931
964 1978
964 2053
964 2119
964 2180
964 2231
964 2243
964 2290
964 2385
964 2410
964 2437
964 2467
964 2479
964 2526
964 2553
964 2586
964 2649
965 1026
965 1060
965 1093
965 1109
965 1181
965 1220
965 1279
965 1342
965 1343
965 1360
965 1411
965 1478
965 1492
965 1509
965 1530
965 1583
965 1695
965 1735
965 1744
965 1791
965 1814
965 1906
965 1934
965 2111
965 2124
965 2245
965 2340
965 2418
965 2428
965 2541
965 2612
966 1927
967 1321
967 1350
967 1507
967 1786
967 1885
967 2058
967 2221
967 2408
967 2489
967 2557
968 1149
968 1726
968 1744
968 2253
968 2428
969 1036
969 1125
969 1134
969 1256
969 1300
969 1329
969 1360
969 1364
969 1574
969 1974
969 1995
969 2087
969 2136
969 2146
969 2150
969 2270
969 2339
969 2350
969 2487
969 2541
969 2580
969 2638
969 2666
970 981
970 996
970 1044
970 1045
970 1074
970 1086
970 1091
970 1097
970 1111
970 1142
970 1169
970 1185
970 1247
970 1248
970 1395
970 1442
970 1494
970 1519
970 1532
970 1545
970 1547
970 1562
970 1671
970 1683
970 1684
970 1708
970 1723
970 1733
970 1796
970 1840
970 1870
970 1871
970 1876
970 1887
970 1897
970 1902
970 1916
970 1938
970 1978
970 2064
970 2068
970 2079
970 2171
970 2189
970 2228
970 2316
970 2326
970 2347
970 2367
970 2387
970 2392
970 2586
970 2608
970 2658
971 1093
971 1121
971 1129
971 1138
971 1153
971 1206
971 1226
971 1263
971 1264
971 1299
971 1319
971 1321
971 1333
971 1339
971 1494
971 1495
971 1503
971 1510
971 1548
971 1558
971 1601
971 1616
971 1630
971 1650
971 1757
971 1760
971 1782
971 1797
971 1843
971 1885
971 1893
971 1898
971 1903
971 1936
971 1937
971 1979
971 2016
971 2046
971 2067
971 2103
971 2104
971 2151
971 2163
971 2174
971 2197
971 2201
971 2237
971 2246
971 2258
971 2264
971 2280
971 2289
971 2316
971 2330
971 2387
971 2464
971 2469
971 2477
971 2501
971 2528
971 2532
971 2550
971 2570
971 2618
971 2658
971 2673
972 990
972 1013
972 1042
972 1048
972 1054
972 1062
972 1069
972 1073
972 1074
972 1081
972 1082
972 1105
972 1133
972 1135
972 1138
972 1153
972 1159
972 1170
972 1175
972 1192
972 1199
972 1235
972 1239
972 1259
972 1264
972 1282
972 1299
972 1301
972 1325
972 1326
972 1334
972 1342
972 1350
972 1356
972 1376
972 1391
972 1397
972 1401
972 1430
972 1457
972 1466
972 1468
972 1473
972 1478
972 1495
972 1502
972 1518
972 1519
972 1534
972 1540
972 1541
972 1544
972 1570
972 1572
972 1587
972 1594
972 1621
972 1623
972 1629
972 1630
972 1635
972 1638
972 1659
972 1678
972 1685
972 1699
972 1710
972 1712
972 1733
972 1747
972 1779
972 1786
972 1793
972 1837
972 1860
972 1881
972 1883
972 1884
972 1885
972 1916
972 1931
972 1938
972 1945
972 1964
972 1967
972 1979
972 1980
972 1983
972 2025
972 2037
972 2040
972 2109
972 2112
972 2126
972 2137
972 2157
972 2165
972 2172
972 2174
972 2175
972 2180
972 2182
972 2183
972 2202
972 2203
972 2210
972 2218
972 2241
972 2246
972 2299
972 2310
972 2312
972 2313
972 2334
972 2335
972 2342
972 2358
972 2368
972 2370
972 2417
972 2421
972 2435
972 2444
972 2450
972 2460
972 2464
972 2491
972 2495
972 2496
972 2501
972 2507
972 2517
972 2555
972 2574
972 2603
972 2615
972 2618
972 2629
972 2634
972 2635
972 2659
972 2660
972 2673
973 1091
973 1120
973 1164
973 1182
973 1304
973 1353
973 1504
973 1537
973 1549
973 1577
973 1709
973 1798
973 1862
973 1870
973 1933
973 1934
973 1964
973 2084
973 2090
973 2099
973 2143
973 2282
973 2300
973 2367
973 2479
973 2490
973 2500
974 1351
974 1465
974 2552
974 2570
975 993
975 1042
975 1074
975 1088
975 1093
975 1112
975 1126
975 1131
975 1138
975 1141
975 1158
975 1223
975 1224
975 1229
975 1264
975 1272
975 1286
975 1299
975 1316
975 1371
975 1406
975 1426
975 1428
975 1443
975 1457
975 1473
975 1500
975 1502
975 1510
975 1519
975 1534
975 1548
975 1562
975 1588
975 1624
975 1649
975 1664
975 1685
975 1708
975 1719
975 1721
975 1746
975 1750
975 1762
975 1782
975 1784
975 1798
975 1847
975 1852
975 1870
975 1883
975 1895
975 1916
975 1918
975 1923
975 1954
975 1963
975 1979
975 1998
975 2014
975 2021
975 2048
975 2064
975 2079
975 2119
975 2135
975 2137
975 2171
975 2189
975 2208
975 2215
975 2231
975 2239
975 2251
975 2258
975 2294
975 2330
975 2387
975 2389
975 2399
975 2422
975 2449
975 2458
975 2471
975 2492
975 2501
975 2520
975 2539
975 2551
975 2574
975 2591
975 2593
975 2645
975 2670
975 2671
975 2676
976 1114
976 1201
976 1216
976 1430
976 1507
976 1647
976 1702
976 1814
976 1979
976 2012
976 2047
976 2111
976 2146
976 2245
976 2428
976 2439
976 2506
976 2597
977 1011
977 1074
977 1315
977 1386
977 1597
977 1641
977 1825
977 1940
977 2046
977 2096
977 2265
977 2533
977 2611
977 2650
978 1086
978 1088
978 1091
978 1117
978 1144
978 1291
978 1334
978 1408
978 1431
978 1476
978 1487
978 1581
978 1683
978 1704
978 1713
978 1753
978 1758
978 1772
978 1779
978 1821
978 1837
978 1916
978 1917
978 1929
978 2081
978 2083
978 2093
978 2109
978 2126
978 2138
978 2202
978 2228
978 2453
978 2473
978 2575
978 2615
980 1079
980 1235
980 1396
980 1525
980 1711
980 1726
980 2154
980 2194
980 2207
980 2248
980 2350
980 2479
980 2564
980 2659
980 2666
981 1111
981 1119
981 1247
981 1330
981 1370
981 1425
981 1427
981 1438
981 1570
981 1610
981 1618
981 1684
981 1767
981 1777
981 1871
981 1939
981 2140
981 2296
981 2307
981 2367
981 2468
981 2483
981 2586
982 1050
982 1535
982 2022
982 2369
984 991
984 1000
984 1089
984 1091
984 1188
984 1197
984 1229
984 1272
984 1282
984 1286
984 1308
984 1327
984 1344
984 1409
984 1412
984 1598
984 1649
984 1675
984 1708
984 1719
984 1729
984 1736
984 1737
984 1741
984 1782
984 1801
984 1827
984 1895
984 1916
984 1923
984 1954
984 1967
984 2014
984 2039
984 2048
984 2060
984 2128
984 2208
984 2239
984 2294
984 2354
984 2377
984 2387
984 2492
984 2520
984 2523
984 2589
984 2629
984 2670
984 2676
985 986
985 1065
985 1261
985 1266
985 1766
985 1816
985 1876
985 2035
985 2079
985 2144
985 2264
985 2302
985 2380
985 2460
985 2634
985 2639
986 989
986 1058
986 1206
986 1220
986 1223
986 1226
986 1247
986 1286
986 1321
986 1434
986 1503
986 1562
986 1589
986 1639
986 1671
986 1721
986 1846
986 1870
986 1871
986 1885
986 1916
986 1938
986 1963
986 2025
986 2068
986 2076
986 2187
986 2201
986 2235
986 2286
986 2316
986 2370
986 2394
986 2456
986 2464
986 2523
986 2593
986 2651
987 988
987 1256
987 1628
987 1667
987 1681
987 1759
987 1877
987 1985
987 1986
987 2003
987 2005
987 2015
987 2129
987 2516
987 2580
987 2666
988 1009
988 1329
988 1358
988 1658
988 1930
988 1986
988 1988
988 2015
988 2040
988 2085
988 2124
988 2204
988 2230
988 2285
988 2300
988 2331
988 2510
989 1028
989 1065
989 1066
989 1073
989 1175
989 1194
989 1202
989 1235
989 1251
989 1262
989 1282
989 1309
989 1326
989 1384
989 1398
989 1442
989 1453
989 1468
989 1533
989 1616
989 1620
989 1629
989 1713
989 1779
989 1800
989 1809
989 1824
989 1907
989 1912
989 1917
989 1929
989 1931
989 2039
989 2041
989 2180
989 2183
989 2203
989 2210
989 2310
989 2324
989 2358
989 2403
989 2444
989 2446
989 2491
989 2515
989 2544
989 2629
989 2667
990 996
990 998
990 1036
990 1037
990 1045
990 1091
990 1100
990 1103
990 1105
990 1108
990 1124
990 1127
990 1129
990 1138
990 1144
990 1151
990 1162
990 1170
990 1202
990 1206
990 1214
990 1230
990 1264
990 1271
990 1285
990 1291
990 1301
990 1342
990 1356
990 1394
990 1422
990 1454
990 1475
990 1487
990 1494
990 1501
990 1520
990 1530
990 1534
990 1545
990 1547
990 1575
990 1581
990 1582
990 1664
990 1670
990 1683
990 1687
990 1688
990 1692
990 1708
990 1729
990 1739
990 1760
990 1795
990 1805
990 1817
990 1831
990 1837
990 1840
990 1855
990 1890
990 1893
990 1911
990 1912
990 1919
990 1957
990 1979
990 2004
990 2093
990 2095
990 2110
990 2124
990 2151
990 2163
990 2201
990 2228
990 2233
990 2290
990 2294
990 2327
990 2367
990 2370
990 2421
990 2432
990 2453
990 2491
990 2521
990 2592
990 2593
990 2604
990 2608
990 2617
991 1016
991 1021
991 1030
991 1057
991 1089
991 1091
991 1094
991 1151
991 1172
991 1179
991 1188
991 1263
991 1265
991 1271
991 1290
991 1304
991 1409
991 1430
991 1480
991 1484
991 1504
991 1507
991 1537
991 1546
991 1558
991 1561
991 1588
991 1655
991 1687
991 1691
991 1696
991 1706
991 1708
991 1709
991 1715
991 1719
991 1729
991 1734
991 1736
991 1739
991 1760
991 1779
991 1784
991 1795
991 1822
991 1835
991 1850
991 1868
991 1870
991 1875
991 1888
991 1916
991 1951
991 1957
991 1976
991 2002
991 2007
991 2027
991 2046
991 2062
991 2100
991 2113
991 2177
991 2197
991 2232
991 2254
991 2261
991 2274
991 2354
991 2360
991 2367
991 2376
991 2377
991 2398
991 2460
991 2469
991 2476
991 2501
991 2512
991 2530
991 2560
991 2562
991 2572
991 2586
991 2589
991 2613
991 2636
991 2648
991 2659
992 1065
993 1042
993 1074
993 1091
993 1093
993 1126
993 1158
993 1183
993 1223
993 1229
993 1272
993 1286
993 1290
993 1350
993 1377
993 1401
993 1426
993 1428
993 1457
993 1473
993 1519
993 1521
993 1537
993 1558
993 1562
993 1579
993 1588
993 1699
993 1746
993 1750
993 1797
993 1799
993 1855
993 1871
993 1883
993 1905
993 1918
993 1923
993 1947
993 1961
993 1965
993 1967
993 1983
993 1998
993 2023
993 2025
993 2038
993 2068
993 2086
993 2119
993 2137
993 2171
993 2193
993 2342
993 2399
993 2435
993 2437
993 2467
993 2471
993 2492
993 2524
993 2531
993 2544
993 2578
993 2588
993 2651
994 1012
994 1084
994 1119
994 1139
994 1254
994 1355
994 1386
994 1393
994 1400
994 1438
994 1468
994 1478
994 1479
994 1528
994 1531
994 1587
994 1596
994 1612
994 1659
994 1755
994 1765
994 1824
994 1860
994 1883
994 1909
994 1912
994 1968
994 2011
994 2037
994 2112
994 2159
994 2175
994 2180
994 2183
994 2364
994 2411
994 2435
994 2544
994 2570
994 2603
994 2609
994 2665
995 1064
995 1490
995 1764
995 1849
995 2273
995 2322
996 1037
996 1041
996 1052
996 1088
996 1091
996 1103
996 1108
996 1138
996 1144
996 1145
996 1169
996 1183
996 1186
996 1202
996 1232
996 1247
996 1290
996 1301
996 1309
996 1410
996 1422
996 1477
996 1487
996 1529
996 1570
996 1581
996 1591
996 1612
996 1623
996 1629
996 1634
996 1683
996 1697
996 1724
996 1778
996 1779
996 1798
996 1825
996 1831
996 1840
996 1907
996 1912
996 1916
996 1917
996 1941
996 2037
996 2083
996 2110
996 2135
996 2138
996 2175
996 2202
996 2206
996 2211
996 2213
996 2225
996 2228
996 2278
996 2294
996 2347
996 2353
996 2370
996 2371
996 2378
996 2392
996 2417
996 2432
996 2453
996 2515
996 2528
996 2570
996 2608
996 2615
996 2633
996 2634
996 2665
997 1057
997 1141
997 1211
997 1315
997 1397
997 1403
997 1435
997 1482
997 1540
997 1541
997 1761
997 1769
997 1852
997 1875
997 1947
997 1953
997 1965
997 1979
997 2002
997 2096
997 2410
997 2458
997 2547
997 2616
997 2661
998 1041
998 1043
998 1046
998 1052
998 1055
998 1058
998 1088
998 1093
998 1100
998 1105
998 1108
998 1129
998 1138
998 1162
998 1187
998 1191
998 1206
998 1226
998 1230
998 1231
998 1254
998 1282
998 1307
998 1309
998 1310
998 1328
998 1333
998 1344
998 1354
998 1355
998 1366
998 1394
998 1403
998 1430
998 1468
998 1484
998 1503
998 1510
998 1547
998 1558
998 1566
998 1575
998 1582
998 1587
998 1589
998 1599
998 1623
998 1629
998 1638
998 1641
998 1687
998 1729
998 1741
998 1754
998 1760
998 1770
998 1783
998 1784
998 1795
998 1815
998 1824
998 1864
998 1882
998 1883
998 1890
998 1920
998 1931
998 1979
998 2004
998 2031
998 2037
998 2045
998 2048
998 2097
998 2126
998 2138
998 2151
998 2172
998 2183
998 2201
998 2212
998 2241
998 2305
998 2310
998 2370
998 2386
998 2390
998 2395
998 2417
998 2464
998 2561
998 2593
998 2606
998 2609
998 2629
999 1195
999 1244
999 1314
999 1466
999 1696
999 1740
999 1795
999 1979
999 1980
999 2351
999 2673
1000 1682
1000 1850
1000 1921
1000 2377
1001 1009
1001 1070
1001 1079
1001 1091
1001 1093
1001 1300
1001 1329
1001 1357
1001 1360
1001 1381
1001 1518
1001 1574
1001 1722
1001 1726
1001 1814
1001 1934
1001 1949
1001 2005
1001 2015
1001 2053
1001 2059
1001 2084
1001 2150
1001 2248
1001 2256
1001 2295
1001 2301
1001 2516
1001 2568
1002 1223
1002 1228
1002 2141
1003 1005
1003 1064
1003 1195
1003 1284
1003 1299
1003 1346
1003 1464
1003 1495
1003 1503
1003 1545
1003 1605
1003 1714
1003 1819
1003 1913
1003 1914
1003 1920
1003 1945
1003 1979
1003 2006
1003 2016
1003 2021
1003 2452
1003 2457
1003 2501
1003 2532
1003 2605
1003 2608
1004 1429
1004 1702
1004 2037
1004 2428
1004 2597
1004 2656
1005 1033
1005 1115
1005 1166
1005 1189
1005 1244
1005 1346
1005 1524
1005 1605
1005 1727
1005 1904
1005 1914
1005 2123
1005 2469
1005 2483
1005 2512
1006 1026
1006 1274
1006 1335
1006 1358
1006 1707
1006 1744
1006 1823
1006 2005
1006 2115
1006 2166
1006 2541
1006 2565
1006 2568
1007 1099
1007 1266
1007 1424
1007 1574
1007 1662
1007 1691
1007 1714
1007 1790
1007 1833
1007 1870
1007 1934
1007 2329
1007 2500
1007 2522
1007 2584
1007 2614
1007 2638
1008 1011
1008 1033
1008 1065
1008 1074
1008 1166
1008 1189
1008 1195
1008 1489
1008 1608
1008 1696
1008 1727
1008 1739
1008 1790
1008 1835
1008 1852
1008 1908
1008 1920
1008 1965
1008 2007
1008 2046
1008 2080
1008 2177
1008 2398
1008 2472
1008 2524
1008 2549
1008 2586
1008 2608
1008 2623
1008 2628
1008 2677
1009 1032
1009 1056
1009 1068
1009 1138
1009 1317
1009 1357
1009 1513
1009 1590
1009 1606
1009 1683
1009 1684
1009 1711
1009 1726
1009 1744
1009 1814
1009 1870
1009 1878
1009 2004
1009 2015
1009 2030
1009 2040
1009 2043
1009 2247
1009 2249
1009 2252
1009 2292
1009 2349
1009 2394
1009 2495
1009 2502
1009 2600
1009 2665
1009 2672
1010 1114
1010 1201
1010 1341
1010 1430
1010 1619
1010 1645
1010 1684
1010 1702
1010 1772
1010 1814
1010 1878
1010 1979
1010 2111
1010 2370
1010 2428
1010 2506
1010 2597
1011 1034
1011 1092
1011 1098
1011 1105
1011 1138
1011 1146
1011 1151
1011 1166
1011 1185
1011 1206
1011 1250
1011 1265
1011 1270
1011 1292
1011 1306
1011 1316
1011 1425
1011 1442
1011 1503
1011 1510
1011 1570
1011 1608
1011 1616
1011 1733
1011 1742
1011 1750
1011 1798
1011 1819
1011 1820
1011 1871
1011 1897
1011 1912
1011 1916
1011 1963
1011 1984
1011 1994
1011 2025
1011 2031
1011 2046
1011 2062
1011 2066
1011 2078
1011 2079
1011 2080
1011 2100
1011 2151
1011 2179
1011 2187
1011 2258
1011 2274
1011 2330
1011 2380
1011 2386
1011 2392
1011 2430
1011 2441
1011 2469
1011 2549
1011 2570
1011 2583
1011 2584
1011 2586
1011 2623
1011 2634
1012 1015
1012 1088
1012 1128
1012 1152
1012 1159
1012 1175
1012 1188
1012 1192
1012 1234
1012 1258
1012 1262
1012 1278
1012 1298
1012 1356
1012 1372
1012 1391
1012 1393
1012 1455
1012 1468
1012 1475
1012 1479
1012 1509
1012 1518
1012 1524
1012 1541
1012 1544
1012 1584
1012 1594
1012 1597
1012 1625
1012 1659
1012 1713
1012 1779
1012 1832
1012 1881
1012 1883
1012 1919
1012 1926
1012 2018
1012 2047
1012 2053
1012 2068
1012 2074
1012 2112
1012 2128
1012 2179
1012 2180
1012 2182
1012 2282
1012 2297
1012 2327
1012 2410
1012 2413
1012 2429
1012 2453
1012 2474
1012 2491
1012 2603
1012 2626
1012 2649
1012 2655
1012 2668
1013 1039
1013 1049
1013 1061
1013 1102
1013 1135
1013 1144
1013 1151
1013 1181
1013 1235
1013 1254
1013 1263
1013 1273
1013 1278
1013 1282
1013 1298
1013 1350
1013 1411
1013 1416
1013 1440
1013 1478
1013 1479
1013 1518
1013 1533
1013 1541
1013 1575
1013 1584
1013 1587
1013 1623
1013 1629
1013 1638
1013 1657
1013 1696
1013 1778
1013 1797
1013 1815
1013 1824
1013 1958
1013 2007
1013 2016
1013 2018
1013 2042
1013 2172
1013 2180
1013 2205
1013 2221
1013 2231
1013 2233
1013 2310
1013 2422
1013 2429
1013 2486
1013 2491
1013 2496
1013 2553
1013 2626
1013 2629
1013 2635
1014 1053
1014 1067
1014 1149
1014 1260
1014 1311
1014 1911
1014 2355
1014 2484
1015 1029
1015 1039
1015 1043
1015 1062
1015 1082
1015 1086
1015 1091
1015 1119
1015 1128
1015 1159
1015 1165
1015 1192
1015 1202
1015 1248
1015 1261
1015 1262
1015 1296
1015 1301
1015 1307
1015 1343
1015 1350
1015 1356
1015 1372
1015 1394
1015 1438
1015 1475
1015 1476
1015 1478
1015 1518
1015 1530
1015 1541
1015 1545
1015 1594
1015 1597
1015 1603
1015 1683
1015 1717
1015 1770
1015 1779
1015 1786
1015 1837
1015 1838
1015 1910
1015 1934
1015 1970
1015 1994
1015 1997
1015 2018
1015 2031
1015 2112
1015 2145
1015 2171
1015 2201
1015 2207
1015 2211
1015 2225
1015 2228
1015 2231
1015 2243
1015 2277
1015 2318
1015 2327
1015 2353
1015 2395
1015 2424
1015 2426
1015 2429
1015 2470
1015 2486
1015 2496
1015 2561
1015 2595
1015 2606
1015 2612
1015 2647
1015 2668
1016 1094
1016 1172
1016 1284
1016 1553
1016 1564
1016 1607
1016 1685
1016 1704
1016 1784
1016 1899
1016 1945
1016 1979
1016 2100
1016 2294
1016 2574
1016 2594
1016 2657
1017 1226
1017 1502
1017 1830
1017 1854
1017 2209
1017 2274
1017 2430
1017 2464
1017 2492
1018 1070
1018 1079
1018 1093
1018 1341
1018 1429
1018 1560
1018 1606
1018 1844
1018 1866
1018 1946
1018 2156
1018 2185
1018 2204
1018 2293
1018 2545
1018 2621
1018 2651
1018 2672
1019 1095
1019 2298
1020 1093
1020 1772
1020 2602
1021 1119
1021 1151
1021 1244
1021 1264
1021 1353
1021 1368
1021 1378
1021 1483
1021 1558
1021 1559
1021 1617
1021 1687
1021 1696
1021 1750
1021 1760
1021 1795
1021 1852
1021 1858
1021 1894
1021 1924
1021 1969
1021 1979
1021 1980
1021 2011
1021 2027
1021 2039
1021 2060
1021 2179
1021 2212
1021 2232
1021 2234
1021 2362
1021 2370
1021 2452
1021 2458
1021 2460
1021 2465
1021 2466
1021 2501
1021 2512
1021 2530
1021 2596
1021 2634
1021 2659
1021 2673
1022 1210
1022 2271
1023 1074
1023 1097
1023 1126
1023 1142
1023 1150
1023 1199
1023 1266
1023 1275
1023 1363
1023 1365
1023 1451
1023 1562
1023 1664
1023 1708
1023 1773
1023 1871
1023 1876
1023 1916
1023 1923
1023 1954
1023 2079
1023 2091
1023 2144
1023 2184
1023 2251
1023 2346
1023 2359
1023 2380
1023 2385
1023 2387
1023 2399
1023 2456
1023 2496
1023 2617
1024 1188
1024 1363
1024 1484
1024 1534
1024 2312
1024 2544
1024 2660
1025 1086
1025 1088
1025 1199
1025 1202
1025 1291
1025 1456
1025 1571
1025 1575
1025 1686
1025 1729
1025 1758
1025 1837
1025 1840
1025 1881
1025 1912
1025 2163
1025 2175
1025 2277
1025 2343
1025 2380
1025 2421
1025 2474
1025 2491
1025 2509
1025 2515
1025 2544
1025 2633
1026 1114
1026 1201
1026 1274
1026 1381
1026 1414
1026 1558
1026 1583
1026 1606
1026 1647
1026 1674
1026 1703
1026 1722
1026 1744
1026 1791
1026 1823
1026 1873
1026 1992
1026 2012
1026 2047
1026 2157
1026 2194
1026 2245
1026 2297
1026 2350
1026 2396
1026 2428
1026 2440
1026 2568
1026 2672
1027 1417
1027 1516
1027 1992
1027 2139
1027 2204
1027 2536
1028 1060
1028 1093
1028 1101
1028 1112
1028 1119
1028 1120
1028 1141
1028 1153
1028 1158
1028 1166
1028 1174
1028 1224
1028 1229
1028 1260
1028 1264
1028 1272
1028 1286
1028 1309
1028 1336
1028 1371
1028 1507
1028 1521
1028 1545
1028 1579
1028 1659
1028 1672
1028 1723
1028 1748
1028 1756
1028 1757
1028 1762
1028 1799
1028 1836
1028 1840
1028 1883
1028 1895
1028 1929
1028 1935
1028 1998
1028 1999
1028 2025
1028 2045
1028 2060
1028 2137
1028 2176
1028 2196
1028 2202
1028 2213
1028 2233
1028 2269
1028 2290
1028 2310
1028 2333
1028 2361
1028 2370
1028 2423
1028 2426
1028 2458
1028 2465
1028 2492
1028 2544
1028 2546
1028 2586
1028 2591
1028 2595
1028 2629
1028 2676
1029 1031
1029 1061
1029 1082
1029 1089
1029 1091
1029 1120
1029 1128
1029 1164
1029 1248
1029 1264
1029 1343
1029 1355
1029 1356
1029 1372
1029 1438
1029 1484
1029 1518
1029 1541
1029 1549
1029 1577
1029 1594
1029 1599
1029 1698
1029 1724
1029 1778
1029 1788
1029 1795
1029 1808
1029 1817
1029 1870
1029 1910
1029 1934
1029 1970
1029 2152
1029 2228
1029 2243
1029 2251
1029 2277
1029 2309
1029 2313
1029 2318
1029 2321
1029 2361
1029 2413
1029 2421
1029 2479
1029 2486
1029 2540
1029 2553
1030 1039
1030 1057
1030 1065
1030 1066
1030 1131
1030 1167
1030 1173
1030 1180
1030 1189
1030 1213
1030 1397
1030 1482
1030 1497
1030 1508
1030 1526
1030 1541
1030 1743
1030 1755
1030 1827
1030 1881
1030 1901
1030 1949
1030 1968
1030 1971
1030 2000
1030 2011
1030 2101
1030 2157
1030 2175
1030 2324
1030 2362
1030 2368
1030 2375
1030 2410
1030 2422
1030 2428
1030 2464
1030 2488
1030 2512
1030 2514
1030 2640
1031 1054
1031 1081
1031 1082
1031 1091
1031 1102
1031 1108
1031 1119
1031 1120
1031 1139
1031 1175
1031 1191
1031 1230
1031 1235
1031 1251
1031 1258
1031 1266
1031 1273
1031 1278
1031 1307
1031 1322
1031 1343
1031 1350
1031 1356
1031 1393
1031 1411
1031 1430
1031 1433
1031 1461
1031 1509
1031 1518
1031 1530
1031 1537
1031 1555
1031 1566
1031 1585
1031 1588
1031 1597
1031 1599
1031 1603
1031 1622
1031 1625
1031 1783
1031 1815
1031 1831
1031 1834
1031 1835
1031 1838
1031 1845
1031 1919
1031 1923
1031 1931
1031 1946
1031 1955
1031 2042
1031 2044
1031 2053
1031 2128
1031 2142
1031 2184
1031 2192
1031 2287
1031 2310
1031 2359
1031 2379
1031 2380
1031 2410
1031 2413
1031 2421
1031 2422
1031 2426
1031 2479
1031 2497
1031 2500
1031 2526
1031 2553
1031 2554
1031 2577
1031 2585
1031 2606
1031 2649
1031 2662
1031 2676
1032 1056
1032 1091
1032 1125
1032 1300
1032 1341
1032 1360
1032 1400
1032 1544
1032 1569
1032 1574
1032 1595
1032 1606
1032 1658
1032 1870
1032 1995
1032 2005
1032 2015
1032 2043
1032 2123
1032 2124
1032 2150
1032 2185
1032 2219
1032 2268
1032 2580
1032 2600
1032 2652
1033 1189
1033 1244
1033 1314
1033 1416
1033 1466
1033 1570
1033 1615
1033 1847
1033 1869
1033 2016
1033 2306
1033 2307
1033 2321
1033 2665
1034 1059
1034 1119
1034 1129
1034 1138
1034 1151
1034 1195
1034 1206
1034 1271
1034 1285
1034 1292
1034 1456
1034 1489
1034 1494
1034 1503
1034 1510
1034 1519
1034 1570
1034 1575
1034 1693
1034 1708
1034 1779
1034 1798
1034 1809
1034 1837
1034 1852
1034 1920
1034 2016
1034 2138
1034 2151
1034 2179
1034 2184
1034 2190
1034 2201
1034 2261
1034 2361
1034 2362
1034 2367
1034 2459
1034 2502
1035 1339
1035 1901
1035 2337
1035 2449
1035 2629
1036 1202
1036 1257
1036 1291
1036 1394
1036 1525
1036 1628
1036 1814
1036 1911
1036 1995
1036 2005
1036 2124
1036 2134
1036 2185
1036 2271
1036 2355
1037 1186
1037 1264
1037 1309
1037 1410
1037 1501
1037 1597
1037 1629
1037 1778
1037 1855
1037 1950
1037 1999
1037 2228
1037 2313
1037 2378
1037 2392
1037 2453
1037 2521
1038 1041
1039 1049
1039 1054
1039 1055
1039 1060
1039 1061
1039 1119
1039 1135
1039 1174
1039 1181
1039 1191
1039 1192
1039 1220
1039 1229
1039 1235
1039 1239
1039 1279
1039 1282
1039 1297
1039 1298
1039 1334
1039 1350
1039 1366
1039 1387
1039 1478
1039 1479
1039 1518
1039 1533
1039 1541
1039 1584
1039 1587
1039 1597
1039 1600
1039 1603
1039 1622
1039 1650
1039 1657
1039 1664
1039 1687
1039 1708
1039 1742
1039 1770
1039 1786
1039 1797
1039 1824
1039 1923
1039 1931
1039 1955
1039 2018
1039 2024
1039 2095
1039 2180
1039 2183
1039 2192
1039 2205
1039 2221
1039 2231
1039 2259
1039 2310
1039 2333
1039 2353
1039 2370
1039 2379
1039 2399
1039 2422
1039 2423
1039 2426
1039 2486
1039 2489
1039 2496
1039 2501
1039 2612
1039 2619
1039 2635
1040 1067
1040 1132
1040 1329
1040 1340
1040 1364
1040 1447
1040 1511
1040 1630
1040 1843
1040 1977
1040 2011
1040 2230
1040 2289
1040 2300
1040 2375
1040 2484
1040 2618
1041 1052
1041 1108
1041 1138
1041 1202
1041 1231
1041 1264
1041 1299
1041 1366
1041 1394
1041 1430
1041 1487
1041 1529
1041 1541
1041 1570
1041 1575
1041 1581
1041 1605
1041 1635
1041 1641
1041 1683
1041 1727
1041 1733
1041 1815
1041 1855
1041 1883
1041 1891
1041 1897
1041 1915
1041 1916
1041 1920
1041 1931
1041 1955
1041 2023
1041 2066
1041 2182
1041 2228
1041 2339
1041 2370
1041 2395
1041 2425
1041 2501
1041 2570
1041 2606
1041 2633
1041 2647
1041 2666
1041 2676
1042 1054
1042 1058
1042 1059
1042 1074
1042 1088
1042 1105
1042 1138
1042 1158
1042 1167
1042 1186
1042 1233
1042 1239
1042 1264
1042 1266
1042 1282
1042 1286
1042 1299
1042 1334
1042 1346
1042 1366
1042 1374
1042 1401
1042 1413
1042 1426
1042 1428
1042 1442
1042 1473
1042 1519
1042 1534
1042 1548
1042 1562
1042 1570
1042 1575
1042 1624
1042 1626
1042 1635
1042 1638
1042 1639
1042 1673
1042 1685
1042 1699
1042 1721
1042 1733
1042 1750
1042 1779
1042 1783
1042 1784
1042 1796
1042 1840
1042 1870
1042 1871
1042 1883
1042 1905
1042 1916
1042 1918
1042 1923
1042 1927
1042 1931
1042 1938
1042 1941
1042 1967
1042 1978
1042 1979
1042 1983
1042 2025
1042 2038
1042 2039
1042 2068
1042 2083
1042 2093
1042 2119
1042 2137
1042 2151
1042 2171
1042 2174
1042 2201
1042 2228
1042 2250
1042 2294
1042 2299
1042 2312
1042 2318
1042 2327
1042 2342
1042 2358
1042 2434
1042 2435
1042 2444
1042 2464
1042 2471
1042 2491
1042 2492
1042 2501
1042 2512
1042 2515
1042 2531
1042 2532
1042 2547
1042 2551
1042 2570
1042 2574
1042 2578
1042 2593
1042 2608
1042 2615
1042 2618
1042 2629
1042 2645
1042 2660
1042 2673
1043 1052
1043 1074
1043 1135
1043 1204
1043 1299
1043 1307
1043 1309
1043 1347
1043 1394
1043 1397
1043 1430
1043 1439
1043 1444
1043 1474
1043 1475
1043 1484
1043 1502
1043 1503
1043 1536
1043 1558
1043 1566
1043 1599
1043 1616
1043 1633
1043 1724
1043 1754
1043 1760
1043 1769
1043 1819
1043 1964
1043 2010
1043 2031
1043 2074
1043 2112
1043 2145
1043 2162
1043 2312
1043 2346
1043 2362
1043 2429
1043 2539
1043 2544
1043 2606
1043 2618
1043 2662
1044 1086
1044 1111
1044 1119
1044 1138
1044 1169
1044 1185
1044 1289
1044 1395
1044 1434
1044 1494
1044 1503
1044 1545
1044 1548
1044 1562
1044 1577
1044 1608
1044 1617
1044 1634
1044 1693
1044 1708
1044 1733
1044 1750
1044 1760
1044 1773
1044 1798
1044 1840
1044 1871
1044 1887
1044 1897
1044 1916
1044 1941
1044 1954
1044 1979
1044 1994
1044 2007
1044 2068
1044 2079
1044 2101
1044 2135
1044 2144
1044 2189
1044 2264
1044 2277
1044 2283
1044 2316
1044 2347
1044 2361
1044 2387
1044 2392
1044 2453
1044 2456
1044 2467
1044 2528
1044 2586
1044 2628
1044 2634
1045 1060
1045 1102
1045 1127
1045 1138
1045 1206
1045 1231
1045 1235
1045 1271
1045 1285
1045 1366
1045 1411
1045 1438
1045 1439
1045 1456
1045 1489
1045 1518
1045 1524
1045 1530
1045 1545
1045 1547
1045 1558
1045 1575
1045 1587
1045 1592
1045 1597
1045 1692
1045 1708
1045 1770
1045 1797
1045 1837
1045 1838
1045 1869
1045 1998
1045 2039
1045 2042
1045 2079
1045 2172
1045 2179
1045 2190
1045 2205
1045 2367
1045 2386
1045 2390
1045 2426
1045 2486
1045 2496
1045 2557
1045 2561
1045 2659
1046 1058
1046 1073
1046 1130
1046 1354
1046 1430
1046 1462
1046 1587
1046 1662
1046 1706
1046 1730
1046 1846
1046 1867
1046 1888
1046 1920
1046 1980
1046 2007
1046 2025
1046 2075
1046 2100
1046 2177
1046 2221
1046 2274
1046 2476
1046 2521
1046 2608
1046 2623
1047 1067
1047 1991
1047 2272
1047 2553
1048 1259
1048 1683
1048 2182
1048 2191
1048 2665
1049 1055
1049 1060
1049 1103
1049 1144
1049 1151
1049 1156
1049 1181
1049 1279
1049 1307
1049 1355
1049 1366
1049 1387
1049 1479
1049 1507
1049 1569
1049 1591
1049 1600
1049 1622
1049 1623
1049 1638
1049 1641
1049 1659
1049 1668
1049 1754
1049 1824
1049 1825
1049 1860
1049 1915
1049 1931
1049 2083
1049 2092
1049 2137
1049 2203
1049 2205
1049 2213
1049 2221
1049 2310
1049 2311
1049 2333
1049 2397
1049 2413
1049 2423
1049 2544
1049 2617
1049 2618
1049 2629
1050 1694
1051 1063
1051 1339
1051 2004
1051 2092
1051 2289
1051 2647
1052 1086
1052 1108
1052 1144
1052 1186
1052 1254
1052 1282
1052 1307
1052 1344
1052 1430
1052 1487
1052 1529
1052 1566
1052 1581
1052 1599
1052 1617
1052 1683
1052 1713
1052 1783
1052 1825
1052 1920
1052 1958
1052 2228
1052 2523
1052 2553
1052 2606
1053 1067
1053 1149
1053 1243
1053 1311
1053 1699
1053 1702
1053 2025
1053 2088
1053 2116
1053 2125
1053 2156
1053 2174
1053 2275
1053 2297
1053 2355
1053 2484
1053 2545
1053 2574
1054 1060
1054 1119
1054 1138
1054 1140
1054 1167
1054 1299
1054 1343
1054 1350
1054 1356
1054 1366
1054 1479
1054 1583
1054 1600
1054 1641
1054 1699
1054 1779
1054 1824
1054 1845
1054 2074
1054 2078
1054 2095
1054 2205
1054 2489
1054 2501
1054 2540
1054 2556
1054 2673
1055 1060
1055 1181
1055 1254
1055 1279
1055 1301
1055 1344
1055 1350
1055 1355
1055 1393
1055 1479
1055 1528
1055 1587
1055 1600
1055 1622
1055 1630
1055 1641
1055 1662
1055 1664
1055 1686
1055 1824
1055 1860
1055 1931
1055 2037
1055 2039
1055 2095
1055 2172
1055 2182
1055 2205
1055 2221
1055 2318
1055 2370
1055 2426
1055 2489
1055 2544
1055 2626
1055 2667
1056 1091
1056 1125
1056 1300
1056 1360
1056 1400
1056 1544
1056 1569
1056 1934
1056 1995
1056 2005
1056 2043
1056 2150
1056 2154
1056 2157
1056 2219
1056 2516
1056 2565
1056 2567
1056 2600
1057 1091
1057 1127
1057 1285
1057 1315
1057 1482
1057 1494
1057 1545
1057 1558
1057 1577
1057 1870
1057 1923
1057 1933
1057 1934
1057 2096
1057 2261
1057 2362
1057 2367
1057 2490
1057 2497
1057 2632
1058 1059
1058 1181
1058 1186
1058 1206
1058 1226
1058 1247
1058 1321
1058 1344
1058 1354
1058 1391
1058 1501
1058 1591
1058 1639
1058 1730
1058 1779
1058 1784
1058 1846
1058 1885
1058 2021
1058 2025
1058 2068
1058 2076
1058 2110
1058 2126
1058 2221
1058 2286
1058 2302
1058 2338
1058 2386
1058 2387
1058 2483
1058 2574
1058 2593
1058 2608
1058 2615
1058 2651
1058 2661
1058 2662
1059 1085
1059 1499
1059 1784
1059 1901
1059 1979
1059 2025
1059 2274
1059 2562
1059 2608
1059 2615
1059 2670
1060 1140
1060 1181
1060 1214
1060 1220
1060 1223
1060 1230
1060 1258
1060 1272
1060 1279
1060 1283
1060 1286
1060 1355
1060 1366
1060 1387
1060 1438
1060 1439
1060 1479
1060 1507
1060 1520
1060 1530
1060 1531
1060 1533
1060 1587
1060 1622
1060 1641
1060 1662
1060 1664
1060 1687
1060 1708
1060 1770
1060 1809
1060 1824
1060 1860
1060 1931
1060 2008
1060 2042
1060 2051
1060 2053
1060 2095
1060 2128
1060 2134
1060 2172
1060 2180
1060 2205
1060 2221
1060 2231
1060 2311
1060 2318
1060 2320
1060 2356
1060 2423
1060 2426
1060 2456
1060 2486
1060 2489
1060 2553
1060 2578
1060 2608
1060 2629
1060 2677
1061 1073
1061 1089
1061 1091
1061 1102
1061 1128
1061 1135
1061 1171
1061 1175
1061 1177
1061 1191
1061 1192
1061 1199
1061 1204
1061 1235
1061 1262
1061 1269
1061 1278
1061 1282
1061 1298
1061 1327
1061 1343
1061 1363
1061 1384
1061 1394
1061 1422
1061 1433
1061 1478
1061 1518
1061 1530
1061 1533
1061 1541
1061 1566
1061 1588
1061 1603
1061 1622
1061 1641
1061 1657
1061 1660
1061 1667
1061 1713
1061 1803
1061 1809
1061 1839
1061 1874
1061 1884
1061 1930
1061 1985
1061 2015
1061 2026
1061 2039
1061 2048
1061 2163
1061 2164
1061 2210
1061 2241
1061 2294
1061 2310
1061 2321
1061 2327
1061 2353
1061 2377
1061 2397
1061 2413
1061 2422
1061 2457
1061 2474
1061 2489
1061 2540
1061 2544
1061 2585
1061 2602
1061 2626
1062 1081
1062 1099
1062 1159
1062 1165
1062 1192
1062 1239
1062 1248
1062 1262
1062 1282
1062 1285
1062 1301
1062 1304
1062 1326
1062 1343
1062 1356
1062 1372
1062 1476
1062 1481
1062 1484
1062 1519
1062 1541
1062 1545
1062 1551
1062 1574
1062 1577
1062 1662
1062 1714
1062 1833
1062 1885
1062 1917
1062 1933
1062 1934
1062 1964
1062 2078
1062 2149
1062 2180
1062 2182
1062 2225
1062 2243
1062 2277
1062 2353
1062 2361
1062 2367
1062 2370
1062 2424
1062 2429
1062 2500
1062 2522
1062 2540
1062 2584
1062 2586
1062 2606
1062 2614
1062 2635
1062 2638
1062 2668
1063 1339
1063 1478
1063 2092
1064 1136
1064 1346
1064 1430
1064 1574
1064 1675
1064 1714
1064 1945
1064 1979
1064 2016
1064 2162
1064 2177
1064 2208
1064 2231
1064 2307
1064 2370
1064 2377
1064 2512
1064 2522
1064 2593
1064 2638
1064 2659
1065 1066
1065 1073
1065 1074
1065 1123
1065 1186
1065 1220
1065 1228
1065 1255
1065 1261
1065 1403
1065 1412
1065 1532
1065 1608
1065 1653
1065 1727
1065 1766
1065 1776
1065 1785
1065 1816
1065 1820
1065 1852
1065 1856
1065 1920
1065 1965
1065 2035
1065 2062
1065 2076
1065 2083
1065 2183
1065 2203
1065 2264
1065 2266
1065 2291
1065 2301
1065 2319
1065 2332
1065 2452
1065 2515
1065 2556
1065 2561
1065 2569
1065 2615
1065 2639
1065 2646
1065 2647
1066 1073
1066 1175
1066 1199
1066 1204
1066 1379
1066 1541
1066 1618
1066 1917
1066 2141
1066 2210
1066 2324
1066 2380
1066 2489
1066 2507
1066 2515
1066 2608
1067 1093
1067 1149
1067 1215
1067 1241
1067 1243
1067 1311
1067 1335
1067 1357
1067 1437
1067 1703
1067 1722
1067 1911
1067 2005
1067 2065
1067 2069
1067 2088
1067 2136
1067 2156
1067 2159
1067 2178
1067 2202
1067 2241
1067 2355
1067 2415
1067 2484
1067 2559
1067 2568
1068 1125
1068 1210
1068 1300
1068 1329
1068 1357
1068 1360
1068 1492
1068 1703
1068 1711
1068 1726
1068 1810
1068 1814
1068 1934
1068 2005
1068 2015
1068 2150
1068 2270
1068 2394
1068 2652
1068 2666
1069 1093
1069 1121
1069 1215
1069 1326
1069 1621
1069 1722
1069 1747
1069 2084
1069 2157
1069 2165
1069 2328
1069 2450
1069 2495
1069 2510
1069 2555
1070 1072
1070 1093
1070 1357
1070 1360
1070 1429
1070 1516
1070 1574
1070 1703
1070 1848
1070 1934
1070 2017
1070 2084
1070 2124
1070 2150
1070 2157
1070 2204
1070 2219
1070 2295
1070 2297
1070 2393
1070 2396
1070 2419
1070 2420
1070 2426
1070 2567
1070 2568
1070 2652
1071 1414
1071 1684
1071 1744
1071 1825
1071 2257
1071 2350
1071 2438
1072 1091
1072 1093
1072 1119
1072 1138
1072 1223
1072 1264
1072 1299
1072 1405
1072 1503
1072 1541
1072 1548
1072 1570
1072 1574
1072 1608
1072 1635
1072 1659
1072 1760
1072 1796
1072 1829
1072 1840
1072 1979
1072 2037
1072 2175
1072 2182
1072 2246
1072 2299
1072 2501
1072 2539
1072 2551
1072 2570
1072 2574
1072 2598
1073 1108
1073 1128
1073 1144
1073 1175
1073 1199
1073 1202
1073 1204
1073 1220
1073 1251
1073 1262
1073 1282
1073 1372
1073 1398
1073 1422
1073 1439
1073 1530
1073 1541
1073 1616
1073 1713
1073 1779
1073 1907
1073 1912
1073 1917
1073 1929
1073 1971
1073 2180
1073 2210
1073 2302
1073 2324
1073 2358
1073 2362
1073 2397
1073 2403
1073 2507
1073 2515
1074 1091
1074 1093
1074 1138
1074 1151
1074 1166
1074 1189
1074 1196
1074 1206
1074 1247
1074 1271
1074 1299
1074 1315
1074 1347
1074 1395
1074 1397
1074 1426
1074 1442
1074 1444
1074 1474
1074 1484
1074 1502
1074 1503
1074 1536
1074 1558
1074 1608
1074 1617
1074 1639
1074 1723
1074 1724
1074 1732
1074 1733
1074 1750
1074 1760
1074 1769
1074 1795
1074 1819
1074 1821
1074 1852
1074 1857
1074 1858
1074 1870
1074 1887
1074 1897
1074 1916
1074 1918
1074 1937
1074 1965
1074 1967
1074 1994
1074 2007
1074 2010
1074 2046
1074 2062
1074 2068
1074 2074
1074 2080
1074 2100
1074 2112
1074 2118
1074 2137
1074 2140
1074 2201
1074 2261
1074 2307
1074 2312
1074 2346
1074 2347
1074 2358
1074 2362
1074 2392
1074 2398
1074 2469
1074 2539
1074 2544
1074 2586
1074 2623
1074 2675
1075 1131
1075 1216
1075 1401
1075 1519
1075 1635
1075 1699
1075 1906
1075 1949
1075 2116
1075 2275
1076 1433
1077 1204
1077 1705
1077 2145
1077 2153
1077 2327
1077 2519
1078 2251
1078 2288
1079 1203
1079 1256
1079 1325
1079 1357
1079 1381
1079 1415
1079 1711
1079 1726
1079 1873
1079 1962
1079 2003
1079 2085
1079 2166
1079 2167
1079 2242
1079 2248
1079 2253
1079 2256
1079 2582
1079 2659
1080 1138
1080 1269
1080 1339
1080 1403
1080 1502
1080 1521
1080 1540
1080 1541
1080 1630
1080 1638
1080 1650
1080 1659
1080 1722
1080 1761
1080 1769
1080 1843
1080 1931
1080 1979
1080 2011
1080 2060
1080 2237
1080 2289
1080 2387
1080 2410
1080 2444
1080 2451
1080 2464
1080 2547
1080 2587
1080 2603
1080 2615
1080 2661
1081 1082
1081 1159
1081 1175
1081 1239
1081 1282
1081 1291
1081 1356
1081 1366
1081 1390
1081 1475
1081 1537
1081 1540
1081 1541
1081 1594
1081 1638
1081 1713
1081 1717
1081 1910
1081 1931
1081 2112
1081 2182
1081 2183
1081 2268
1081 2310
1081 2423
1081 2444
1081 2470
1081 2608
1081 2629
1081 2635
1082 1119
1082 1128
1082 1134
1082 1159
1082 1175
1082 1239
1082 1248
1082 1262
1082 1264
1082 1282
1082 1301
1082 1343
1082 1344
1082 1356
1082 1372
1082 1428
1082 1474
1082 1475
1082 1506
1082 1541
1082 1594
1082 1623
1082 1629
1082 1686
1082 1817
1082 1881
1082 1910
1082 1919
1082 1931
1082 1934
1082 1946
1082 1970
1082 1971
1082 2026
1082 2042
1082 2112
1082 2163
1082 2182
1082 2203
1082 2243
1082 2251
1082 2311
1082 2313
1082 2421
1082 2429
1082 2444
1082 2453
1082 2585
1082 2651
1082 2659
1083 1593
1084 1400
1084 1470
1084 1569
1084 1571
1084 1755
1084 1804
1084 1909
1084 1968
1084 2042
1084 2086
1084 2106
1084 2327
1084 2343
1084 2364
1084 2489
1084 2550
1084 2571
1085 1184
1085 1212
1085 1264
1085 1409
1085 1413
1085 1430
1085 1507
1085 1687
1085 1761
1085 1782
1085 1850
1085 1875
1085 1888
1085 1900
1085 1923
1085 1976
1085 1979
1085 2007
1085 2027
1085 2100
1085 2376
1085 2460
1085 2476
1085 2530
1085 2562
1085 2583
1085 2589
1085 2670
1086 1108
1086 1183
1086 1202
1086 1206
1086 1247
1086 1291
1086 1309
1086 1395
1086 1431
1086 1454
1086 1487
1086 1494
1086 1528
1086 1529
1086 1569
1086 1570
1086 1581
1086 1596
1086 1615
1086 1623
1086 1729
1086 1778
1086 1825
1086 1837
1086 1840
1086 1855
1086 1869
1086 1897
1086 1912
1086 1941
1086 1979
1086 2034
1086 2068
1086 2202
1086 2228
1086 2296
1086 2326
1086 2334
1086 2417
1086 2421
1086 2425
1086 2453
1086 2600
1086 2607
1086 2615
1086 2633
1086 2634
1087 1099
1087 1182
1087 1545
1087 1787
1087 1934
1087 2500
1087 2584
1087 2614
1087 2638
1088 1177
1088 1199
1088 1202
1088 1226
1088 1231
1088 1248
1088 1254
1088 1258
1088 1301
1088 1342
1088 1344
1088 1366
1088 1372
1088 1385
1088 1394
1088 1408
1088 1431
1088 1454
1088 1519
1088 1541
1088 1575
1088 1641
1088 1686
1088 1704
1088 1753
1088 1784
1088 1815
1088 1821
1088 1837
1088 1852
1088 1919
1088 1929
1088 1946
1088 1955
1088 1957
1088 2003
1088 2081
1088 2093
1088 2109
1088 2128
1088 2138
1088 2251
1088 2327
1088 2370
1088 2395
1088 2422
1088 2615
1088 2616
1088 2647
1088 2667
1089 1091
1089 1164
1089 1188
1089 1197
1089 1286
1089 1304
1089 1327
1089 1428
1089 1437
1089 1537
1089 1549
1089 1558
1089 1627
1089 1660
1089 1696
1089 1709
1089 1719
1089 1745
1089 1762
1089 1788
1089 1803
1089 1839
1089 1850
1089 1868
1089 1870
1089 1876
1089 1883
1089 1942
1089 1944
1089 1979
1089 2197
1089 2294
1089 2299
1089 2321
1089 2354
1089 2370
1089 2371
1089 2377
1089 2380
1089 2389
1089 2411
1089 2413
1089 2460
1089 2526
1089 2589
1090 1491
1090 1636
1091 1102
1091 1103
1091 1108
1091 1112
1091 1119
1091 1120
1091 1126
1091 1129
1091 1136
1091 1140
1091 1141
1091 1142
1091 1159
1091 1167
1091 1177
1091 1182
1091 1184
1091 1201
1091 1205
1091 1206
1091 1215
1091 1223
1091 1226
1091 1227
1091 1248
1091 1255
1091 1258
1091 1261
1091 1264
1091 1268
1091 1278
1091 1280
1091 1282
1091 1286
1091 1290
1091 1298
1091 1332
1091 1343
1091 1344
1091 1351
1091 1356
1091 1357
1091 1362
1091 1371
1091 1385
1091 1387
1091 1402
1091 1405
1091 1428
1091 1430
1091 1435
1091 1442
1091 1445
1091 1453
1091 1463
1091 1475
1091 1477
1091 1498
1091 1500
1091 1503
1091 1508
1091 1509
1091 1514
1091 1519
1091 1524
1091 1530
1091 1532
1091 1537
1091 1542
1091 1545
1091 1548
1091 1558
1091 1559
1091 1566
1091 1571
1091 1579
1091 1586
1091 1588
1091 1590
1091 1594
1091 1599
1091 1603
1091 1612
1091 1617
1091 1622
1091 1625
1091 1626
1091 1627
1091 1655
1091 1673
1091 1675
1091 1686
1091 1704
1091 1708
1091 1711
1091 1717
1091 1719
1091 1721
1091 1723
1091 1726
1091 1730
1091 1736
1091 1745
1091 1753
1091 1775
1091 1787
1091 1795
1091 1796
1091 1799
1091 1811
1091 1824
1091 1829
1091 1845
1091 1858
1091 1863
1091 1870
1091 1876
1091 1881
1091 1916
1091 1938
1091 1942
1091 1945
1091 1958
1091 1963
1091 1964
1091 1978
1091 1998
1091 2010
1091 2048
1091 2062
1091 2068
1091 2074
1091 2080
1091 2090
1091 2095
1091 2114
1091 2115
1091 2119
1091 2128
1091 2140
1091 2155
1091 2157
1091 2161
1091 2162
1091 2163
1091 2180
1091 2188
1091 2190
1091 2193
1091 2208
1091 2209
1091 2221
1091 2243
1091 2249
1091 2265
1091 2267
1091 2277
1091 2283
1091 2293
1091 2294
1091 2299
1091 2309
1091 2329
1091 2343
1091 2359
1091 2380
1091 2399
1091 2410
1091 2427
1091 2429
1091 2446
1091 2456
1091 2460
1091 2471
1091 2474
1091 2486
1091 2496
1091 2498
1091 2509
1091 2512
1091 2514
1091 2526
1091 2536
1091 2553
1091 2560
1091 2570
1091 2583
1091 2588
1091 2591
1091 2606
1091 2607
1091 2618
1091 2624
1091 2626
1091 2637
1091 2651
1091 2655
1091 2676
1092 1119
1092 1250
1092 1608
1092 1835
1092 2046
1092 2080
1092 2549
1092 2623
1093 1096
1093 1100
1093 1108
1093 1129
1093 1138
1093 1153
1093 1172
1093 1174
1093 1177
1093 1195
1093 1201
1093 1206
1093 1215
1093 1224
1093 1226
1093 1229
1093 1231
1093 1235
1093 1237
1093 1240
1093 1257
1093 1263
1093 1264
1093 1286
1093 1295
1093 1317
1093 1329
1093 1334
1093 1371
1093 1381
1093 1403
1093 1409
1093 1430
1093 1431
1093 1471
1093 1474
1093 1484
1093 1488
1093 1492
1093 1494
1093 1495
1093 1502
1093 1503
1093 1506
1093 1507
1093 1510
1093 1513
1093 1514
1093 1515
1093 1523
1093 1525
1093 1534
1093 1547
1093 1548
1093 1558
1093 1562
1093 1569
1093 1575
1093 1578
1093 1587
1093 1588
1093 1617
1093 1626
1093 1658
1093 1667
1093 1677
1093 1685
1093 1686
1093 1687
1093 1696
1093 1702
1093 1708
1093 1711
1093 1721
1093 1729
1093 1733
1093 1735
1093 1741
1093 1744
1093 1745
1093 1748
1093 1749
1093 1750
1093 1758
1093 1760
1093 1768
1093 1769
1093 1773
1093 1782
1093 1789
1093 1791
1093 1797
1093 1798
1093 1799
1093 1814
1093 1843
1093 1847
1093 1850
1093 1890
1093 1893
1093 1899
1093 1903
1093 1909
1093 1916
1093 1935
1093 1947
1093 1958
1093 1963
1093 1967
1093 1968
1093 1984
1093 1992
1093 1998
1093 2007
1093 2016
1093 2027
1093 2065
1093 2087
1093 2088
1093 2102
1093 2119
1093 2135
1093 2137
1093 2138
1093 2146
1093 2151
1093 2157
1093 2172
1093 2177
1093 2189
1093 2190
1093 2194
1093 2201
1093 2215
1093 2231
1093 2233
1093 2235
1093 2244
1093 2245
1093 2252
1093 2264
1093 2294
1093 2295
1093 2297
1093 2300
1093 2304
1093 2305
1093 2315
1093 2328
1093 2347
1093 2348
1093 2370
1093 2375
1093 2385
1093 2387
1093 2398
1093 2411
1093 2426
1093 2437
1093 2440
1093 2450
1093 2451
1093 2464
1093 2467
1093 2473
1093 2475
1093 2492
1093 2493
1093 2495
1093 2501
1093 2505
1093 2512
1093 2539
1093 2550
1093 2551
1093 2553
1093 2570
1093 2574
1093 2593
1093 2598
1093 2608
1093 2618
1093 2637
1093 2651
1093 2658
1093 2666
1094 1100
1094 1172
1094 1263
1094 1524
1094 1553
1094 1607
1094 1722
1094 1864
1094 1945
1094 1979
1094 2001
1094 2027
1094 2197
1094 2208
1094 2594
1094 2648
1094 2657
1095 1740
1095 1858
1095 1901
1095 2298
1096 1391
1096 1667
1096 1669
1096 1680
1096 1747
1096 1759
1096 1986
1096 2136
1096 2447
1096 2666
1097 1101
1097 1138
1097 1142
1097 1150
1097 1199
1097 1233
1097 1266
1097 1268
1097 1275
1097 1276
1097 1290
1097 1365
1097 1406
1097 1426
1097 1455
1097 1457
1097 1494
1097 1519
1097 1521
1097 1524
1097 1532
1097 1548
1097 1559
1097 1562
1097 1579
1097 1588
1097 1635
1097 1648
1097 1652
1097 1708
1097 1726
1097 1733
1097 1762
1097 1773
1097 1796
1097 1829
1097 1870
1097 1871
1097 1902
1097 1923
1097 1938
1097 1954
1097 1978
1097 1983
1097 1998
1097 2001
1097 2036
1097 2039
1097 2051
1097 2091
1097 2101
1097 2119
1097 2135
1097 2179
1097 2189
1097 2201
1097 2215
1097 2294
1097 2297
1097 2303
1097 2367
1097 2380
1097 2385
1097 2435
1097 2437
1097 2456
1097 2544
1097 2570
1097 2574
1097 2578
1097 2583
1098 1380
1098 1608
1098 1616
1098 1618
1098 2586
1099 1126
1099 1266
1099 1424
1099 1481
1099 1495
1099 1519
1099 1574
1099 1577
1099 1624
1099 1673
1099 1691
1099 1714
1099 1787
1099 1790
1099 1799
1099 1833
1099 1870
1099 1934
1099 2329
1099 2361
1099 2367
1099 2398
1099 2424
1099 2500
1099 2522
1099 2584
1099 2614
1099 2638
1100 1119
1100 1124
1100 1129
1100 1138
1100 1151
1100 1162
1100 1172
1100 1184
1100 1195
1100 1202
1100 1206
1100 1207
1100 1226
1100 1230
1100 1244
1100 1257
1100 1264
1100 1291
1100 1299
1100 1328
1100 1362
1100 1394
1100 1409
1100 1412
1100 1427
1100 1438
1100 1467
1100 1474
1100 1481
1100 1494
1100 1510
1100 1547
1100 1558
1100 1570
1100 1575
1100 1607
1100 1643
1100 1659
1100 1687
1100 1688
1100 1689
1100 1729
1100 1739
1100 1741
1100 1761
1100 1764
1100 1767
1100 1795
1100 1837
1100 1864
1100 1882
1100 1890
1100 1912
1100 1969
1100 1979
1100 2016
1100 2090
1100 2140
1100 2151
1100 2177
1100 2179
1100 2201
1100 2231
1100 2294
1100 2305
1100 2330
1100 2370
1100 2386
1100 2390
1100 2433
1100 2437
1100 2452
1100 2501
1100 2512
1100 2593
1100 2631
1100 2653
1100 2657
1100 2673
1101 1141
1101 1142
1101 1272
1101 1521
1101 1548
1101 1579
1101 1708
1101 1723
1101 1784
1101 1796
1101 1870
1101 1871
1101 1876
1101 1895
1101 1947
1101 1998
1101 1999
1101 2235
1101 2269
1101 2294
1101 2367
1101 2380
1101 2458
1101 2529
1101 2588
1101 2595
1102 1128
1102 1192
1102 1235
1102 1278
1102 1343
1102 1384
1102 1411
1102 1518
1102 1530
1102 1541
1102 1585
1102 1597
1102 1599
1102 1622
1102 1692
1102 1697
1102 1724
1102 1770
1102 1838
1102 1860
1102 1955
1102 2039
1102 2042
1102 2182
1102 2297
1102 2353
1102 2361
1102 2422
1102 2486
1102 2496
1102 2585
1102 2591
1102 2609
1102 2644
1102 2655
1103 1126
1103 1144
1103 1191
1103 1342
1103 1356
1103 1422
1103 1461
1103 1582
1103 1622
1103 1638
1103 1657
1103 1664
1103 1670
1103 1673
1103 1686
1103 1799
1103 1805
1103 1817
1103 1831
1103 1837
1103 1919
1103 1946
1103 2081
1103 2110
1103 2221
1103 2240
1103 2421
1103 2489
1103 2592
1103 2608
1104 1864
1105 1119
1105 1239
1105 1247
1105 1282
1105 1355
1105 1438
1105 1442
1105 1503
1105 1540
1105 1541
1105 1708
1105 1734
1105 1779
1105 1883
1105 1916
1105 1931
1105 2004
1105 2011
1105 2025
1105 2126
1105 2182
1105 2202
1105 2203
1105 2305
1105 2335
1105 2378
1105 2386
1105 2444
1105 2603
1105 2608
1105 2629
1106 1249
1106 1460
1106 1482
1106 1504
1106 1505
1106 1598
1106 1739
1106 2082
1106 2274
1106 2497
1107 1819
1107 1939
1107 2162
1107 2599
1108 1144
1108 1186
1108 1199
1108 1235
1108 1262
1108 1291
1108 1301
1108 1307
1108 1344
1108 1356
1108 1372
1108 1442
1108 1487
1108 1529
1108 1541
1108 1581
1108 1584
1108 1605
1108 1617
1108 1683
1108 1686
1108 1713
1108 1724
1108 1796
1108 1798
1108 1829
1108 1837
1108 1917
1108 1958
1108 2023
1108 2034
1108 2066
1108 2093
1108 2163
1108 2202
1108 2213
1108 2228
1108 2277
1108 2313
1108 2327
1108 2343
1108 2353
1108 2417
1108 2421
1108 2429
1108 2453
1108 2507
1108 2553
1108 2585
1108 2586
1108 2666
1109 1116
1109 1201
1109 1360
1109 1647
1109 1674
1109 1823
1109 1873
1109 2134
1109 2242
1109 2440
1110 1706
1110 1854
1110 1868
1111 1169
1111 1217
1111 1289
1111 1395
1111 1546
1111 1570
1111 1608
1111 1733
1111 1855
1111 1887
1111 1897
1111 1916
1111 1979
1111 2347
1111 2360
1111 2401
1111 2453
1111 2566
1111 2586
1111 2623
1112 1119
1112 1120
1112 1126
1112 1131
1112 1158
1112 1207
1112 1218
1112 1233
1112 1286
1112 1371
1112 1426
1112 1428
1112 1473
1112 1498
1112 1500
1112 1524
1112 1617
1112 1622
1112 1635
1112 1649
1112 1673
1112 1719
1112 1721
1112 1736
1112 1799
1112 1942
1112 1998
1112 2067
1112 2155
1112 2184
1112 2208
1112 2239
1112 2286
1112 2329
1112 2359
1112 2435
1112 2591
1112 2660
1112 2676
1113 2293
1114 1201
1114 1216
1114 1414
1114 1430
1114 1590
1114 1647
1114 1680
1114 1702
1114 1743
1114 1763
1114 1814
1114 1878
1114 1979
1114 2012
1114 2047
1114 2111
1114 2146
1114 2245
1114 2279
1114 2297
1114 2428
1114 2506
1114 2597
1115 1118
1115 1696
1115 1766
1115 2035
1115 2280
1115 2469
1115 2583
1116 1325
1116 1674
1116 1695
1116 1906
1116 2157
1116 2242
1116 2295
1116 2631
1117 1186
1117 1187
1117 1217
1117 1334
1117 1385
1117 1431
1117 1454
1117 1616
1117 1676
1117 1753
1117 1758
1117 1779
1117 1821
1117 1886
1117 1898
1117 2016
1117 2109
1117 2305
1117 2370
1117 2425
1117 2432
1117 2451
1117 2452
1117 2455
1117 2478
1117 2615
1118 1119
1118 1460
1118 1482
1118 1519
1118 1586
1118 1673
1118 1683
1118 1870
1118 1883
1118 1952
1118 2082
1118 2107
1118 2160
1118 2361
1118 2441
1118 2497
1118 2577
1118 2586
1119 1120
1119 1123
1119 1127
1119 1128
1119 1130
1119 1138
1119 1139
1119 1146
1119 1169
1119 1177
1119 1193
1119 1202
1119 1205
1119 1207
1119 1237
1119 1242
1119 1249
1119 1262
1119 1265
1119 1271
1119 1273
1119 1278
1119 1288
1119 1290
1119 1295
1119 1296
1119 1299
1119 1302
1119 1304
1119 1308
1119 1337
1119 1347
1119 1348
1119 1350
1119 1356
1119 1363
1119 1368
1119 1371
1119 1397
1119 1428
1119 1433
1119 1442
1119 1449
1119 1461
1119 1463
1119 1480
1119 1484
1119 1502
1119 1503
1119 1518
1119 1521
1119 1524
1119 1530
1119 1570
1119 1588
1119 1597
1119 1603
1119 1618
1119 1633
1119 1652
1119 1694
1119 1714
1119 1718
1119 1721
1119 1725
1119 1729
1119 1733
1119 1745
1119 1760
1119 1767
1119 1771
1119 1773
1119 1788
1119 1815
1119 1817
1119 1819
1119 1820
1119 1829
1119 1834
1119 1835
1119 1845
1119 1858
1119 1863
1119 1869
1119 1870
1119 1897
1119 1900
1119 1903
1119 1904
1119 1923
1119 1933
1119 1939
1119 1941
1119 1963
1119 1980
1119 2001
1119 2002
1119 2007
1119 2010
1119 2041
1119 2050
1119 2061
1119 2062
1119 2074
1119 2078
1119 2091
1119 2142
1119 2160
1119 2162
1119 2163
1119 2180
1119 2184
1119 2188
1119 2189
1119 2193
1119 2209
1119 2227
1119 2232
1119 2234
1119 2254
1119 2261
1119 2294
1119 2312
1119 2335
1119 2346
1119 2354
1119 2367
1119 2379
1119 2385
1119 2390
1119 2395
1119 2398
1119 2413
1119 2421
1119 2435
1119 2460
1119 2467
1119 2475
1119 2478
1119 2497
1119 2499
1119 2501
1119 2512
1119 2520
1119 2534
1119 2536
1119 2539
1119 2540
1119 2544
1119 2554
1119 2560
1119 2562
1119 2563
1119 2570
1119 2578
1119 2586
1119 2591
1119 2596
1119 2604
1119 2615
1119 2628
1119 2634
1119 2636
1119 2638
1119 2646
1119 2662
1119 2676
1120 1162
1120 1164
1120 1165
1120 1182
1120 1264
1120 1276
1120 1278
1120 1280
1120 1343
1120 1351
1120 1371
1120 1389
1120 1402
1120 1426
1120 1428
1120 1498
1120 1500
1120 1507
1120 1532
1120 1537
1120 1549
1120 1569
1120 1588
1120 1624
1120 1625
1120 1649
1120 1673
1120 1708
1120 1709
1120 1719
1120 1721
1120 1745
1120 1752
1120 1796
1120 1862
1120 1868
1120 1870
1120 1876
1120 1933
1120 1934
1120 1942
1120 1998
1120 2038
1120 2073
1120 2091
1120 2099
1120 2119
1120 2128
1120 2149
1120 2152
1120 2155
1120 2161
1120 2235
1120 2251
1120 2294
1120 2297
1120 2299
1120 2329
1120 2359
1120 2399
1120 2435
1120 2479
1120 2490
1120 2526
1120 2570
1120 2637
1120 2651
1120 2670
1120 2676
1121 1138
1121 1166
1121 1239
1121 1254
1121 1269
1121 1541
1121 1630
1121 1659
1121 1675
1121 1852
1121 1855
1121 1979
1121 2011
1121 2221
1121 2237
1121 2240
1121 2289
1121 2387
1121 2616
1121 2629
1121 2651
1121 2661
1121 2671
1122 1706
1122 2053
1122 2092
1122 2311
1122 2318
1122 2333
1122 2464
1122 2547
1123 1206
1123 1220
1123 1261
1123 1696
1123 1718
1123 1727
1123 1766
1123 2035
1123 2046
1123 2266
1123 2319
1123 2452
1123 2569
1123 2615
1124 1162
1124 1195
1124 1206
1124 1214
1124 1230
1124 1257
1124 1271
1124 1291
1124 1356
1124 1362
1124 1409
1124 1427
1124 1489
1124 1494
1124 1547
1124 1688
1124 1691
1124 1739
1124 1769
1124 1837
1124 1893
1124 1911
1124 1979
1124 2062
1124 2127
1124 2140
1124 2170
1124 2179
1124 2201
1124 2292
1124 2445
1124 2459
1124 2604
1125 1138
1125 1358
1125 1496
1125 1509
1125 1681
1125 1703
1125 1874
1125 1877
1125 1975
1125 1995
1125 2005
1125 2015
1125 2157
1125 2238
1125 2270
1125 2285
1125 2297
1125 2328
1125 2331
1125 2350
1125 2396
1125 2568
1125 2580
1126 1127
1126 1141
1126 1151
1126 1158
1126 1164
1126 1218
1126 1226
1126 1230
1126 1237
1126 1246
1126 1261
1126 1290
1126 1304
1126 1343
1126 1371
1126 1389
1126 1405
1126 1406
1126 1412
1126 1426
1126 1428
1126 1473
1126 1498
1126 1499
1126 1500
1126 1519
1126 1524
1126 1545
1126 1549
1126 1558
1126 1579
1126 1624
1126 1639
1126 1649
1126 1652
1126 1660
1126 1673
1126 1675
1126 1682
1126 1687
1126 1688
1126 1696
1126 1708
1126 1709
1126 1719
1126 1721
1126 1730
1126 1736
1126 1750
1126 1773
1126 1784
1126 1795
1126 1796
1126 1799
1126 1822
1126 1868
1126 1870
1126 1883
1126 1887
1126 1901
1126 1918
1126 1923
1126 1934
1126 1942
1126 1945
1126 1998
1126 2016
1126 2062
1126 2073
1126 2091
1126 2151
1126 2155
1126 2161
1126 2179
1126 2184
1126 2199
1126 2200
1126 2208
1126 2251
1126 2267
1126 2286
1126 2290
1126 2299
1126 2307
1126 2329
1126 2352
1126 2367
1126 2371
1126 2387
1126 2434
1126 2435
1126 2454
1126 2456
1126 2469
1126 2471
1126 2479
1126 2492
1126 2551
1126 2585
1126 2588
1126 2593
1126 2636
1126 2676
1126 2677
1127 1138
1127 1162
1127 1195
1127 1206
1127 1247
1127 1271
1127 1285
1127 1395
1127 1419
1127 1438
1127 1491
1127 1494
1127 1503
1127 1519
1127 1530
1127 1545
1127 1547
1127 1558
1127 1691
1127 1760
1127 1773
1127 1795
1127 1837
1127 1863
1127 1872
1127 1893
1127 1939
1127 1958
1127 2062
1127 2064
1127 2091
1127 2162
1127 2183
1127 2200
1127 2201
1127 2212
1127 2251
1127 2261
1127 2294
1127 2329
1127 2361
1127 2362
1127 2367
1127 2377
1127 2390
1127 2459
1127 2606
1127 2638
1128 1175
1128 1192
1128 1199
1128 1235
1128 1239
1128 1262
1128 1278
1128 1280
1128 1282
1128 1293
1128 1350
1128 1356
1128 1384
1128 1433
1128 1461
1128 1477
1128 1530
1128 1541
1128 1594
1128 1725
1128 1815
1128 1817
1128 1835
1128 1845
1128 2026
1128 2182
1128 2210
1128 2318
1128 2358
1128 2421
1128 2422
1128 2474
1128 2475
1128 2491
1128 2585
1128 2608
1128 2635
1129 1151
1129 1162
1129 1206
1129 1230
1129 1263
1129 1264
1129 1353
1129 1401
1129 1403
1129 1413
1129 1454
1129 1503
1129 1510
1129 1534
1129 1547
1129 1558
1129 1579
1129 1592
1129 1617
1129 1630
1129 1687
1129 1692
1129 1699
1129 1708
1129 1734
1129 1750
1129 1760
1129 1769
1129 1782
1129 1795
1129 1799
1129 1837
1129 1850
1129 1883
1129 1885
1129 1890
1129 1893
1129 1916
1129 1954
1129 1963
1129 1979
1129 1983
1129 1984
1129 2016
1129 2151
1129 2177
1129 2190
1129 2201
1129 2212
1129 2237
1129 2289
1129 2294
1129 2370
1129 2390
1129 2452
1129 2464
1129 2520
1129 2550
1129 2593
1129 2673
1130 1249
1130 1706
1130 2007
1130 2100
1130 2160
1130 2274
1130 2281
1130 2497
1130 2572
1130 2608
1130 2632
1131 1304
1131 1400
1131 1406
1131 1473
1131 1497
1131 1500
1131 1580
1131 1649
1131 1719
1131 1721
1131 1755
1131 1799
1131 1949
1131 1968
1131 2208
1131 2537
1131 2676
1132 1340
1132 1364
1132 1447
1132 1511
1132 1630
1132 1650
1132 2011
1132 2230
1132 2289
1132 2375
1132 2419
1132 2510
1132 2587
1132 2618
1133 1134
1133 1213
1133 1326
1133 1512
1133 1717
1133 1811
1133 1906
1133 1934
1133 1987
1133 2013
1133 2053
1133 2243
1133 2382
1133 2510
1133 2558
1133 2565
1133 2582
1133 2624
1134 1168
1134 1268
1134 1331
1134 1358
1134 1402
1134 1414
1134 1476
1134 1497
1134 1515
1134 1588
1134 1667
1134 1695
1134 1702
1134 1703
1134 1717
1134 1744
1134 1792
1134 1823
1134 2017
1134 2047
1134 2087
1134 2157
1134 2185
1134 2204
1134 2218
1134 2231
1134 2292
1134 2293
1134 2328
1134 2331
1134 2396
1134 2428
1134 2518
1134 2526
1134 2541
1134 2649
1134 2652
1134 2655
1134 2666
1135 1138
1135 1191
1135 1192
1135 1235
1135 1239
1135 1251
1135 1264
1135 1278
1135 1282
1135 1298
1135 1350
1135 1477
1135 1478
1135 1518
1135 1533
1135 1541
1135 1584
1135 1587
1135 1597
1135 1638
1135 1657
1135 1685
1135 1838
1135 2018
1135 2095
1135 2112
1135 2172
1135 2180
1135 2182
1135 2310
1135 2444
1135 2496
1135 2540
1135 2551
1135 2629
1135 2633
1135 2635
1135 2665
1136 1264
1136 1269
1136 1286
1136 1298
1136 1377
1136 1502
1136 1630
1136 1657
1136 1746
1136 1843
1136 1947
1136 1971
1136 1979
1136 2011
1136 2109
1136 2197
1136 2240
1136 2289
1136 2350
1136 2387
1136 2451
1136 2556
1136 2618
1137 1374
1137 1927
1137 2061
1137 2544
1137 2563
1138 1151
1138 1154
1138 1162
1138 1183
1138 1185
1138 1202
1138 1206
1138 1214
1138 1226
1138 1230
1138 1232
1138 1263
1138 1264
1138 1271
1138 1284
1138 1285
1138 1291
1138 1299
1138 1321
1138 1333
1138 1345
1138 1365
1138 1371
1138 1394
1138 1401
1138 1403
1138 1409
1138 1413
1138 1430
1138 1454
1138 1484
1138 1494
1138 1495
1138 1500
1138 1510
1138 1519
1138 1521
1138 1534
1138 1541
1138 1545
1138 1547
1138 1548
1138 1553
1138 1558
1138 1562
1138 1565
1138 1570
1138 1574
1138 1575
1138 1579
1138 1597
1138 1618
1138 1630
1138 1635
1138 1652
1138 1659
1138 1685
1138 1687
1138 1692
1138 1699
1138 1708
1138 1721
1138 1733
1138 1734
1138 1750
1138 1760
1138 1769
1138 1782
1138 1784
1138 1795
1138 1798
1138 1799
1138 1815
1138 1837
1138 1843
1138 1850
1138 1852
1138 1855
1138 1864
1138 1883
1138 1885
1138 1890
1138 1893
1138 1897
1138 1903
1138 1914
1138 1916
1138 1931
1138 1939
1138 1941
1138 1942
1138 1954
1138 1963
1138 1965
1138 1969
1138 1971
1138 1979
1138 1980
1138 1983
1138 1984
1138 2011
1138 2016
1138 2025
1138 2036
1138 2037
1138 2050
1138 2062
1138 2070
1138 2073
1138 2093
1138 2131
1138 2135
1138 2138
1138 2140
1138 2151
1138 2163
1138 2175
1138 2177
1138 2178
1138 2179
1138 2182
1138 2189
1138 2190
1138 2192
1138 2197
1138 2201
1138 2202
1138 2205
1138 2212
1138 2215
1138 2216
1138 2225
1138 2231
1138 2235
1138 2236
1138 2246
1138 2258
1138 2260
1138 2261
1138 2264
1138 2280
1138 2285
1138 2289
1138 2294
1138 2297
1138 2299
1138 2312
1138 2316
1138 2324
1138 2330
1138 2335
1138 2349
1138 2358
1138 2367
1138 2370
1138 2385
1138 2387
1138 2390
1138 2395
1138 2425
1138 2430
1138 2435
1138 2437
1138 2452
1138 2456
1138 2460
1138 2464
1138 2469
1138 2501
1138 2520
1138 2528
1138 2532
1138 2539
1138 2550
1138 2551
1138 2561
1138 2570
1138 2574
1138 2580
1138 2584
1138 2586
1138 2588
1138 2593
1138 2600
1138 2618
1138 2629
1138 2633
1138 2637
1138 2647
1138 2659
1138 2660
1138 2673
1138 2676
1139 1165
1139 1254
1139 1258
1139 1355
1139 1393
1139 1411
1139 1438
1139 1468
1139 1531
1139 1537
1139 1596
1139 1682
1139 1683
1139 1709
1139 1778
1139 1860
1139 1868
1139 1931
1139 1933
1139 1934
1139 1964
1139 1970
1139 2037
1139 2074
1139 2172
1139 2421
1139 2424
1139 2526
1139 2544
1139 2626
1139 2665
1140 1146
1140 1293
1140 1520
1140 1574
1140 1635
1140 1641
1140 1662
1140 1683
1140 1718
1140 1773
1140 1824
1140 1870
1140 1883
1140 2053
1140 2095
1140 2234
1140 2241
1140 2434
1140 2502
1141 1142
1141 1224
1141 1229
1141 1272
1141 1286
1141 1403
1141 1406
1141 1521
1141 1562
1141 1579
1141 1708
1141 1715
1141 1723
1141 1784
1141 1852
1141 1870
1141 1920
1141 1947
1141 1998
1141 2184
1141 2235
1141 2267
1141 2269
1141 2387
1141 2458
1141 2588
1141 2616
1142 1167
1142 1223
1142 1229
1142 1272
1142 1275
1142 1286
1142 1406
1142 1519
1142 1532
1142 1548
1142 1559
1142 1579
1142 1671
1142 1719
1142 1723
1142 1746
1142 1796
1142 1840
1142 1870
1142 1871
1142 1876
1142 1895
1142 1902
1142 1938
1142 1947
1142 1954
1142 1963
1142 1971
1142 1978
1142 2064
1142 2104
1142 2235
1142 2246
1142 2299
1142 2387
1142 2456
1142 2491
1142 2492
1142 2502
1142 2551
1142 2578
1142 2588
1142 2606
1142 2637
1143 1649
1144 1151
1144 1154
1144 1192
1144 1204
1144 1291
1144 1299
1144 1301
1144 1328
1144 1334
1144 1354
1144 1422
1144 1487
1144 1529
1144 1530
1144 1596
1144 1616
1144 1670
1144 1678
1144 1683
1144 1760
1144 1778
1144 1795
1144 1817
1144 1825
1144 1831
1144 1837
1144 1840
1144 1881
1144 1911
1144 1912
1144 1919
1144 1965
1144 2062
1144 2110
1144 2135
1144 2189
1144 2207
1144 2210
1144 2228
1144 2232
1144 2370
1144 2423
1144 2432
1144 2453
1144 2515
1144 2608
1144 2633
1145 1183
1145 1271
1145 1570
1145 1615
1145 1795
1145 1809
1145 1855
1145 1869
1145 1941
1145 1994
1145 2062
1145 2118
1145 2140
1145 2294
1145 2425
1146 1179
1146 1207
1146 1249
1146 1285
1146 1290
1146 1304
1146 1321
1146 1489
1146 1577
1146 1656
1146 1718
1146 1730
1146 1771
1146 1870
1146 1888
1146 1933
1146 1934
1146 1976
1146 2007
1146 2078
1146 2107
1146 2149
1146 2234
1146 2261
1146 2367
1146 2406
1146 2434
1146 2497
1146 2500
1146 2586
1146 2610
1148 1190
1148 2305
1149 1243
1149 1311
1149 1512
1149 1749
1149 2021
1149 2088
1149 2175
1149 2257
1149 2317
1149 2370
1149 2415
1149 2484
1150 1174
1150 1182
1150 1199
1150 1266
1150 1313
1150 1365
1150 1389
1150 1500
1150 1532
1150 1652
1150 1708
1150 1773
1150 2053
1150 2073
1150 2091
1150 2155
1150 2188
1150 2189
1150 2262
1150 2329
1150 2361
1150 2380
1150 2389
1150 2479
1150 2577
1150 2586
1151 1154
1151 1162
1151 1173
1151 1182
1151 1183
1151 1195
1151 1206
1151 1207
1151 1214
1151 1230
1151 1242
1151 1247
1151 1255
1151 1265
1151 1271
1151 1339
1151 1353
1151 1362
1151 1389
1151 1394
1151 1427
1151 1454
1151 1489
1151 1494
1151 1521
1151 1524
1151 1546
1151 1547
1151 1561
1151 1564
1151 1570
1151 1588
1151 1608
1151 1617
1151 1687
1151 1692
1151 1696
1151 1708
1151 1729
1151 1760
1151 1769
1151 1779
1151 1795
1151 1799
1151 1893
1151 1911
1151 1913
1151 1941
1151 1969
1151 1979
1151 1994
1151 1998
1151 2010
1151 2062
1151 2090
1151 2099
1151 2118
1151 2140
1151 2148
1151 2151
1151 2179
1151 2180
1151 2201
1151 2207
1151 2212
1151 2225
1151 2231
1151 2232
1151 2294
1151 2370
1151 2380
1151 2390
1151 2392
1151 2398
1151 2514
1151 2536
1151 2549
1151 2593
1151 2604
1151 2605
1151 2634
1152 1193
1152 1479
1152 1834
1152 1923
1152 1926
1152 1944
1152 2074
1152 2128
1152 2180
1152 2297
1152 2327
1152 2334
1152 2379
1152 2413
1152 2540
1152 2554
1152 2655
1153 1226
1153 1229
1153 1263
1153 1266
1153 1272
1153 1286
1153 1368
1153 1377
1153 1411
1153 1502
1153 1558
1153 1659
1153 1672
1153 1738
1153 1782
1153 1797
1153 1827
1153 1947
1153 1958
1153 1963
1153 1971
1153 2011
1153 2233
1153 2269
1153 2290
1153 2294
1153 2492
1153 2530
1153 2593
1153 2596
1153 2603
1154 1166
1154 1299
1154 1363
1154 1472
1154 1510
1154 1559
1154 1739
1154 1760
1154 1847
1154 1881
1154 1885
1154 1905
1154 1983
1154 2006
1154 2062
1154 2135
1154 2177
1154 2189
1154 2207
1154 2232
1154 2283
1154 2302
1154 2365
1154 2483
1154 2536
1154 2570
1154 2586
1154 2673
1155 2175
1156 1507
1156 1597
1156 1629
1156 1638
1156 1713
1156 1860
1156 1935
1156 2024
1156 2037
1156 2333
1156 2423
1156 2460
1156 2474
1156 2491
1156 2544
1156 2629
1158 1229
1158 1272
1158 1286
1158 1290
1158 1365
1158 1377
1158 1426
1158 1428
1158 1457
1158 1473
1158 1558
1158 1562
1158 1579
1158 1671
1158 1730
1158 1746
1158 1750
1158 1762
1158 1799
1158 1918
1158 1947
1158 1965
1158 1967
1158 1983
1158 1998
1158 2023
1158 2038
1158 2137
1158 2171
1158 2269
1158 2286
1158 2342
1158 2377
1158 2456
1158 2460
1158 2471
1158 2492
1158 2523
1158 2524
1158 2578
1158 2591
1158 2671
1159 1239
1159 1248
1159 1262
1159 1266
1159 1301
1159 1307
1159 1344
1159 1356
1159 1372
1159 1438
1159 1475
1159 1541
1159 1582
1159 1594
1159 1625
1159 1717
1159 1832
1159 1870
1159 1910
1159 1917
1159 1927
1159 2038
1159 2053
1159 2112
1159 2180
1159 2182
1159 2211
1159 2243
1159 2277
1159 2361
1159 2424
1159 2429
1159 2470
1159 2577
1159 2586
1160 1859
1162 1195
1162 1206
1162 1226
1162 1230
1162 1271
1162 1285
1162 1291
1162 1427
1162 1494
1162 1519
1162 1532
1162 1534
1162 1547
1162 1575
1162 1635
1162 1687
1162 1688
1162 1692
1162 1708
1162 1729
1162 1760
1162 1795
1162 1837
1162 1872
1162 1893
1162 1898
1162 1945
1162 1979
1162 2062
1162 2151
1162 2201
1162 2232
1162 2261
1162 2307
1162 2361
1162 2365
1162 2370
1162 2390
1162 2459
1162 2501
1162 2586
1162 2593
1162 2674
1164 1188
1164 1268
1164 1353
1164 1404
1164 1463
1164 1537
1164 1549
1164 1625
1164 1673
1164 1709
1164 1752
1164 1862
1164 1863
1164 1868
1164 1904
1164 2099
1164 2152
1164 2164
1164 2254
1164 2410
1164 2479
1164 2481
1164 2518
1164 2586
1164 2651
1165 1174
1165 1285
1165 1577
1165 1588
1165 1624
1165 1717
1165 1829
1165 1863
1165 1870
1165 1933
1165 1934
1165 2099
1165 2101
1165 2155
1165 2200
1165 2243
1165 2362
1165 2380
1165 2424
1165 2429
1165 2490
1166 1169
1166 1175
1166 1183
1166 1189
1166 1204
1166 1205
1166 1228
1166 1232
1166 1248
1166 1250
1166 1252
1166 1264
1166 1266
1166 1270
1166 1272
1166 1321
1166 1361
1166 1395
1166 1425
1166 1442
1166 1477
1166 1495
1166 1519
1166 1529
1166 1534
1166 1546
1166 1547
1166 1570
1166 1578
1166 1591
1166 1608
1166 1616
1166 1672
1166 1704
1166 1708
1166 1715
1166 1750
1166 1760
1166 1797
1166 1798
1166 1869
1166 1897
1166 1898
1166 1915
1166 1950
1166 1951
1166 2038
1166 2046
1166 2062
1166 2066
1166 2078
1166 2080
1166 2100
1166 2135
1166 2151
1166 2171
1166 2189
1166 2215
1166 2222
1166 2269
1166 2283
1166 2286
1166 2312
1166 2324
1166 2347
1166 2401
1166 2423
1166 2425
1166 2427
1166 2441
1166 2453
1166 2467
1166 2483
1166 2488
1166 2528
1166 2549
1166 2570
1166 2574
1166 2586
1166 2598
1166 2605
1166 2623
1166 2628
1166 2646
1166 2651
1166 2660
1166 2671
1166 2673
1166 2677
1167 1500
1167 1502
1167 1574
1167 1630
1167 1650
1167 1659
1167 1870
1167 2011
1167 2289
1167 2377
1167 2380
1167 2587
1167 2618
1167 2673
1168 1216
1168 1329
1168 1357
1168 1360
1168 1400
1168 1476
1168 1574
1168 1677
1168 1703
1168 1791
1168 1814
1168 1823
1168 1995
1168 2003
1168 2015
1168 2124
1168 2204
1168 2404
1168 2405
1168 2419
1168 2510
1168 2516
1168 2652
1169 1232
1169 1247
1169 1270
1169 1284
1169 1289
1169 1361
1169 1375
1169 1395
1169 1451
1169 1472
1169 1494
1169 1495
1169 1562
1169 1570
1169 1608
1169 1615
1169 1616
1169 1634
1169 1696
1169 1733
1169 1742
1169 1750
1169 1760
1169 1767
1169 1795
1169 1796
1169 1798
1169 1840
1169 1855
1169 1871
1169 1887
1169 1897
1169 1898
1169 1905
1169 1912
1169 1915
1169 1916
1169 1937
1169 1941
1169 1950
1169 1973
1169 1994
1169 2068
1169 2079
1169 2083
1169 2135
1169 2189
1169 2215
1169 2222
1169 2228
1169 2246
1169 2278
1169 2283
1169 2286
1169 2302
1169 2316
1169 2326
1169 2334
1169 2347
1169 2392
1169 2425
1169 2453
1169 2528
1169 2561
1169 2570
1169 2615
1169 2623
1169 2628
1169 2633
1169 2634
1169 2677
1170 1264
1170 1291
1170 1541
1170 1678
1170 1729
1170 1760
1170 1837
1170 2147
1170 2182
1170 2370
1171 1264
1171 1298
1171 1322
1171 1334
1171 1411
1171 1433
1171 1584
1171 1594
1171 1603
1171 1713
1171 1741
1171 1779
1171 1955
1171 1958
1171 1963
1171 2034
1171 2042
1171 2044
1171 2093
1171 2126
1171 2142
1171 2192
1171 2310
1171 2327
1171 2353
1171 2377
1171 2410
1171 2553
1171 2602
1171 2629
1171 2655
1172 1230
1172 1397
1172 1430
1172 1547
1172 1553
1172 1575
1172 1607
1172 1635
1172 1692
1172 1708
1172 1721
1172 1864
1172 1979
1172 2016
1172 2351
1172 2390
1172 2574
1172 2608
1173 1235
1173 1263
1173 1264
1173 1453
1173 1500
1173 1558
1173 1649
1173 1688
1173 1708
1173 1719
1173 1760
1173 1782
1173 1796
1173 1827
1173 1891
1173 1917
1173 1923
1173 2078
1173 2084
1173 2119
1173 2208
1173 2239
1173 2251
1173 2274
1173 2294
1173 2361
1173 2367
1173 2540
1173 2591
1174 1182
1174 1201
1174 1206
1174 1224
1174 1249
1174 1258
1174 1285
1174 1301
1174 1313
1174 1357
1174 1481
1174 1491
1174 1492
1174 1537
1174 1588
1174 1624
1174 1658
1174 1664
1174 1744
1174 1773
1174 1784
1174 1829
1174 1860
1174 1921
1174 2016
1174 2064
1174 2082
1174 2100
1174 2112
1174 2115
1174 2128
1174 2157
1174 2163
1174 2241
1174 2243
1174 2272
1174 2294
1174 2350
1174 2362
1174 2370
1174 2375
1174 2435
1174 2479
1174 2541
1174 2547
1174 2553
1174 2577
1174 2584
1174 2603
1174 2652
1174 2659
1175 1192
1175 1199
1175 1204
1175 1235
1175 1239
1175 1259
1175 1262
1175 1278
1175 1282
1175 1344
1175 1350
1175 1356
1175 1372
1175 1422
1175 1461
1175 1502
1175 1541
1175 1831
1175 1851
1175 2026
1175 2182
1175 2210
1175 2327
1175 2358
1175 2403
1175 2417
1175 2432
1175 2491
1175 2507
1175 2585
1175 2635
1175 2651
1176 1628
1176 1704
1176 1986
1176 2015
1176 2340
1176 2581
1177 1199
1177 1204
1177 1235
1177 1248
1177 1262
1177 1301
1177 1344
1177 1372
1177 1385
1177 1393
1177 1408
1177 1431
1177 1437
1177 1454
1177 1461
1177 1475
1177 1500
1177 1530
1177 1541
1177 1569
1177 1571
1177 1686
1177 1696
1177 1704
1177 1729
1177 1741
1177 1742
1177 1753
1177 1821
1177 1834
1177 1917
1177 1929
1177 1946
1177 1957
1177 2011
1177 2015
1177 2081
1177 2100
1177 2109
1177 2128
1177 2138
1177 2277
1177 2318
1177 2327
1177 2379
1177 2540
1177 2554
1177 2585
1177 2586
1177 2615
1178 1329
1179 1264
1179 1696
1179 2027
1179 2311
1179 2354
1179 2460
1179 2562
1179 2593
1179 2650
1179 2670
1180 1264
1180 1351
1180 1403
1180 1534
1180 1971
1180 2175
1180 2267
1180 2362
1180 2635
1181 1213
1181 1272
1181 1279
1181 1307
1181 1329
1181 1331
1181 1342
1181 1350
1181 1355
1181 1366
1181 1387
1181 1396
1181 1430
1181 1466
1181 1479
1181 1513
1181 1530
1181 1533
1181 1555
1181 1587
1181 1600
1181 1619
1181 1622
1181 1641
1181 1662
1181 1664
1181 1695
1181 1730
1181 1735
1181 1768
1181 1786
1181 1824
1181 1915
1181 1931
1181 1935
1181 1979
1181 2009
1181 2025
1181 2092
1181 2125
1181 2172
1181 2183
1181 2205
1181 2221
1181 2297
1181 2311
1181 2340
1181 2370
1181 2418
1181 2489
1181 2501
1181 2547
1181 2593
1181 2609
1181 2618
1181 2626
1181 2629
1181 2659
1182 1197
1182 1207
1182 1223
1182 1233
1182 1264
1182 1290
1182 1372
1182 1389
1182 1401
1182 1466
1182 1498
1182 1519
1182 1545
1182 1547
1182 1635
1182 1659
1182 1696
1182 1717
1182 1773
1182 1861
1182 1870
1182 1883
1182 1885
1182 1906
1182 1926
1182 1933
1182 1934
1182 1942
1182 1983
1182 2011
1182 2038
1182 2039
1182 2053
1182 2071
1182 2073
1182 2078
1182 2107
1182 2124
1182 2137
1182 2179
1182 2202
1182 2225
1182 2243
1182 2261
1182 2329
1182 2389
1182 2398
1182 2435
1182 2479
1182 2497
1182 2500
1182 2584
1182 2586
1182 2638
1183 1271
1183 1289
1183 1353
1183 1401
1183 1442
1183 1521
1183 1548
1183 1570
1183 1615
1183 1634
1183 1685
1183 1733
1183 1758
1183 1809
1183 1840
1183 1855
1183 1869
1183 1883
1183 1887
1183 1893
1183 1897
1183 1915
1183 1916
1183 1941
1183 1998
1183 2062
1183 2118
1183 2140
1183 2171
1183 2228
1183 2264
1183 2294
1183 2326
1183 2334
1183 2425
1183 2430
1183 2453
1183 2521
1183 2570
1183 2623
1183 2628
1183 2633
1183 2660
1183 2673
1184 1558
1184 1696
1184 1882
1184 2027
1184 2229
1184 2583
1185 1289
1185 1309
1185 1345
1185 1378
1185 1395
1185 1434
1185 1494
1185 1503
1185 1570
1185 1608
1185 1615
1185 1618
1185 1634
1185 1639
1185 1696
1185 1708
1185 1733
1185 1742
1185 1760
1185 1778
1185 1795
1185 1796
1185 1798
1185 1840
1185 1855
1185 1885
1185 1897
1185 1916
1185 1920
1185 1938
1185 1954
1185 1979
1185 1983
1185 1994
1185 2007
1185 2016
1185 2046
1185 2068
1185 2079
1185 2083
1185 2135
1185 2183
1185 2189
1185 2212
1185 2228
1185 2258
1185 2316
1185 2347
1185 2380
1185 2392
1185 2435
1185 2453
1185 2456
1185 2469
1185 2512
1185 2515
1185 2570
1185 2584
1185 2595
1185 2599
1185 2607
1185 2623
1185 2634
1185 2638
1185 2646
1185 2651
1185 2659
1185 2661
1186 1192
1186 1261
1186 1264
1186 1301
1186 1309
1186 1310
1186 1355
1186 1487
1186 1529
1186 1581
1186 1608
1186 1683
1186 1758
1186 1917
1186 2228
1186 2266
1186 2335
1186 2417
1186 2453
1186 2528
1186 2615
1187 1212
1187 1232
1187 1264
1187 1328
1187 1375
1187 1382
1187 1587
1187 1591
1187 1734
1187 2097
1187 2110
1187 2378
1187 2473
1188 1258
1188 1406
1188 1428
1188 1473
1188 1500
1188 1587
1188 1600
1188 1649
1188 1719
1188 1757
1188 2128
1188 2180
1188 2208
1188 2239
1188 2294
1188 2312
1188 2354
1188 2591
1188 2672
1188 2676
1189 1244
1189 1314
1189 1346
1189 1395
1189 1467
1189 1562
1189 1608
1189 1639
1189 1761
1189 1840
1189 1936
1189 1945
1189 2001
1189 2183
1189 2274
1189 2299
1189 2362
1189 2392
1189 2464
1189 2488
1189 2628
1189 2671
1190 1333
1190 1438
1190 1539
1190 1798
1190 1882
1190 1937
1190 2214
1190 2223
1190 2305
1191 1192
1191 1229
1191 1235
1191 1239
1191 1262
1191 1264
1191 1269
1191 1282
1191 1298
1191 1328
1191 1334
1191 1342
1191 1403
1191 1422
1191 1461
1191 1478
1191 1479
1191 1541
1191 1584
1191 1594
1191 1599
1191 1638
1191 1648
1191 1657
1191 1696
1191 1742
1191 1779
1191 1783
1191 1824
1191 1831
1191 1863
1191 2042
1191 2172
1191 2180
1191 2182
1191 2183
1191 2210
1191 2221
1191 2231
1191 2241
1191 2310
1191 2397
1191 2410
1191 2421
1191 2422
1191 2444
1191 2474
1191 2489
1191 2491
1191 2496
1191 2505
1191 2540
1191 2544
1191 2553
1191 2554
1191 2561
1191 2592
1191 2629
1192 1235
1192 1239
1192 1248
1192 1262
1192 1264
1192 1278
1192 1282
1192 1343
1192 1350
1192 1356
1192 1384
1192 1477
1192 1478
1192 1530
1192 1541
1192 1594
1192 1839
1192 1881
1192 1917
1192 2031
1192 2038
1192 2078
1192 2112
1192 2171
1192 2182
1192 2210
1192 2277
1192 2310
1192 2311
1192 2353
1192 2370
1192 2429
1192 2635
1192 2655
1193 1421
1193 1642
1193 1788
1193 1834
1193 1845
1193 1923
1193 2155
1193 2346
1193 2379
1193 2413
1193 2540
1193 2554
1194 1220
1194 1800
1194 2057
1195 1206
1195 1230
1195 1237
1195 1271
1195 1285
1195 1346
1195 1409
1195 1464
1195 1489
1195 1494
1195 1547
1195 1617
1195 1675
1195 1687
1195 1739
1195 1795
1195 1822
1195 1837
1195 1864
1195 1904
1195 1914
1195 1945
1195 1979
1195 1994
1195 2016
1195 2021
1195 2062
1195 2090
1195 2113
1195 2162
1195 2179
1195 2201
1195 2367
1195 2370
1195 2376
1195 2390
1195 2398
1195 2449
1195 2459
1195 2469
1195 2551
1195 2593
1195 2604
1195 2608
1195 2648
1196 1350
1196 2464
1197 1223
1197 1263
1197 1272
1197 1286
1197 1308
1197 1484
1197 1537
1197 1579
1197 1588
1197 1694
1197 1745
1197 1762
1197 1782
1197 1796
1197 1829
1197 1850
1197 1904
1197 1923
1197 2101
1197 2119
1197 2142
1197 2181
1197 2188
1197 2197
1197 2209
1197 2282
1197 2283
1197 2294
1197 2377
1197 2389
1197 2437
1197 2467
1197 2534
1197 2591
1197 2631
1197 2651
1197 2671
1198 1257
1198 1320
1198 1335
1198 1525
1198 1590
1198 1636
1198 1680
1198 1855
1198 1980
1198 2005
1198 2170
1198 2292
1198 2374
1198 2407
1198 2445
1198 2565
1199 1229
1199 1259
1199 1262
1199 1266
1199 1278
1199 1282
1199 1291
1199 1301
1199 1343
1199 1356
1199 1365
1199 1372
1199 1437
1199 1487
1199 1530
1199 1541
1199 1571
1199 1584
1199 1588
1199 1713
1199 1729
1199 1773
1199 1851
1199 1912
1199 1929
1199 1944
1199 2091
1199 2119
1199 2210
1199 2228
1199 2241
1199 2277
1199 2334
1199 2343
1199 2380
1199 2396
1199 2417
1199 2421
1199 2474
1199 2491
1199 2507
1199 2544
1199 2585
1199 2667
1200 1425
1200 1898
1200 1979
1200 2534
1200 2594
1200 2605
1201 1216
1201 1274
1201 1277
1201 1341
1201 1360
1201 1430
1201 1476
1201 1647
1201 1702
1201 1722
1201 1743
1201 1768
1201 1772
1201 1814
1201 1853
1201 1934
1201 1979
1201 2005
1201 2012
1201 2072
1201 2084
1201 2111
1201 2146
1201 2150
1201 2242
1201 2245
1201 2251
1201 2428
1201 2440
1201 2506
1201 2516
1201 2541
1201 2568
1201 2597
1202 1204
1202 1206
1202 1232
1202 1252
1202 1264
1202 1291
1202 1299
1202 1471
1202 1484
1202 1541
1202 1570
1202 1571
1202 1575
1202 1635
1202 1686
1202 1713
1202 1729
1202 1758
1202 1779
1202 1795
1202 1837
1202 1840
1202 1881
1202 1883
1202 1912
1202 1916
1202 1931
1202 2036
1202 2037
1202 2126
1202 2163
1202 2175
1202 2182
1202 2201
1202 2210
1202 2211
1202 2277
1202 2327
1202 2343
1202 2395
1202 2425
1202 2483
1202 2491
1202 2501
1202 2509
1202 2515
1202 2536
1202 2544
1202 2546
1202 2551
1202 2561
1202 2570
1202 2633
1203 1256
1203 1268
1203 1320
1203 1326
1203 1391
1203 1414
1203 1492
1203 1558
1203 1667
1203 1711
1203 1743
1203 1874
1203 1877
1203 1930
1203 1985
1203 2015
1203 2136
1203 2292
1203 2293
1203 2295
1203 2300
1203 2331
1203 2440
1203 2555
1203 2652
1204 1291
1204 1307
1204 1326
1204 1344
1204 1350
1204 1396
1204 1422
1204 1495
1204 1541
1204 1594
1204 1729
1204 1758
1204 1779
1204 1831
1204 1840
1204 1863
1204 1881
1204 1912
1204 1918
1204 1921
1204 2015
1204 2031
1204 2041
1204 2081
1204 2093
1204 2163
1204 2174
1204 2206
1204 2210
1204 2211
1204 2300
1204 2356
1204 2370
1204 2453
1204 2474
1204 2491
1204 2507
1204 2519
1204 2561
1204 2584
1204 2606
1204 2633
1204 2635
1204 2654
1205 1233
1205 1288
1205 1347
1205 1361
1205 1392
1205 1400
1205 1442
1205 1461
1205 1472
1205 1569
1205 1574
1205 1613
1205 1760
1205 1798
1205 1845
1205 2078
1205 2228
1205 2265
1205 2377
1205 2540
1205 2586
1205 2599
1205 2634
1205 2638
1205 2651
1205 2660
1206 1214
1206 1226
1206 1230
1206 1231
1206 1247
1206 1271
1206 1285
1206 1291
1206 1292
1206 1295
1206 1296
1206 1299
1206 1316
1206 1366
1206 1394
1206 1409
1206 1427
1206 1430
1206 1454
1206 1456
1206 1491
1206 1494
1206 1503
1206 1510
1206 1519
1206 1521
1206 1534
1206 1545
1206 1547
1206 1548
1206 1558
1206 1570
1206 1575
1206 1579
1206 1592
1206 1627
1206 1639
1206 1651
1206 1678
1206 1685
1206 1687
1206 1688
1206 1691
1206 1692
1206 1699
1206 1708
1206 1719
1206 1721
1206 1729
1206 1733
1206 1737
1206 1739
1206 1742
1206 1760
1206 1769
1206 1795
1206 1798
1206 1801
1206 1837
1206 1869
1206 1871
1206 1883
1206 1890
1206 1893
1206 1916
1206 1923
1206 1957
1206 1963
1206 1969
1206 1979
1206 1983
1206 1984
1206 1998
1206 2016
1206 2025
1206 2068
1206 2119
1206 2140
1206 2151
1206 2177
1206 2179
1206 2189
1206 2190
1206 2201
1206 2222
1206 2225
1206 2231
1206 2258
1206 2261
1206 2264
1206 2269
1206 2294
1206 2309
1206 2312
1206 2347
1206 2367
1206 2370
1206 2380
1206 2386
1206 2390
1206 2437
1206 2467
1206 2501
1206 2551
1206 2584
1206 2588
1206 2593
1206 2598
1206 2604
1206 2609
1206 2661
1206 2673
1207 1244
1207 1266
1207 1288
1207 1296
1207 1299
1207 1321
1207 1371
1207 1412
1207 1455
1207 1464
1207 1466
1207 1481
1207 1482
1207 1524
1207 1561
1207 1617
1207 1618
1207 1659
1207 1736
1207 1795
1207 1798
1207 1822
1207 1835
1207 1850
1207 1870
1207 1885
1207 1923
1207 1965
1207 2016
1207 2048
1207 2093
1207 2261
1207 2274
1207 2363
1207 2367
1207 2377
1207 2380
1207 2456
1207 2469
1207 2497
1207 2501
1207 2522
1207 2539
1207 2551
1207 2562
1207 2605
1207 2614
1207 2632
1207 2659
1207 2673
1207 2676
1208 1369
1208 1949
1208 2053
1210 1268
1210 1343
1210 1356
1210 1400
1210 1549
1210 1569
1210 1866
1210 2084
1210 2136
1210 2150
1210 2157
1210 2204
1210 2300
1210 2614
1211 1218
1211 1233
1211 1264
1211 1852
1211 1965
1211 2067
1211 2180
1211 2362
1211 2380
1211 2491
1212 1328
1212 1375
1212 1616
1212 1900
1212 2041
1212 2237
1212 2321
1212 2324
1212 2358
1212 2515
1213 1695
1213 1811
1213 1987
1213 2009
1213 2013
1214 1224
1214 1225
1214 1230
1214 1271
1214 1494
1214 1547
1214 1687
1214 1795
1214 1836
1214 1913
1214 1920
1214 2147
1214 2201
1214 2231
1214 2232
1214 2353
1214 2355
1214 2370
1214 2390
1214 2458
1214 2604
1215 1357
1215 1400
1215 1558
1215 1574
1215 1619
1215 1651
1215 1703
1215 1722
1215 1726
1215 1759
1215 1870
1215 2005
1215 2015
1215 2084
1215 2088
1215 2124
1215 2156
1215 2170
1215 2178
1215 2185
1215 2204
1215 2219
1215 2249
1215 2252
1215 2270
1215 2304
1215 2331
1215 2350
1215 2396
1215 2495
1215 2565
1215 2568
1215 2652
1216 1360
1216 1402
1216 1430
1216 1481
1216 1519
1216 1635
1216 1702
1216 1743
1216 1791
1216 1814
1216 1906
1216 1916
1216 1979
1216 2012
1216 2013
1216 2054
1216 2084
1216 2139
1216 2146
1216 2182
1216 2245
1216 2405
1216 2428
1216 2506
1216 2597
1216 2614
1216 2652
1217 1676
1217 2016
1217 2077
1217 2263
1217 2367
1217 2452
1217 2455
1217 2478
1218 1371
1218 1403
1218 1799
1218 1965
1218 2067
1218 2676
1219 2294
1219 2631
1220 1272
1220 1309
1220 1354
1220 1355
1220 1387
1220 1398
1220 1451
1220 1600
1220 1622
1220 1697
1220 1766
1220 1800
1220 1824
1220 1996
1220 2034
1220 2046
1220 2121
1220 2144
1220 2172
1220 2183
1220 2205
1220 2413
1220 2486
1220 2556
1221 2219
1222 1294
1222 2230
1222 2339
1222 2487
1222 2517
1223 1225
1223 1247
1223 1275
1223 1363
1223 1374
1223 1389
1223 1495
1223 1532
1223 1548
1223 1559
1223 1562
1223 1579
1223 1599
1223 1608
1223 1611
1223 1626
1223 1671
1223 1685
1223 1723
1223 1724
1223 1762
1223 1794
1223 1796
1223 1829
1223 1871
1223 1887
1223 1902
1223 1905
1223 1916
1223 1938
1223 1954
1223 1963
1223 1978
1223 1984
1223 2008
1223 2025
1223 2068
1223 2080
1223 2101
1223 2104
1223 2158
1223 2264
1223 2299
1223 2347
1223 2380
1223 2385
1223 2387
1223 2452
1223 2456
1223 2520
1223 2523
1223 2578
1223 2634
1223 2645
1224 1225
1224 1226
1224 1230
1224 1247
1224 1403
1224 1409
1224 1473
1224 1521
1224 1761
1224 1784
1224 1797
1224 1852
1224 1855
1224 1871
1224 1875
1224 1945
1224 2060
1224 2061
1224 2201
1224 2251
1224 2269
1224 2327
1224 2458
1224 2523
1224 2671
1225 1474
1225 1801
1225 1817
1225 1836
1225 1927
1225 2061
1225 2431
1226 1263
1226 1264
1226 1295
1226 1314
1226 1344
1226 1379
1226 1412
1226 1558
1226 1575
1226 1635
1226 1639
1226 1708
1226 1723
1226 1736
1226 1741
1226 1750
1226 1760
1226 1762
1226 1769
1226 1784
1226 1798
1226 1830
1226 1832
1226 1881
1226 1882
1226 1916
1226 1954
1226 1958
1226 1963
1226 1967
1226 1979
1226 2016
1226 2101
1226 2177
1226 2197
1226 2201
1226 2233
1226 2294
1226 2370
1226 2387
1226 2399
1226 2458
1226 2464
1226 2467
1226 2523
1226 2532
1226 2534
1226 2539
1226 2551
1226 2570
1226 2593
1226 2594
1226 2673
1227 1434
1227 1494
1227 1495
1227 1617
1227 1618
1227 1624
1227 1639
1227 1708
1227 1733
1227 1773
1227 1895
1227 2014
1227 2062
1227 2135
1227 2188
1227 2189
1227 2209
1227 2299
1227 2330
1227 2352
1227 2385
1227 2480
1227 2593
1228 1250
1228 1392
1228 1425
1228 1696
1228 1965
1228 2068
1228 2321
1229 1239
1229 1263
1229 1264
1229 1269
1229 1272
1229 1275
1229 1279
1229 1286
1229 1298
1229 1363
1229 1371
1229 1377
1229 1390
1229 1403
1229 1406
1229 1428
1229 1437
1229 1451
1229 1500
1229 1507
1229 1520
1229 1558
1229 1562
1229 1584
1229 1592
1229 1648
1229 1659
1229 1664
1229 1671
1229 1672
1229 1698
1229 1719
1229 1738
1229 1745
1229 1746
1229 1757
1229 1761
1229 1794
1229 1803
1229 1843
1229 1875
1229 1895
1229 1923
1229 1931
1229 1944
1229 1947
1229 1954
1229 1963
1229 1971
1229 1979
1229 1984
1229 2007
1229 2011
1229 2051
1229 2104
1229 2112
1229 2183
1229 2233
1229 2235
1229 2240
1229 2269
1229 2290
1229 2310
1229 2311
1229 2334
1229 2385
1229 2387
1229 2422
1229 2444
1229 2456
1229 2489
1229 2492
1229 2520
1229 2523
1229 2524
1229 2547
1229 2616
1229 2618
1229 2629
1229 2658
1229 2671
1230 1271
1230 1285
1230 1291
1230 1299
1230 1304
1230 1309
1230 1328
1230 1350
1230 1394
1230 1430
1230 1494
1230 1524
1230 1534
1230 1547
1230 1678
1230 1687
1230 1688
1230 1691
1230 1692
1230 1729
1230 1732
1230 1739
1230 1795
1230 1837
1230 1883
1230 1890
1230 1893
1230 1920
1230 1969
1230 1979
1230 2031
1230 2145
1230 2148
1230 2151
1230 2179
1230 2184
1230 2201
1230 2231
1230 2266
1230 2282
1230 2320
1230 2367
1230 2370
1230 2390
1230 2501
1230 2512
1230 2586
1230 2591
1230 2593
1230 2604
1230 2606
1230 2608
1230 2659
1230 2673
1231 1263
1231 1350
1231 1354
1231 1366
1231 1384
1231 1394
1231 1489
1231 1533
1231 1570
1231 1575
1231 1597
1231 1641
1231 1685
1231 1692
1231 1696
1231 1697
1231 1724
1231 1770
1231 1797
1231 1809
1231 1815
1231 1843
1231 1903
1231 1927
1231 1955
1231 2008
1231 2024
1231 2083
1231 2179
1231 2205
1231 2233
1231 2370
1231 2386
1231 2395
1231 2397
1231 2426
1231 2505
1231 2561
1231 2574
1231 2609
1231 2647
1232 1237
1232 1264
1232 1302
1232 1328
1232 1336
1232 1392
1232 1431
1232 1548
1232 1555
1232 1559
1232 1570
1232 1591
1232 1617
1232 1634
1232 1696
1232 1697
1232 1720
1232 1733
1232 1734
1232 1778
1232 1825
1232 1832
1232 1840
1232 1897
1232 1907
1232 1912
1232 1915
1232 1950
1232 1994
1232 2004
1232 2053
1232 2083
1232 2097
1232 2182
1232 2212
1232 2227
1232 2246
1232 2299
1232 2313
1232 2378
1232 2416
1232 2427
1232 2483
1232 2495
1232 2551
1232 2556
1232 2570
1232 2609
1232 2633
1232 2634
1233 1246
1233 1266
1233 1272
1233 1299
1233 1353
1233 1361
1233 1363
1233 1374
1233 1389
1233 1401
1233 1430
1233 1472
1233 1494
1233 1495
1233 1498
1233 1503
1233 1519
1233 1534
1233 1574
1233 1609
1233 1624
1233 1635
1233 1652
1233 1699
1233 1708
1233 1737
1233 1750
1233 1762
1233 1773
1233 1883
1233 1906
1233 1927
1233 1963
1233 1979
1233 1983
1233 2011
1233 2048
1233 2050
1233 2084
1233 2091
1233 2137
1233 2251
1233 2330
1233 2363
1233 2377
1233 2385
1233 2387
1233 2389
1233 2399
1233 2409
1233 2425
1233 2434
1233 2435
1233 2501
1233 2520
1233 2539
1233 2599
1233 2634
1233 2638
1233 2655
1233 2660
1233 2673
1234 1265
1234 1358
1234 1400
1234 1414
1234 1606
1234 1698
1234 1709
1234 1725
1234 1932
1234 2194
1234 2300
1234 2350
1234 2540
1235 1251
1235 1254
1235 1278
1235 1298
1235 1343
1235 1350
1235 1356
1235 1366
1235 1384
1235 1387
1235 1401
1235 1411
1235 1419
1235 1439
1235 1468
1235 1477
1235 1478
1235 1479
1235 1495
1235 1521
1235 1531
1235 1533
1235 1534
1235 1537
1235 1541
1235 1584
1235 1588
1235 1594
1235 1597
1235 1599
1235 1622
1235 1625
1235 1629
1235 1635
1235 1688
1235 1699
1235 1809
1235 1815
1235 1838
1235 1840
1235 1881
1235 1883
1235 1955
1235 1957
1235 1980
1235 2016
1235 2025
1235 2042
1235 2053
1235 2119
1235 2128
1235 2137
1235 2138
1235 2162
1235 2172
1235 2180
1235 2192
1235 2205
1235 2212
1235 2231
1235 2246
1235 2294
1235 2309
1235 2310
1235 2327
1235 2342
1235 2353
1235 2361
1235 2365
1235 2370
1235 2395
1235 2410
1235 2413
1235 2421
1235 2422
1235 2426
1235 2486
1235 2489
1235 2496
1235 2526
1235 2531
1235 2544
1235 2551
1235 2578
1235 2585
1235 2603
1235 2618
1235 2629
1235 2649
1235 2655
1235 2660
1235 2672
1236 1404
1236 1421
1236 2261
1236 2361
1236 2562
1236 2632
1237 1263
1237 1361
1237 1416
1237 1472
1237 1559
1237 1575
1237 1613
1237 1685
1237 1784
1237 1798
1237 1847
1237 1903
1237 2021
1237 2228
1237 2246
1237 2302
1237 2365
1237 2505
1237 2551
1237 2570
1237 2574
1237 2593
1237 2599
1237 2609
1238 2053
1239 1248
1239 1251
1239 1260
1239 1264
1239 1267
1239 1279
1239 1282
1239 1286
1239 1298
1239 1356
1239 1390
1239 1403
1239 1540
1239 1541
1239 1575
1239 1594
1239 1623
1239 1629
1239 1638
1239 1664
1239 1713
1239 1746
1239 1761
1239 1840
1239 1852
1239 1915
1239 1931
1239 1947
1239 1979
1239 2112
1239 2182
1239 2203
1239 2268
1239 2310
1239 2313
1239 2362
1239 2370
1239 2423
1239 2444
1239 2474
1239 2491
1239 2547
1239 2603
1239 2616
1239 2629
1239 2635
1239 2657
1240 1703
1240 1961
1240 2015
1240 2601
1241 1326
1241 1335
1241 1558
1241 1621
1241 2059
1241 2112
1241 2165
1241 2178
1241 2295
1241 2539
1242 1255
1242 1264
1242 1427
1242 1546
1242 1798
1242 2164
1242 2261
1242 2361
1242 2367
1242 2370
1242 2467
1243 2088
1243 2484
1244 1272
1244 1275
1244 1299
1244 1314
1244 1368
1244 1416
1244 1427
1244 1464
1244 1466
1244 1481
1244 1575
1244 1708
1244 1742
1244 1795
1244 1798
1244 1809
1244 1847
1244 1969
1244 1980
1244 2179
1244 2199
1244 2209
1244 2212
1244 2232
1244 2240
1244 2306
1244 2307
1244 2370
1244 2457
1244 2460
1244 2466
1244 2501
1244 2530
1244 2540
1244 2562
1244 2596
1244 2634
1244 2651
1244 2659
1244 2673
1245 1348
1245 1773
1245 1817
1246 1272
1246 1275
1246 1316
1246 1363
1246 1406
1246 1500
1246 1696
1246 1708
1246 1738
1246 1794
1246 2033
1246 2048
1246 2051
1246 2175
1246 2189
1246 2215
1246 2352
1246 2363
1246 2385
1246 2387
1246 2456
1246 2464
1246 2634
1247 1291
1247 1361
1247 1395
1247 1438
1247 1442
1247 1494
1247 1532
1247 1547
1247 1548
1247 1562
1247 1639
1247 1683
1247 1684
1247 1693
1247 1708
1247 1719
1247 1729
1247 1742
1247 1776
1247 1778
1247 1779
1247 1784
1247 1795
1247 1796
1247 1825
1247 1837
1247 1869
1247 1871
1247 1897
1247 1915
1247 1916
1247 1938
1247 1941
1247 1973
1247 2068
1247 2119
1247 2135
1247 2171
1247 2201
1247 2228
1247 2283
1247 2294
1247 2316
1247 2456
1247 2528
1247 2566
1247 2570
1247 2593
1247 2615
1247 2623
1247 2633
1247 2634
1247 2651
1247 2658
1247 2665
1247 2671
1248 1262
1248 1296
1248 1301
1248 1307
1248 1356
1248 1372
1248 1442
1248 1475
1248 1476
1248 1575
1248 1594
1248 1724
1248 1808
1248 1851
1248 1861
1248 1910
1248 1915
1248 1916
1248 1917
1248 2031
1248 2038
1248 2211
1248 2243
1248 2277
1248 2313
1248 2329
1248 2343
1248 2353
1248 2417
1248 2429
1248 2470
1248 2489
1248 2509
1248 2540
1248 2586
1248 2635
1249 1271
1249 1413
1249 1421
1249 1460
1249 1504
1249 1505
1249 1598
1249 1706
1249 1718
1249 1732
1249 1771
1249 1819
1249 1830
1249 1854
1249 1888
1249 2082
1249 2262
1249 2274
1249 2281
1249 2298
1249 2406
1249 2494
1249 2497
1249 2499
1249 2524
1249 2562
1249 2572
1249 2577
1249 2586
1249 2608
1249 2648
1249 2659
1250 1306
1250 1608
1250 1980
1250 2046
1250 2066
1250 2080
1250 2441
1250 2549
1250 2586
1250 2623
1250 2628
1251 1478
1251 1533
1251 1625
1251 1638
1251 1688
1251 1809
1251 1920
1251 2007
1251 2180
1251 2183
1251 2268
1251 2310
1251 2327
1251 2540
1251 2553
1251 2554
1251 2606
1252 1339
1252 1729
1252 1840
1252 1895
1252 1912
1252 2092
1252 2163
1252 2370
1252 2427
1252 2474
1252 2515
1253 1720
1253 2548
1254 1258
1254 1265
1254 1273
1254 1280
1254 1282
1254 1387
1254 1393
1254 1438
1254 1468
1254 1531
1254 1540
1254 1578
1254 1587
1254 1596
1254 1713
1254 1715
1254 1778
1254 1803
1254 1834
1254 1852
1254 1860
1254 1931
1254 1951
1254 1958
1254 2018
1254 2037
1254 2159
1254 2172
1254 2184
1254 2205
1254 2311
1254 2426
1254 2429
1254 2544
1254 2607
1254 2616
1254 2626
1254 2661
1254 2665
1255 1271
1255 1304
1255 1395
1255 1427
1255 1524
1255 1546
1255 1562
1255 1570
1255 1617
1255 1634
1255 1840
1255 1854
1255 1858
1255 1868
1255 1887
1255 1897
1255 1904
1255 1941
1255 1971
1255 2118
1255 2162
1255 2164
1255 2212
1255 2234
1255 2260
1255 2261
1255 2296
1255 2361
1255 2367
1255 2398
1255 2469
1255 2586
1255 2623
1255 2628
1256 1358
1256 1359
1256 1391
1256 1414
1256 1492
1256 1558
1256 1606
1256 1628
1256 1667
1256 1680
1256 1681
1256 1703
1256 1874
1256 1877
1256 1985
1256 2003
1256 2005
1256 2015
1256 2065
1256 2129
1256 2136
1256 2157
1256 2167
1256 2219
1256 2292
1256 2328
1256 2331
1256 2600
1257 1291
1257 1335
1257 1362
1257 1525
1257 1573
1257 1590
1257 1636
1257 1651
1257 1688
1257 1837
1257 1911
1257 1975
1257 1980
1257 2005
1257 2124
1257 2170
1257 2179
1257 2292
1257 2370
1257 2374
1257 2445
1257 2565
1258 1264
1258 1298
1258 1350
1258 1393
1258 1455
1258 1475
1258 1518
1258 1625
1258 1662
1258 1832
1258 1870
1258 1926
1258 2018
1258 2053
1258 2074
1258 2095
1258 2128
1258 2180
1258 2413
1258 2421
1258 2432
1258 2526
1258 2544
1258 2626
1258 2643
1258 2655
1259 1262
1259 1282
1259 1355
1259 1541
1259 1582
1259 1594
1259 1683
1259 1713
1259 1898
1259 1912
1259 1917
1259 2182
1259 2210
1259 2370
1259 2403
1259 2507
1259 2642
1259 2665
1260 1264
1260 1309
1260 1334
1260 1336
1260 1507
1260 1521
1260 1523
1260 1638
1260 1668
1260 1696
1260 1712
1260 1734
1260 1770
1260 1810
1260 1931
1260 2037
1260 2039
1260 2045
1260 2048
1260 2138
1260 2179
1260 2269
1260 2326
1260 2333
1260 2370
1260 2393
1260 2410
1260 2492
1260 2544
1260 2634
1261 1616
1261 1620
1261 1633
1261 1727
1261 1766
1261 1816
1261 2035
1261 2266
1261 2291
1261 2319
1261 2515
1261 2561
1261 2615
1262 1278
1262 1282
1262 1307
1262 1342
1262 1356
1262 1372
1262 1394
1262 1422
1262 1461
1262 1509
1262 1540
1262 1541
1262 1585
1262 1594
1262 1686
1262 1713
1262 1817
1262 1831
1262 1851
1262 1881
1262 1910
1262 1917
1262 1919
1262 1931
1262 1984
1262 2038
1262 2042
1262 2112
1262 2128
1262 2147
1262 2163
1262 2172
1262 2180
1262 2210
1262 2211
1262 2241
1262 2243
1262 2358
1262 2370
1262 2397
1262 2410
1262 2417
1262 2421
1262 2429
1262 2470
1262 2474
1262 2491
1262 2507
1262 2544
1262 2561
1262 2585
1262 2608
1262 2651
1262 2655
1262 2668
1263 1264
1263 1265
1263 1272
1263 1275
1263 1295
1263 1346
1263 1352
1263 1379
1263 1412
1263 1413
1263 1416
1263 1430
1263 1440
1263 1451
1263 1503
1263 1533
1263 1558
1263 1575
1263 1617
1263 1629
1263 1664
1263 1686
1263 1696
1263 1736
1263 1738
1263 1746
1263 1748
1263 1758
1263 1782
1263 1809
1263 1843
1263 1850
1263 1895
1263 1899
1263 1903
1263 1916
1263 1947
1263 1954
1263 1958
1263 1963
1263 1979
1263 2007
1263 2008
1263 2016
1263 2051
1263 2092
1263 2197
1263 2233
1263 2235
1263 2240
1263 2294
1263 2311
1263 2351
1263 2365
1263 2385
1263 2386
1263 2387
1263 2452
1263 2456
1263 2505
1263 2520
1263 2532
1263 2534
1263 2547
1263 2550
1263 2593
1263 2617
1263 2637
1263 2671
1264 1270
1264 1272
1264 1285
1264 1286
1264 1295
1264 1298
1264 1299
1264 1302
1264 1310
1264 1328
1264 1334
1264 1336
1264 1344
1264 1347
1264 1372
1264 1377
1264 1382
1264 1392
1264 1394
1264 1424
1264 1456
1264 1475
1264 1481
1264 1484
1264 1486
1264 1503
1264 1507
1264 1510
1264 1515
1264 1537
1264 1541
1264 1558
1264 1570
1264 1572
1264 1587
1264 1588
1264 1591
1264 1597
1264 1606
1264 1611
1264 1630
1264 1665
1264 1666
1264 1678
1264 1685
1264 1686
1264 1687
1264 1696
1264 1708
1264 1713
1264 1714
1264 1723
1264 1734
1264 1748
1264 1760
1264 1761
1264 1769
1264 1773
1264 1784
1264 1796
1264 1824
1264 1830
1264 1839
1264 1850
1264 1858
1264 1863
1264 1864
1264 1881
1264 1883
1264 1885
1264 1893
1264 1897
1264 1901
1264 1902
1264 1916
1264 1931
1264 1947
1264 1950
1264 1958
1264 1963
1264 1979
1264 1983
1264 1998
1264 2004
1264 2008
1264 2017
1264 2039
1264 2053
1264 2078
1264 2093
1264 2097
1264 2104
1264 2110
1264 2137
1264 2163
1264 2172
1264 2175
1264 2180
1264 2182
1264 2190
1264 2201
1264 2213
1264 2215
1264 2219
1264 2221
1264 2228
1264 2233
1264 2236
1264 2246
1264 2258
1264 2269
1264 2299
1264 2309
1264 2311
1264 2326
1264 2330
1264 2331
1264 2347
1264 2370
1264 2378
1264 2385
1264 2386
1264 2387
1264 2395
1264 2411
1264 2413
1264 2424
1264 2425
1264 2429
1264 2432
1264 2467
1264 2473
1264 2474
1264 2481
1264 2482
1264 2483
1264 2491
1264 2501
1264 2523
1264 2530
1264 2551
1264 2553
1264 2570
1264 2574
1264 2586
1264 2593
1264 2596
1264 2600
1264 2608
1264 2612
1264 2613
1264 2616
1264 2627
1264 2633
1264 2637
1264 2638
1264 2642
1264 2647
1264 2651
1264 2670
1264 2671
1264 2673
1265 1286
1265 1296
1265 1409
1265 1495
1265 1503
1265 1835
1265 1845
1265 1979
1265 2007
1265 2068
1265 2161
1265 2189
1265 2232
1265 2258
1265 2330
1265 2340
1265 2469
1265 2514
1265 2556
1265 2646
1266 1270
1266 1280
1266 1351
1266 1365
1266 1389
1266 1393
1266 1401
1266 1413
1266 1426
1266 1430
1266 1455
1266 1475
1266 1494
1266 1498
1266 1500
1266 1503
1266 1519
1266 1549
1266 1599
1266 1624
1266 1652
1266 1708
1266 1733
1266 1746
1266 1750
1266 1762
1266 1773
1266 1782
1266 1798
1266 1876
1266 1883
1266 1923
1266 1954
1266 1963
1266 1983
1266 1984
1266 2010
1266 2050
1266 2064
1266 2068
1266 2091
1266 2101
1266 2135
1266 2179
1266 2188
1266 2189
1266 2215
1266 2251
1266 2258
1266 2267
1266 2297
1266 2316
1266 2330
1266 2380
1266 2385
1266 2389
1266 2399
1266 2435
1266 2456
1266 2475
1266 2520
1266 2532
1266 2583
1266 2584
1266 2588
1266 2631
1266 2634
1266 2646
1266 2651
1266 2662
1267 1915
1267 2423
1267 2569
1268 1343
1268 1381
1268 1400
1268 1402
1268 1476
1268 1497
1268 1500
1268 1516
1268 1583
1268 1649
1268 1686
1268 1698
1268 1726
1268 1792
1268 1851
1268 1870
1268 1874
1268 1906
1268 1930
1268 1934
1268 1985
1268 1995
1268 2015
1268 2065
1268 2081
1268 2084
1268 2139
1268 2150
1268 2157
1268 2350
1268 2420
1268 2541
1268 2557
1268 2585
1268 2652
1269 1319
1269 1339
1269 1345
1269 1377
1269 1394
1269 1422
1269 1502
1269 1630
1269 1650
1269 1659
1269 1779
1269 1843
1269 1947
1269 1971
1269 2011
1269 2147
1269 2210
1269 2237
1269 2240
1269 2241
1269 2289
1269 2387
1269 2397
1269 2451
1269 2505
1269 2561
1269 2587
1269 2618
1270 1289
1270 1290
1270 1361
1270 1401
1270 1442
1270 1451
1270 1472
1270 1495
1270 1507
1270 1534
1270 1608
1270 1635
1270 1693
1270 1699
1270 1704
1270 1708
1270 1797
1270 1869
1270 1870
1270 1871
1270 1883
1270 1922
1270 1994
1270 2051
1270 2066
1270 2135
1270 2137
1270 2151
1270 2189
1270 2201
1270 2215
1270 2222
1270 2228
1270 2283
1270 2334
1270 2425
1270 2488
1270 2586
1270 2598
1270 2623
1270 2628
1270 2634
1270 2660
1270 2677
1271 1285
1271 1289
1271 1292
1271 1395
1271 1456
1271 1475
1271 1489
1271 1494
1271 1519
1271 1545
1271 1546
1271 1547
1271 1562
1271 1570
1271 1574
1271 1608
1271 1615
1271 1687
1271 1688
1271 1692
1271 1714
1271 1733
1271 1739
1271 1742
1271 1773
1271 1795
1271 1819
1271 1822
1271 1837
1271 1855
1271 1869
1271 1893
1271 1897
1271 1908
1271 1916
1271 1941
1271 1994
1271 2007
1271 2046
1271 2062
1271 2118
1271 2140
1271 2193
1271 2225
1271 2261
1271 2262
1271 2294
1271 2307
1271 2309
1271 2321
1271 2360
1271 2361
1271 2367
1271 2369
1271 2392
1271 2401
1271 2406
1271 2425
1271 2430
1271 2459
1271 2533
1271 2542
1271 2566
1271 2570
1271 2586
1271 2604
1271 2611
1271 2622
1271 2623
1271 2628
1271 2638
1272 1275
1272 1286
1272 1353
1272 1365
1272 1374
1272 1387
1272 1403
1272 1428
1272 1430
1272 1473
1272 1479
1272 1500
1272 1600
1272 1622
1272 1672
1272 1675
1272 1715
1272 1719
1272 1721
1272 1737
1272 1746
1272 1748
1272 1757
1272 1762
1272 1773
1272 1797
1272 1824
1272 1827
1272 1895
1272 1920
1272 1923
1272 1931
1272 1947
1272 1954
1272 1963
1272 1978
1272 1979
1272 1982
1272 1984
1272 2048
1272 2064
1272 2081
1272 2101
1272 2104
1272 2137
1272 2142
1272 2184
1272 2199
1272 2208
1272 2209
1272 2231
1272 2233
1272 2269
1272 2286
1272 2290
1272 2294
1272 2302
1272 2303
1272 2387
1272 2389
1272 2399
1272 2409
1272 2426
1272 2443
1272 2489
1272 2492
1272 2523
1272 2524
1272 2546
1272 2553
1272 2588
1272 2596
1272 2598
1272 2636
1272 2659
1272 2670
1272 2671
1273 1298
1273 1393
1273 1433
1273 1509
1273 1566
1273 1599
1273 1923
1273 1958
1273 2018
1273 2039
1273 2287
1273 2553
1273 2593
1273 2655
1273 2662
1274 1277
1274 1358
1274 1414
1274 1558
1274 1606
1274 1658
1274 1684
1274 1744
1274 1814
1274 1823
1274 1848
1274 1874
1274 2015
1274 2185
1274 2194
1274 2231
1274 2350
1274 2597
1274 2652
1275 1279
1275 1286
1275 1316
1275 1363
1275 1400
1275 1502
1275 1548
1275 1617
1275 1629
1275 1630
1275 1633
1275 1664
1275 1685
1275 1708
1275 1738
1275 1744
1275 1762
1275 1782
1275 1794
1275 1827
1275 1954
1275 1963
1275 1984
1275 2024
1275 2033
1275 2048
1275 2051
1275 2092
1275 2101
1275 2102
1275 2104
1275 2179
1275 2201
1275 2215
1275 2251
1275 2269
1275 2294
1275 2311
1275 2333
1275 2347
1275 2352
1275 2363
1275 2385
1275 2387
1275 2389
1275 2399
1275 2456
1275 2523
1275 2547
1275 2551
1275 2628
1275 2634
1275 2645
1275 2671
1276 1280
1276 1432
1276 1498
1276 1499
1276 1519
1276 1558
1276 1832
1276 1891
1276 1923
1276 2001
1276 2039
1276 2067
1276 2142
1276 2152
1276 2190
1276 2261
1276 2367
1276 2464
1276 2616
1276 2631
1276 2632
1277 1414
1277 1606
1277 2005
1277 2231
1278 1282
1278 1343
1278 1356
1278 1384
1278 1411
1278 1518
1278 1530
1278 1541
1278 1584
1278 1585
1278 1597
1278 1599
1278 1622
1278 1698
1278 1770
1278 1815
1278 1817
1278 1838
1278 1912
1278 1934
1278 2026
1278 2042
1278 2182
1278 2205
1278 2250
1278 2277
1278 2311
1278 2370
1278 2422
1278 2481
1278 2486
1278 2489
1278 2496
1278 2544
1278 2635
1278 2655
1278 2668
1279 1366
1279 1403
1279 1422
1279 1600
1279 1622
1279 1638
1279 1641
1279 1664
1279 1824
1279 1840
1279 1954
1279 2042
1279 2205
1279 2221
1279 2231
1279 2233
1279 2268
1279 2277
1279 2456
1279 2474
1280 1361
1280 1389
1280 1433
1280 1682
1280 2026
1280 2050
1280 2053
1280 2098
1280 2188
1280 2258
1280 2262
1280 2330
1280 2353
1280 2475
1280 2479
1280 2634
1281 1671
1281 1870
1281 1902
1281 1978
1282 1298
1282 1301
1282 1344
1282 1390
1282 1403
1282 1437
1282 1478
1282 1518
1282 1540
1282 1541
1282 1555
1282 1572
1282 1599
1282 1623
1282 1629
1282 1638
1282 1678
1282 1699
1282 1713
1282 1746
1282 1783
1282 1929
1282 1931
1282 1964
1282 2112
1282 2172
1282 2182
1282 2183
1282 2202
1282 2203
1282 2210
1282 2268
1282 2304
1282 2310
1282 2311
1282 2335
1282 2370
1282 2410
1282 2423
1282 2444
1282 2474
1282 2491
1282 2496
1282 2507
1282 2547
1282 2553
1282 2574
1282 2603
1282 2616
1282 2629
1282 2634
1282 2635
1282 2657
1282 2667
1284 1299
1284 1332
1284 1361
1284 1397
1284 1425
1284 1528
1284 1558
1284 1607
1284 1730
1284 1733
1284 1790
1284 1801
1284 1813
1284 1846
1284 1937
1284 1945
1284 1980
1284 2006
1284 2007
1284 2016
1284 2068
1284 2131
1284 2347
1284 2360
1284 2398
1284 2452
1284 2457
1284 2469
1284 2501
1284 2514
1284 2594
1284 2605
1284 2623
1284 2638
1284 2657
1285 1292
1285 1356
1285 1421
1285 1438
1285 1456
1285 1475
1285 1494
1285 1503
1285 1519
1285 1524
1285 1537
1285 1545
1285 1547
1285 1577
1285 1687
1285 1691
1285 1696
1285 1714
1285 1739
1285 1742
1285 1773
1285 1837
1285 1863
1285 1869
1285 1870
1285 1872
1285 1916
1285 1934
1285 1941
1285 2062
1285 2064
1285 2128
1285 2190
1285 2201
1285 2243
1285 2251
1285 2261
1285 2329
1285 2353
1285 2361
1285 2362
1285 2367
1285 2390
1285 2459
1285 2512
1285 2533
1285 2586
1285 2604
1285 2638
1286 1316
1286 1363
1286 1374
1286 1377
1286 1401
1286 1406
1286 1408
1286 1426
1286 1428
1286 1430
1286 1437
1286 1455
1286 1460
1286 1473
1286 1500
1286 1502
1286 1507
1286 1524
1286 1534
1286 1558
1286 1652
1286 1672
1286 1675
1286 1685
1286 1715
1286 1719
1286 1721
1286 1737
1286 1746
1286 1757
1286 1762
1286 1782
1286 1794
1286 1850
1286 1858
1286 1895
1286 1918
1286 1923
1286 1929
1286 1942
1286 1947
1286 1954
1286 1963
1286 1971
1286 1979
1286 1984
1286 2014
1286 2051
1286 2101
1286 2104
1286 2179
1286 2184
1286 2188
1286 2197
1286 2208
1286 2209
1286 2233
1286 2239
1286 2240
1286 2258
1286 2269
1286 2290
1286 2294
1286 2346
1286 2362
1286 2377
1286 2385
1286 2387
1286 2389
1286 2399
1286 2456
1286 2471
1286 2492
1286 2520
1286 2523
1286 2524
1286 2570
1286 2591
1286 2630
1286 2651
1286 2660
1286 2671
1286 2676
1287 2102
1288 1347
1288 1356
1288 1371
1288 1392
1288 1472
1288 1501
1288 1518
1288 1612
1288 1845
1288 2011
1288 2228
1288 2312
1288 2421
1288 2634
1288 2662
1289 1370
1289 1425
1289 1546
1289 1562
1289 1570
1289 1608
1289 1733
1289 1887
1289 1897
1289 1916
1289 2266
1289 2347
1289 2401
1289 2430
1289 2453
1289 2504
1289 2586
1289 2623
1289 2628
1289 2634
1289 2660
1290 1371
1290 1403
1290 1409
1290 1428
1290 1433
1290 1498
1290 1524
1290 1559
1290 1675
1290 1719
1290 1721
1290 1784
1290 1796
1290 1799
1290 1870
1290 1916
1290 1998
1290 2039
1290 2068
1290 2100
1290 2135
1290 2208
1290 2267
1290 2283
1290 2294
1290 2329
1290 2570
1290 2574
1290 2591
1290 2631
1291 1343
1291 1344
1291 1366
1291 1394
1291 1487
1291 1494
1291 1528
1291 1547
1291 1562
1291 1581
1291 1678
1291 1688
1291 1698
1291 1729
1291 1779
1291 1784
1291 1837
1291 1840
1291 1864
1291 1881
1291 1893
1291 1911
1291 1912
1291 1979
1291 2034
1291 2124
1291 2126
1291 2134
1291 2151
1291 2163
1291 2228
1291 2327
1291 2370
1291 2491
1291 2593
1291 2672
1292 1570
1292 1776
1292 1798
1292 1856
1292 1934
1292 2002
1292 2062
1292 2151
1292 2361
1292 2362
1292 2380
1292 2501
1293 1372
1293 1400
1293 1454
1293 1500
1293 1580
1293 1851
1293 1870
1293 1901
1293 1934
1293 1946
1293 2003
1293 2026
1293 2071
1293 2202
1293 2240
1293 2424
1293 2456
1293 2489
1293 2537
1294 1357
1294 1364
1294 1658
1294 1885
1294 2381
1294 2487
1294 2517
1295 1316
1295 1374
1295 1401
1295 1484
1295 1536
1295 1558
1295 1568
1295 1569
1295 1575
1295 1617
1295 1696
1295 1730
1295 1758
1295 1760
1295 1762
1295 1769
1295 1773
1295 1883
1295 1916
1295 1923
1295 1947
1295 1954
1295 1958
1295 1963
1295 1984
1295 2025
1295 2101
1295 2188
1295 2190
1295 2233
1295 2294
1295 2330
1295 2367
1295 2452
1295 2467
1295 2492
1295 2539
1295 2553
1295 2574
1295 2588
1295 2593
1295 2626
1296 1299
1296 1301
1296 1362
1296 1397
1296 1427
1296 1455
1296 1464
1296 1475
1296 1499
1296 1537
1296 1547
1296 1617
1296 1689
1296 1709
1296 1795
1296 1798
1296 1862
1296 1868
1296 1904
1296 1923
1296 1979
1296 2090
1296 2162
1296 2307
1296 2311
1296 2329
1296 2469
1296 2479
1296 2501
1296 2512
1296 2562
1296 2586
1296 2605
1296 2659
1297 1454
1297 1672
1297 1720
1297 1858
1297 1999
1297 2039
1298 1342
1298 1350
1298 1437
1298 1461
1298 1478
1298 1518
1298 1520
1298 1541
1298 1584
1298 1597
1298 1603
1298 1625
1298 1657
1298 1696
1298 1770
1298 1780
1298 1783
1298 1931
1298 1955
1298 2018
1298 2044
1298 2116
1298 2128
1298 2180
1298 2287
1298 2310
1298 2410
1298 2421
1298 2422
1298 2496
1298 2629
1298 2649
1298 2651
1299 1347
1299 1363
1299 1366
1299 1368
1299 1378
1299 1397
1299 1401
1299 1403
1299 1412
1299 1444
1299 1464
1299 1466
1299 1474
1299 1484
1299 1502
1299 1503
1299 1519
1299 1534
1299 1536
1299 1541
1299 1548
1299 1553
1299 1570
1299 1575
1299 1618
1299 1633
1299 1635
1299 1685
1299 1699
1299 1724
1299 1739
1299 1760
1299 1761
1299 1764
1299 1769
1299 1795
1299 1798
1299 1819
1299 1824
1299 1852
1299 1858
1299 1875
1299 1883
1299 1916
1299 1931
1299 1937
1299 1939
1299 1941
1299 1959
1299 1965
1299 1969
1299 1979
1299 1980
1299 1983
1299 2010
1299 2016
1299 2024
1299 2025
1299 2046
1299 2062
1299 2074
1299 2095
1299 2096
1299 2099
1299 2109
1299 2112
1299 2131
1299 2171
1299 2174
1299 2175
1299 2177
1299 2182
1299 2232
1299 2234
1299 2266
1299 2286
1299 2312
1299 2335
1299 2346
1299 2362
1299 2398
1299 2425
1299 2435
1299 2452
1299 2454
1299 2464
1299 2466
1299 2468
1299 2480
1299 2501
1299 2512
1299 2530
1299 2539
1299 2544
1299 2547
1299 2550
1299 2551
1299 2570
1299 2574
1299 2586
1299 2596
1299 2616
1299 2618
1299 2629
1299 2647
1299 2659
1299 2673
1300 1492
1300 1703
1300 1726
1300 1874
1300 1985
1300 2139
1300 2150
1300 2271
1300 2297
1300 2331
1300 2652
1301 1313
1301 1344
1301 1372
1301 1475
1301 1479
1301 1487
1301 1529
1301 1594
1301 1625
1301 1641
1301 1683
1301 1741
1301 1817
1301 1824
1301 1829
1301 1837
1301 1840
1301 1863
1301 1881
1301 1904
1301 1925
1301 1929
1301 1996
1301 2031
1301 2034
1301 2053
1301 2126
1301 2202
1301 2213
1301 2221
1301 2228
1301 2277
1301 2313
1301 2318
1301 2327
1301 2329
1301 2343
1301 2410
1301 2417
1301 2421
1301 2429
1301 2453
1301 2470
1301 2474
1301 2479
1301 2491
1301 2507
1301 2526
1301 2528
1301 2574
1301 2586
1301 2649
1301 2667
1302 1336
1302 1354
1302 1611
1302 1778
1302 2334
1303 1683
1303 1870
1303 1978
1303 2053
1303 2502
1303 2665
1304 1316
1304 1353
1304 1380
1304 1400
1304 1430
1304 1464
1304 1495
1304 1504
1304 1524
1304 1534
1304 1574
1304 1687
1304 1688
1304 1709
1304 1762
1304 1771
1304 1784
1304 1799
1304 1801
1304 1849
1304 1850
1304 1862
1304 1904
1304 1942
1304 1964
1304 1979
1304 1980
1304 1984
1304 2027
1304 2062
1304 2090
1304 2100
1304 2101
1304 2162
1304 2171
1304 2197
1304 2200
1304 2231
1304 2254
1304 2262
1304 2282
1304 2307
1304 2361
1304 2377
1304 2387
1304 2398
1304 2454
1304 2481
1304 2560
1304 2586
1304 2589
1304 2591
1304 2614
1304 2644
1304 2657
1304 2670
1304 2673
1305 1331
1305 1341
1305 1975
1305 1988
1305 2169
1305 2219
1305 2600
1306 1489
1306 1608
1306 1798
1306 1813
1306 1897
1306 1994
1306 2034
1306 2046
1306 2278
1306 2441
1306 2469
1306 2583
1307 1372
1307 1394
1307 1439
1307 1475
1307 1479
1307 1566
1307 1572
1307 1599
1307 1600
1307 1618
1307 1622
1307 1723
1307 1840
1307 1881
1307 1931
1307 2031
1307 2112
1307 2145
1307 2162
1307 2183
1307 2205
1307 2211
1307 2221
1307 2277
1307 2307
1307 2343
1307 2362
1307 2426
1307 2429
1307 2553
1307 2606
1307 2608
1307 2612
1307 2616
1307 2622
1307 2644
1307 2661
1307 2662
1308 1484
1308 1574
1308 1708
1308 1745
1308 1782
1308 1796
1308 1923
1308 2101
1308 2155
1308 2188
1308 2197
1308 2209
1308 2282
1308 2294
1308 2377
1308 2389
1308 2467
1308 2532
1308 2534
1308 2671
1309 1328
1309 1430
1309 1529
1309 1612
1309 1634
1309 1640
1309 1683
1309 1696
1309 1697
1309 1754
1309 1778
1309 1779
1309 1840
1309 1871
1309 1917
1309 1999
1309 2126
1309 2172
1309 2228
1309 2334
1309 2370
1309 2423
1309 2453
1309 2551
1309 2574
1309 2607
1309 2633
1309 2634
1309 2665
1310 1328
1310 1394
1310 1640
1310 1783
1310 2011
1310 2390
1310 2453
1310 2561
1311 1493
1311 1911
1311 2355
1311 2415
1312 1702
1312 2146
1312 2428
1313 1504
1313 1661
1313 1682
1313 1717
1313 1870
1313 1934
1313 2053
1313 2096
1313 2152
1313 2243
1313 2298
1313 2329
1313 2479
1314 1466
1314 1830
1314 2301
1314 2306
1314 2464
1315 1435
1315 1482
1315 1526
1315 1852
1315 1875
1315 1979
1315 2002
1315 2046
1315 2096
1315 2237
1315 2613
1315 2616
1315 2650
1315 2674
1316 1401
1316 1610
1316 1685
1316 1730
1316 1744
1316 1762
1316 1794
1316 1883
1316 1954
1316 1963
1316 1979
1316 1984
1316 2033
1316 2048
1316 2051
1316 2076
1316 2101
1316 2104
1316 2215
1316 2231
1316 2300
1316 2387
1316 2399
1316 2409
1316 2609
1316 2677
1317 1400
1317 1471
1317 1883
1317 1961
1317 2015
1317 2047
1317 2150
1317 2206
1317 2249
1317 2252
1317 2339
1317 2356
1318 1733
1318 1750
1318 1776
1318 1840
1318 2586
1318 2593
1318 2607
1318 2623
1319 2464
1319 2550
1320 1322
1320 1335
1320 1509
1320 1606
1320 1703
1320 1792
1320 1992
1320 2005
1320 2270
1320 2292
1320 2565
1320 2580
1320 2601
1321 1401
1321 1444
1321 1547
1321 1565
1321 1589
1321 1699
1321 1857
1321 1885
1321 1887
1321 2025
1321 2029
1321 2038
1321 2378
1321 2482
1321 2546
1321 2551
1321 2646
1321 2659
1322 1569
1322 1599
1322 1603
1322 1834
1322 1838
1322 1923
1322 1944
1322 2074
1322 2379
1322 2410
1322 2526
1322 2540
1322 2554
1322 2585
1322 2649
1322 2655
1324 2193
1325 1373
1325 1402
1325 1513
1325 1667
1325 1695
1325 1711
1325 1966
1325 2166
1325 2242
1325 2271
1325 2297
1325 2305
1325 2427
1325 2428
1325 2536
1325 2597
1326 1376
1326 1400
1326 1436
1326 1457
1326 1533
1326 1544
1326 1616
1326 1621
1326 1766
1326 1796
1326 1809
1326 1885
1326 1937
1326 2034
1326 2136
1326 2206
1326 2270
1326 2334
1326 2517
1326 2555
1326 2580
1326 2633
1327 1344
1327 1403
1327 1428
1327 1437
1327 1521
1327 1555
1327 1576
1327 1627
1327 1762
1327 1788
1327 1827
1327 1839
1327 1919
1327 1923
1327 1967
1327 1998
1327 2001
1327 2101
1327 2164
1327 2321
1327 2327
1327 2361
1327 2370
1327 2413
1327 2588
1327 2631
1328 1354
1328 1361
1328 1394
1328 1430
1328 1587
1328 1591
1328 1662
1328 1686
1328 1697
1328 1783
1328 1825
1328 2110
1328 2172
1328 2228
1328 2299
1328 2561
1328 2629
1328 2633
1328 2647
1329 1357
1329 1360
1329 1396
1329 1400
1329 1479
1329 1512
1329 1516
1329 1560
1329 1574
1329 1628
1329 1674
1329 1677
1329 1703
1329 1749
1329 1791
1329 1824
1329 1995
1329 2015
1329 2017
1329 2065
1329 2185
1329 2245
1329 2270
1329 2317
1329 2339
1329 2349
1329 2370
1329 2404
1329 2436
1329 2440
1329 2493
1329 2568
1329 2580
1329 2652
1329 2666
1330 1610
1330 1618
1330 1767
1330 2296
1330 2468
1330 2599
1331 1341
1331 1342
1331 1396
1331 1695
1331 1702
1331 1735
1331 1749
1331 1751
1331 1768
1331 1906
1331 2009
1331 2125
1331 2166
1331 2171
1331 2242
1331 2405
1332 1361
1332 1654
1332 1760
1332 1945
1332 2021
1332 2209
1332 2361
1333 1438
1333 1548
1333 1575
1333 1675
1333 1798
1333 1882
1333 1937
1333 2016
1333 2151
1333 2214
1333 2263
1333 2294
1333 2305
1333 2550
1333 2593
1334 1344
1334 1357
1334 1385
1334 1410
1334 1431
1334 1454
1334 1466
1334 1473
1334 1530
1334 1555
1334 1582
1334 1584
1334 1616
1334 1638
1334 1685
1334 1686
1334 1704
1334 1734
1334 1753
1334 1758
1334 1779
1334 1784
1334 1786
1334 1821
1334 1825
1334 1840
1334 1951
1334 1957
1334 2003
1334 2004
1334 2005
1334 2015
1334 2024
1334 2081
1334 2093
1334 2102
1334 2109
1334 2136
1334 2138
1334 2154
1334 2175
1334 2179
1334 2202
1334 2203
1334 2212
1334 2213
1334 2271
1334 2310
1334 2327
1334 2333
1334 2345
1334 2370
1334 2423
1334 2432
1334 2451
1334 2473
1334 2546
1334 2548
1334 2561
1334 2574
1334 2585
1334 2615
1334 2629
1334 2634
1335 1391
1335 1516
1335 1525
1335 1590
1335 1636
1335 1647
1335 2005
1335 2015
1335 2139
1335 2170
1335 2179
1335 2255
1335 2292
1335 2374
1335 2407
1335 2445
1335 2565
1336 1392
1336 1528
1336 1541
1336 1591
1336 1630
1336 1640
1336 1696
1336 1697
1336 1722
1336 1734
1336 1808
1336 1931
1336 2004
1336 2037
1336 2039
1336 2053
1336 2097
1336 2182
1336 2222
1336 2227
1336 2378
1336 2416
1336 2427
1336 2432
1336 2629
1337 1353
1337 1397
1337 1537
1337 1574
1337 1577
1337 1588
1337 1862
1337 1870
1337 1904
1337 1933
1337 1934
1337 2099
1337 2282
1337 2367
1337 2490
1337 2500
1339 1377
1339 1502
1339 1575
1339 1630
1339 1650
1339 1659
1339 1730
1339 1758
1339 1779
1339 1795
1339 1843
1339 1963
1339 1971
1339 2011
1339 2092
1339 2137
1339 2163
1339 2201
1339 2237
1339 2240
1339 2289
1339 2370
1339 2386
1339 2395
1339 2427
1339 2451
1339 2464
1339 2469
1339 2547
1339 2587
1339 2602
1339 2618
1339 2627
1339 2634
1340 1364
1340 1447
1340 1511
1340 1630
1340 1977
1340 2011
1340 2230
1340 2289
1340 2375
1340 2419
1340 2618
1341 1513
1341 1595
1341 1744
1341 1749
1341 1772
1341 1814
1341 1848
1341 1975
1341 2124
1341 2295
1341 2314
1341 2350
1341 2428
1341 2484
1341 2510
1341 2564
1342 1343
1342 1352
1342 1396
1342 1400
1342 1422
1342 1513
1342 1638
1342 1657
1342 1695
1342 1768
1342 1784
1342 1805
1342 1817
1342 1831
1342 1883
1342 1916
1342 1919
1342 1946
1342 1971
1342 1993
1342 2093
1342 2166
1342 2231
1342 2240
1342 2242
1342 2327
1342 2340
1342 2370
1342 2421
1342 2489
1342 2515
1342 2540
1342 2553
1342 2592
1342 2608
1343 1356
1343 1384
1343 1411
1343 1435
1343 1502
1343 1518
1343 1520
1343 1528
1343 1530
1343 1537
1343 1541
1343 1558
1343 1588
1343 1594
1343 1599
1343 1622
1343 1625
1343 1667
1343 1696
1343 1711
1343 1717
1343 1726
1343 1742
1343 1743
1343 1745
1343 1817
1343 1838
1343 1863
1343 1957
1343 1970
1343 1985
1343 2010
1343 2042
1343 2074
1343 2091
1343 2112
1343 2119
1343 2180
1343 2182
1343 2192
1343 2209
1343 2243
1343 2293
1343 2309
1343 2327
1343 2353
1343 2413
1343 2421
1343 2422
1343 2424
1343 2426
1343 2428
1343 2429
1343 2460
1343 2474
1343 2486
1343 2490
1343 2491
1343 2512
1343 2544
1343 2554
1343 2556
1343 2560
1343 2593
1343 2651
1343 2655
1343 2672
1344 1431
1344 1433
1344 1479
1344 1487
1344 1507
1344 1541
1344 1584
1344 1587
1344 1594
1344 1664
1344 1686
1344 1698
1344 1729
1344 1741
1344 1779
1344 1796
1344 1801
1344 1824
1344 1831
1344 1837
1344 1840
1344 1881
1344 1912
1344 1919
1344 1929
1344 1958
1344 1967
1344 1996
1344 1998
1344 2021
1344 2034
1344 2042
1344 2068
1344 2081
1344 2093
1344 2126
1344 2163
1344 2180
1344 2202
1344 2213
1344 2217
1344 2221
1344 2277
1344 2289
1344 2299
1344 2318
1344 2327
1344 2343
1344 2370
1344 2474
1344 2536
1344 2553
1344 2585
1344 2586
1344 2615
1345 1502
1345 1630
1345 1659
1345 2011
1345 2016
1345 2048
1345 2073
1345 2201
1345 2237
1345 2258
1345 2330
1345 2634
1346 1353
1346 1425
1346 1608
1346 1784
1346 1795
1346 1798
1346 1830
1346 1914
1346 1923
1346 1945
1346 1979
1346 2016
1346 2021
1346 2078
1346 2135
1346 2177
1346 2208
1346 2225
1346 2352
1346 2530
1346 2532
1346 2593
1346 2623
1346 2636
1347 1363
1347 1397
1347 1444
1347 1472
1347 1502
1347 1503
1347 1536
1347 1613
1347 1633
1347 1724
1347 1760
1347 1769
1347 1820
1347 2010
1347 2074
1347 2112
1347 2182
1347 2201
1347 2228
1347 2302
1347 2312
1347 2346
1347 2362
1347 2365
1347 2453
1347 2456
1347 2539
1347 2544
1347 2618
1347 2634
1348 1380
1348 1902
1348 2502
1348 2618
1349 1582
1349 1630
1349 2110
1349 2202
1349 2432
1349 2546
1349 2626
1350 1387
1350 1408
1350 1438
1350 1461
1350 1469
1350 1478
1350 1518
1350 1541
1350 1597
1350 1603
1350 1622
1350 1623
1350 1629
1350 1687
1350 1741
1350 1770
1350 1786
1350 1824
1350 1832
1350 1918
1350 1923
1350 1931
1350 1961
1350 2018
1350 2024
1350 2037
1350 2039
1350 2068
1350 2112
1350 2128
1350 2180
1350 2182
1350 2207
1350 2221
1350 2231
1350 2310
1350 2313
1350 2335
1350 2370
1350 2399
1350 2413
1350 2437
1350 2486
1350 2489
1350 2496
1350 2548
1350 2612
1350 2634
1350 2635
1351 1389
1351 1428
1351 1432
1351 1437
1351 1462
1351 1465
1351 1498
1351 1682
1351 1796
1351 1799
1351 1806
1351 1870
1351 1876
1351 1944
1351 1998
1351 2027
1351 2073
1351 2155
1351 2179
1351 2267
1351 2299
1351 2359
1351 2399
1351 2640
1352 1467
1352 2421
1352 2629
1353 1362
1353 1413
1353 1427
1353 1455
1353 1503
1353 1537
1353 1561
1353 1617
1353 1709
1353 1730
1353 1736
1353 1762
1353 1795
1353 1798
1353 1799
1353 1862
1353 1870
1353 1904
1353 1923
1353 1934
1353 1939
1353 1945
1353 1954
1353 1963
1353 1979
1353 1984
1353 2090
1353 2099
1353 2140
1353 2143
1353 2177
1353 2179
1353 2212
1353 2251
1353 2261
1353 2282
1353 2294
1353 2337
1353 2367
1353 2370
1353 2452
1353 2532
1353 2608
1353 2659
1353 2673
1354 1355
1354 1393
1354 1533
1354 1587
1354 1591
1354 1597
1354 1616
1354 1648
1354 1697
1354 1724
1354 1730
1354 1778
1354 1779
1354 1825
1354 1846
1354 2007
1354 2025
1354 2076
1354 2092
1354 2110
1354 2172
1354 2182
1354 2241
1354 2523
1354 2626
1354 2633
1354 2662
1355 1393
1355 1468
1355 1533
1355 1582
1355 1587
1355 1648
1355 1683
1355 1778
1355 1783
1355 1796
1355 1809
1355 1824
1355 1860
1355 1870
1355 1915
1355 1917
1355 1920
1355 1928
1355 1931
1355 1964
1355 1994
1355 2011
1355 2034
1355 2037
1355 2095
1355 2110
1355 2172
1355 2175
1355 2180
1355 2221
1355 2251
1355 2310
1355 2333
1355 2353
1355 2413
1355 2423
1355 2544
1355 2553
1355 2559
1355 2563
1355 2603
1355 2607
1355 2626
1355 2629
1355 2634
1355 2643
1355 2665
1356 1372
1356 1461
1356 1475
1356 1494
1356 1518
1356 1530
1356 1533
1356 1541
1356 1549
1356 1577
1356 1594
1356 1599
1356 1630
1356 1638
1356 1673
1356 1708
1356 1717
1356 1783
1356 1817
1356 1835
1356 1845
1356 1851
1356 1870
1356 1883
1356 1910
1356 1917
1356 1934
1356 1946
1356 1970
1356 2031
1356 2039
1356 2053
1356 2112
1356 2163
1356 2182
1356 2243
1356 2251
1356 2297
1356 2300
1356 2318
1356 2327
1356 2353
1356 2361
1356 2367
1356 2387
1356 2421
1356 2426
1356 2429
1356 2444
1356 2470
1356 2491
1356 2544
1356 2649
1356 2668
1357 1360
1357 1400
1357 1415
1357 1471
1357 1492
1357 1574
1357 1628
1357 1668
1357 1680
1357 1703
1357 1874
1357 1934
1357 1949
1357 1962
1357 1975
1357 1995
1357 2003
1357 2005
1357 2015
1357 2017
1357 2084
1357 2087
1357 2136
1357 2150
1357 2154
1357 2219
1357 2251
1357 2255
1357 2270
1357 2285
1357 2295
1357 2297
1357 2331
1357 2349
1357 2473
1357 2510
1357 2516
1357 2580
1357 2585
1357 2652
1357 2659
1357 2666
1358 1360
1358 1400
1358 1476
1358 1703
1358 1744
1358 1810
1358 1823
1358 1848
1358 1866
1358 1906
1358 1930
1358 2003
1358 2005
1358 2015
1358 2115
1358 2137
1358 2150
1358 2242
1358 2255
1358 2516
1358 2541
1358 2568
1358 2578
1358 2585
1359 1391
1359 1514
1359 1619
1359 1628
1359 1636
1359 1874
1359 2003
1359 2015
1359 2167
1359 2255
1359 2328
1359 2602
1359 2666
1360 1402
1360 1471
1360 1492
1360 1677
1360 1695
1360 1703
1360 1712
1360 1726
1360 1743
1360 1744
1360 1791
1360 1823
1360 1848
1360 1906
1360 1995
1360 2005
1360 2009
1360 2015
1360 2017
1360 2185
1360 2204
1360 2242
1360 2297
1360 2405
1360 2484
1360 2652
1360 2672
1361 1425
1361 1433
1361 1442
1361 1451
1361 1472
1361 1481
1361 1534
1361 1547
1361 1574
1361 1613
1361 1634
1361 1635
1361 1721
1361 1760
1361 1869
1361 1885
1361 1898
1361 1905
1361 1923
1361 1937
1361 2050
1361 2135
1361 2190
1361 2209
1361 2258
1361 2277
1361 2283
1361 2286
1361 2302
1361 2312
1361 2330
1361 2347
1361 2377
1361 2409
1361 2425
1361 2467
1361 2475
1361 2570
1361 2578
1361 2598
1361 2599
1361 2616
1361 2623
1361 2634
1361 2660
1361 2677
1362 1427
1362 1481
1362 1494
1362 1574
1362 1688
1362 1795
1362 1798
1362 1969
1362 1979
1362 2090
1362 2140
1362 2225
1362 2390
1362 2500
1362 2604
1362 2614
1363 1412
1363 1444
1363 1472
1363 1474
1363 1484
1363 1500
1363 1502
1363 1503
1363 1519
1363 1536
1363 1541
1363 1624
1363 1633
1363 1652
1363 1664
1363 1708
1363 1715
1363 1724
1363 1736
1363 1738
1363 1760
1363 1788
1363 1819
1363 1835
1363 1923
1363 1967
1363 1979
1363 1983
1363 2046
1363 2048
1363 2051
1363 2074
1363 2112
1363 2161
1363 2215
1363 2302
1363 2312
1363 2346
1363 2363
1363 2365
1363 2385
1363 2387
1363 2399
1363 2435
1363 2456
1363 2538
1363 2539
1363 2544
1363 2547
1363 2563
1363 2593
1363 2616
1363 2618
1363 2671
1363 2673
1364 1447
1364 1511
1364 1630
1364 1650
1364 2011
1364 2135
1364 2166
1364 2230
1364 2240
1364 2289
1364 2339
1364 2375
1364 2419
1364 2487
1364 2618
1365 1430
1365 1494
1365 1495
1365 1500
1365 1521
1365 1532
1365 1652
1365 1708
1365 1773
1365 1982
1365 1998
1365 2091
1365 2188
1365 2189
1365 2380
1365 2385
1365 2389
1365 2456
1365 2544
1365 2570
1365 2584
1366 1387
1366 1394
1366 1507
1366 1520
1366 1533
1366 1597
1366 1600
1366 1622
1366 1641
1366 1662
1366 1664
1366 1686
1366 1699
1366 1824
1366 1920
1366 1955
1366 1979
1366 2011
1366 2095
1366 2175
1366 2310
1366 2318
1366 2356
1366 2370
1366 2395
1366 2426
1366 2489
1366 2501
1366 2629
1366 2673
1367 1790
1368 1696
1368 1852
1368 1854
1368 1858
1368 1937
1368 2027
1368 2232
1368 2501
1368 2530
1368 2596
1368 2659
1369 1518
1369 1563
1370 1425
1370 1610
1370 1618
1370 1676
1370 1767
1370 2296
1370 2468
1371 1374
1371 1426
1371 1428
1371 1473
1371 1484
1371 1498
1371 1545
1371 1558
1371 1649
1371 1654
1371 1719
1371 1721
1371 1799
1371 1835
1371 1883
1371 1942
1371 1998
1371 2067
1371 2155
1371 2208
1371 2239
1371 2299
1371 2329
1371 2367
1371 2387
1371 2456
1371 2591
1371 2676
1372 1475
1372 1497
1372 1524
1372 1531
1372 1537
1372 1541
1372 1549
1372 1594
1372 1625
1372 1709
1372 1717
1372 1752
1372 1851
1372 1863
1372 1868
1372 1910
1372 2034
1372 2038
1372 2053
1372 2073
1372 2128
1372 2163
1372 2182
1372 2243
1372 2277
1372 2318
1372 2329
1372 2343
1372 2413
1372 2429
1372 2444
1372 2470
1372 2474
1372 2479
1372 2507
1372 2518
1372 2526
1372 2649
1372 2651
1372 2655
1373 1434
1373 1438
1373 1547
1373 1750
1373 1760
1373 1885
1373 2316
1373 2324
1373 2482
1374 1473
1374 1484
1374 1494
1374 1500
1374 1519
1374 1611
1374 1635
1374 1719
1374 1746
1374 1748
1374 1876
1374 1927
1374 1954
1374 2050
1374 2091
1374 2137
1374 2188
1374 2264
1374 2267
1374 2303
1374 2437
1374 2456
1374 2467
1374 2544
1374 2578
1374 2636
1374 2676
1375 1451
1375 1696
1375 2321
1375 2631
1376 1544
1376 1621
1376 1712
1376 1885
1376 2040
1376 2450
1376 2495
1376 2517
1377 1502
1377 1507
1377 1630
1377 1650
1377 1659
1377 1664
1377 1746
1377 1779
1377 1843
1377 1947
1377 1954
1377 1971
1377 2011
1377 2211
1377 2240
1377 2251
1377 2269
1377 2289
1377 2387
1377 2451
1377 2464
1377 2492
1377 2513
1377 2618
1377 2670
1378 1397
1378 1427
1378 1479
1378 1498
1378 1553
1378 1567
1378 1798
1378 1852
1378 1914
1378 1979
1378 2225
1378 2282
1378 2401
1378 2501
1378 2659
1378 2673
1379 1423
1379 1639
1379 1784
1379 1895
1379 2001
1379 2007
1379 2104
1379 2177
1379 2188
1379 2387
1379 2476
1379 2523
1379 2532
1379 2671
1380 1389
1380 1435
1380 1481
1380 1602
1380 1660
1380 2143
1380 2282
1380 2396
1381 1415
1381 1496
1381 1583
1381 1711
1381 1726
1381 1932
1381 1962
1381 1968
1381 2084
1381 2124
1381 2150
1381 2157
1381 2207
1381 2248
1381 2256
1381 2541
1381 2659
1382 1591
1382 2182
1382 2378
1384 1439
1384 1454
1384 1476
1384 1530
1384 1541
1384 1594
1384 1638
1384 1686
1384 1734
1384 1760
1384 1957
1384 2093
1384 2179
1384 2473
1384 2615
1385 1408
1385 1430
1385 1431
1385 1454
1385 1537
1385 1545
1385 1575
1385 1704
1385 1709
1385 1753
1385 1779
1385 1821
1385 1836
1385 1929
1385 1957
1385 2081
1385 2093
1385 2109
1385 2112
1385 2138
1385 2473
1385 2615
1386 1413
1386 1460
1386 1694
1386 2533
1386 2577
1386 2650
1387 1399
1387 1411
1387 1439
1387 1461
1387 1518
1387 1533
1387 1600
1387 1622
1387 1641
1387 1664
1387 1770
1387 1809
1387 1824
1387 1955
1387 2050
1387 2084
1387 2095
1387 2183
1387 2192
1387 2205
1387 2209
1387 2231
1387 2318
1387 2353
1387 2426
1387 2486
1387 2489
1387 2496
1388 1737
1389 1430
1389 1438
1389 1498
1389 1505
1389 1519
1389 1547
1389 1549
1389 1562
1389 1577
1389 1594
1389 1609
1389 1624
1389 1661
1389 1682
1389 1709
1389 1717
1389 1773
1389 1861
1389 1868
1389 1870
1389 1883
1389 1901
1389 1933
1389 1934
1389 1983
1389 2050
1389 2053
1389 2073
1389 2078
1389 2119
1389 2155
1389 2179
1389 2199
1389 2243
1389 2262
1389 2267
1389 2329
1389 2353
1389 2367
1389 2380
1389 2435
1389 2479
1389 2490
1389 2534
1389 2544
1389 2551
1389 2585
1389 2640
1389 2651
1390 1403
1390 1540
1390 1541
1390 1555
1390 1575
1390 1623
1390 1629
1390 1638
1390 1696
1390 1705
1390 1713
1390 1720
1390 1746
1390 1831
1390 1931
1390 1947
1390 2004
1390 2112
1390 2182
1390 2268
1390 2310
1390 2423
1390 2444
1390 2483
1390 2629
1391 1403
1391 1578
1391 1628
1391 1636
1391 1667
1391 1680
1391 1681
1391 1713
1391 1779
1391 1780
1391 1874
1391 1930
1391 1945
1391 1985
1391 2003
1391 2015
1391 2069
1391 2123
1391 2136
1391 2167
1391 2175
1391 2203
1391 2255
1391 2358
1391 2516
1391 2580
1391 2666
1392 1472
1392 1533
1392 1591
1392 1613
1392 1668
1392 1734
1392 2004
1392 2053
1392 2203
1392 2228
1392 2544
1392 2634
1393 1455
1393 1468
1393 1531
1393 1533
1393 1587
1393 1596
1393 1648
1393 1662
1393 1832
1393 1860
1393 1881
1393 1920
1393 1964
1393 2037
1393 2044
1393 2099
1393 2128
1393 2163
1393 2172
1393 2179
1393 2180
1393 2188
1393 2251
1393 2290
1393 2353
1393 2380
1393 2389
1393 2399
1393 2426
1393 2544
1393 2553
1393 2585
1393 2626
1393 2629
1393 2643
1394 1422
1394 1456
1394 1547
1394 1574
1394 1599
1394 1678
1394 1729
1394 1837
1394 1931
1394 2095
1394 2124
1394 2147
1394 2201
1394 2367
1394 2370
1394 2395
1394 2459
1394 2505
1394 2561
1394 2593
1395 1425
1395 1427
1395 1494
1395 1546
1395 1562
1395 1570
1395 1579
1395 1608
1395 1615
1395 1616
1395 1634
1395 1693
1395 1733
1395 1742
1395 1750
1395 1758
1395 1760
1395 1778
1395 1796
1395 1821
1395 1840
1395 1869
1395 1871
1395 1887
1395 1897
1395 1908
1395 1912
1395 1916
1395 1941
1395 1994
1395 1999
1395 2046
1395 2062
1395 2066
1395 2083
1395 2118
1395 2164
1395 2211
1395 2212
1395 2228
1395 2260
1395 2278
1395 2296
1395 2316
1395 2326
1395 2347
1395 2392
1395 2401
1395 2425
1395 2453
1395 2460
1395 2488
1395 2528
1395 2533
1395 2561
1395 2570
1395 2575
1395 2586
1395 2607
1395 2611
1395 2615
1395 2623
1395 2628
1395 2633
1395 2634
1396 1513
1396 1619
1396 1695
1396 1735
1396 1768
1396 1814
1396 2009
1396 2125
1396 2340
1396 2666
1397 1426
1397 1444
1397 1474
1397 1484
1397 1502
1397 1503
1397 1504
1397 1536
1397 1541
1397 1564
1397 1567
1397 1633
1397 1642
1397 1709
1397 1715
1397 1724
1397 1760
1397 1761
1397 1769
1397 1773
1397 1774
1397 1788
1397 1795
1397 1798
1397 1819
1397 1846
1397 1852
1397 1858
1397 1875
1397 1901
1397 1904
1397 1923
1397 1933
1397 1937
1397 1938
1397 1947
1397 1979
1397 1980
1397 2010
1397 2027
1397 2046
1397 2074
1397 2112
1397 2118
1397 2146
1397 2179
1397 2199
1397 2225
1397 2251
1397 2262
1397 2312
1397 2361
1397 2362
1397 2367
1397 2410
1397 2449
1397 2501
1397 2539
1397 2544
1397 2547
1397 2562
1397 2586
1397 2605
1397 2618
1397 2634
1397 2659
1397 2673
1397 2674
1398 1616
1398 1683
1398 1750
1398 1800
1398 1809
1398 2034
1398 2041
1398 2092
1398 2144
1398 2210
1398 2324
1398 2362
1398 2515
1398 2547
1398 2665
1398 2669
1399 1909
1399 2426
1400 1402
1400 1429
1400 1492
1400 1500
1400 1513
1400 1541
1400 1590
1400 1606
1400 1611
1400 1681
1400 1702
1400 1722
1400 1726
1400 1738
1400 1744
1400 1755
1400 1791
1400 1811
1400 1863
1400 1911
1400 1949
1400 1962
1400 1968
1400 2003
1400 2005
1400 2015
1400 2017
1400 2020
1400 2086
1400 2087
1400 2124
1400 2157
1400 2185
1400 2230
1400 2242
1400 2249
1400 2254
1400 2292
1400 2297
1400 2323
1400 2328
1400 2352
1400 2364
1400 2410
1400 2415
1400 2428
1400 2447
1400 2486
1400 2501
1400 2526
1400 2553
1400 2555
1400 2557
1400 2564
1400 2603
1400 2672
1401 1468
1401 1495
1401 1519
1401 1534
1401 1570
1401 1635
1401 1685
1401 1699
1401 1730
1401 1744
1401 1762
1401 1773
1401 1783
1401 1883
1401 1885
1401 1916
1401 1924
1401 1938
1401 1941
1401 1954
1401 1963
1401 1979
1401 1980
1401 1983
1401 1984
1401 2025
1401 2037
1401 2083
1401 2101
1401 2137
1401 2201
1401 2246
1401 2275
1401 2312
1401 2342
1401 2380
1401 2399
1401 2434
1401 2435
1401 2501
1401 2551
1401 2570
1401 2574
1401 2618
1401 2660
1401 2673
1402 1500
1402 1516
1402 1544
1402 1574
1402 1681
1402 1686
1402 1698
1402 1726
1402 1814
1402 1874
1402 1906
1402 1930
1402 1934
1402 1946
1402 1985
1402 2005
1402 2015
1402 2149
1402 2150
1402 2157
1402 2350
1402 2420
1402 2541
1402 2557
1402 2568
1403 1412
1403 1437
1403 1494
1403 1518
1403 1540
1403 1572
1403 1579
1403 1623
1403 1629
1403 1638
1403 1664
1403 1675
1403 1715
1403 1723
1403 1761
1403 1769
1403 1773
1403 1839
1403 1852
1403 1875
1403 1890
1403 1920
1403 1931
1403 1945
1403 1947
1403 1951
1403 1963
1403 1979
1403 1984
1403 1998
1403 2007
1403 2021
1403 2027
1403 2050
1403 2060
1403 2067
1403 2112
1403 2201
1403 2202
1403 2267
1403 2268
1403 2287
1403 2310
1403 2371
1403 2410
1403 2444
1403 2458
1403 2501
1403 2523
1403 2547
1403 2573
1403 2593
1403 2598
1403 2613
1403 2616
1403 2629
1404 1421
1404 1508
1404 1524
1404 1535
1404 1537
1404 1588
1404 1709
1404 1718
1404 1752
1404 1862
1404 1904
1404 1934
1404 2073
1404 2099
1404 2329
1404 2461
1404 2479
1404 2481
1404 2499
1404 2586
1405 1442
1405 1548
1405 1579
1405 1745
1405 1796
1405 1829
1405 1870
1405 1921
1405 1998
1405 2209
1405 2299
1405 2474
1405 2637
1406 1428
1406 1437
1406 1494
1406 1500
1406 1519
1406 1562
1406 1588
1406 1620
1406 1649
1406 1652
1406 1708
1406 1721
1406 1738
1406 1745
1406 1871
1406 1902
1406 1942
1406 1944
1406 1949
1406 1978
1406 2048
1406 2051
1406 2119
1406 2144
1406 2187
1406 2189
1406 2208
1406 2215
1406 2239
1406 2324
1406 2352
1406 2363
1406 2385
1406 2387
1406 2456
1406 2515
1406 2520
1406 2591
1406 2631
1407 1620
1407 2324
1408 1431
1408 1507
1408 1641
1408 1704
1408 1753
1408 1758
1408 1784
1408 1821
1408 1929
1408 1957
1408 2081
1408 2109
1408 2138
1408 2182
1408 2202
1408 2206
1408 2213
1408 2633
1409 1427
1409 1430
1409 1468
1409 1494
1409 1495
1409 1507
1409 1534
1409 1592
1409 1652
1409 1659
1409 1687
1409 1699
1409 1708
1409 1748
1409 1769
1409 1782
1409 1784
1409 1850
1409 1864
1409 1890
1409 1900
1409 1931
1409 1963
1409 1979
1409 2131
1409 2151
1409 2208
1409 2212
1409 2231
1409 2235
1409 2311
1409 2335
1409 2345
1409 2370
1409 2385
1409 2389
1409 2458
1409 2464
1409 2530
1409 2593
1409 2670
1409 2673
1410 1461
1410 1582
1410 1724
1410 1825
1410 1881
1410 1935
1410 2109
1410 2172
1410 2313
1410 2335
1410 2370
1410 2617
1411 1463
1411 1518
1411 1530
1411 1545
1411 1574
1411 1585
1411 1597
1411 1599
1411 1622
1411 1692
1411 1770
1411 1803
1411 1838
1411 1870
1411 1955
1411 2039
1411 2042
1411 2353
1411 2426
1411 2486
1411 2489
1411 2544
1411 2577
1411 2644
1411 2662
1412 1430
1412 1464
1412 1499
1412 1500
1412 1502
1412 1524
1412 1536
1412 1553
1412 1561
1412 1598
1412 1601
1412 1652
1412 1659
1412 1660
1412 1675
1412 1696
1412 1736
1412 1737
1412 1738
1412 1784
1412 1788
1412 1790
1412 1799
1412 1822
1412 1830
1412 1835
1412 1854
1412 1870
1412 1888
1412 1893
1412 1901
1412 1923
1412 1931
1412 1942
1412 1945
1412 1965
1412 1979
1412 2016
1412 2048
1412 2052
1412 2093
1412 2114
1412 2147
1412 2162
1412 2199
1412 2232
1412 2294
1412 2309
1412 2315
1412 2332
1412 2363
1412 2377
1412 2385
1412 2387
1412 2456
1412 2469
1412 2501
1412 2547
1412 2577
1412 2593
1412 2632
1412 2634
1412 2640
1412 2659
1412 2673
1412 2676
1413 1460
1413 1694
1413 1798
1413 1888
1413 1903
1413 1945
1413 1954
1413 1963
1413 1979
1413 2002
1413 2177
1413 2197
1413 2235
1413 2354
1413 2460
1413 2520
1413 2532
1413 2577
1413 2673
1414 1606
1414 1722
1414 1744
1414 1906
1414 1932
1414 1934
1414 1946
1414 2150
1414 2154
1414 2157
1414 2194
1414 2242
1414 2255
1414 2350
1414 2541
1414 2580
1414 2601
1414 2652
1414 2672
1415 1873
1415 1962
1415 2011
1415 2248
1415 2256
1416 1430
1416 1439
1416 1510
1416 1533
1416 1570
1416 1575
1416 1696
1416 1797
1416 1847
1416 1852
1416 1899
1416 1903
1416 1937
1416 2016
1416 2062
1416 2138
1416 2172
1416 2212
1416 2233
1416 2294
1416 2302
1416 2309
1416 2351
1416 2365
1416 2369
1416 2457
1416 2530
1416 2633
1417 1742
1417 2219
1418 1564
1419 1430
1419 1530
1419 1545
1419 1571
1419 2162
1419 2294
1419 2365
1419 2457
1419 2536
1421 1577
1421 1637
1421 1870
1421 1933
1421 1934
1421 2131
1421 2261
1421 2297
1422 1541
1422 1582
1422 1594
1422 1638
1422 1664
1422 1670
1422 1686
1422 1713
1422 1805
1422 1817
1422 1831
1422 1917
1422 1919
1422 2081
1422 2093
1422 2110
1422 2147
1422 2210
1422 2228
1422 2240
1422 2241
1422 2270
1422 2327
1422 2345
1422 2370
1422 2397
1422 2417
1422 2421
1422 2432
1422 2489
1422 2505
1422 2507
1422 2515
1422 2561
1422 2592
1422 2608
1423 2014
1424 1452
1424 1507
1424 1558
1424 1574
1424 1662
1424 1714
1424 1833
1424 2584
1424 2638
1425 1427
1425 1442
1425 1466
1425 1495
1425 1608
1425 1618
1425 1689
1425 1767
1425 1795
1425 1798
1425 1897
1425 1905
1425 1979
1425 1994
1425 2046
1425 2062
1425 2066
1425 2078
1425 2135
1425 2173
1425 2193
1425 2212
1425 2225
1425 2263
1425 2278
1425 2309
1425 2386
1425 2392
1425 2452
1425 2468
1425 2549
1425 2566
1425 2586
1425 2605
1425 2623
1425 2628
1425 2634
1425 2677
1426 1473
1426 1521
1426 1562
1426 1588
1426 1675
1426 1750
1426 1769
1426 1790
1426 1799
1426 1829
1426 1870
1426 1883
1426 1902
1426 1918
1426 1954
1426 1963
1426 1984
1426 2025
1426 2050
1426 2101
1426 2119
1426 2137
1426 2155
1426 2171
1426 2398
1426 2434
1426 2435
1426 2471
1426 2492
1426 2578
1426 2588
1426 2634
1426 2651
1426 2676
1427 1456
1427 1466
1427 1481
1427 1494
1427 1545
1427 1547
1427 1688
1427 1691
1427 1708
1427 1736
1427 1787
1427 1795
1427 1798
1427 1837
1427 1857
1427 1864
1427 1969
1427 1979
1427 2006
1427 2016
1427 2090
1427 2225
1427 2367
1427 2370
1427 2390
1427 2433
1427 2500
1427 2562
1427 2614
1427 2623
1427 2651
1427 2659
1427 2670
1428 1437
1428 1473
1428 1498
1428 1500
1428 1524
1428 1579
1428 1649
1428 1673
1428 1675
1428 1719
1428 1721
1428 1782
1428 1796
1428 1799
1428 1845
1428 1918
1428 1923
1428 1942
1428 1944
1428 1945
1428 2014
1428 2137
1428 2142
1428 2155
1428 2171
1428 2188
1428 2208
1428 2209
1428 2239
1428 2267
1428 2294
1428 2299
1428 2362
1428 2387
1428 2399
1428 2471
1428 2497
1428 2520
1428 2578
1428 2585
1428 2591
1428 2593
1428 2645
1428 2671
1428 2676
1429 1560
1429 1866
1429 1878
1429 1922
1429 2037
1429 2156
1429 2204
1429 2393
1429 2621
1429 2656
1430 1495
1430 1498
1430 1509
1430 1575
1430 1599
1430 1635
1430 1647
1430 1687
1430 1688
1430 1689
1430 1696
1430 1702
1430 1736
1430 1743
1430 1763
1430 1772
1430 1783
1430 1796
1430 1797
1430 1814
1430 1847
1430 1864
1430 1876
1430 1878
1430 1888
1430 1894
1430 1899
1430 1903
1430 1920
1430 1931
1430 1934
1430 1945
1430 1979
1430 2012
1430 2016
1430 2050
1430 2053
1430 2062
1430 2111
1430 2119
1430 2138
1430 2145
1430 2146
1430 2151
1430 2171
1430 2172
1430 2179
1430 2181
1430 2184
1430 2189
1430 2190
1430 2205
1430 2231
1430 2233
1430 2235
1430 2241
1430 2245
1430 2263
1430 2279
1430 2282
1430 2294
1430 2297
1430 2309
1430 2365
1430 2370
1430 2428
1430 2460
1430 2483
1430 2506
1430 2534
1430 2556
1430 2597
1430 2598
1430 2608
1430 2651
1430 2659
1430 2662
1430 2671
1430 2673
1431 1454
1431 1570
1431 1616
1431 1697
1431 1704
1431 1753
1431 1758
1431 1779
1431 1821
1431 1840
1431 1887
1431 1897
1431 1929
1431 2093
1431 2109
1431 2138
1431 2203
1431 2206
1431 2228
1431 2326
1431 2432
1431 2473
1431 2606
1431 2615
1432 1498
1432 1876
1432 2588
1433 1461
1433 1518
1433 1584
1433 1625
1433 1721
1433 1831
1433 1835
1433 1838
1433 1845
1433 1919
1433 1958
1433 2004
1433 2042
1433 2044
1433 2098
1433 2297
1433 2410
1433 2421
1433 2442
1433 2475
1433 2526
1433 2553
1433 2649
1433 2655
1434 1442
1434 1503
1434 1528
1434 1539
1434 1547
1434 1741
1434 1750
1434 1765
1434 1885
1434 1887
1434 1898
1434 1994
1434 2100
1434 2105
1434 2264
1434 2316
1434 2411
1435 1934
1435 2019
1435 2096
1435 2309
1435 2463
1435 2659
1436 1523
1436 1621
1437 1571
1437 1584
1437 1657
1437 1921
1437 1944
1437 1979
1437 1998
1437 2163
1437 2327
1437 2334
1437 2362
1437 2371
1437 2629
1437 2631
1438 1456
1438 1468
1438 1530
1438 1531
1438 1545
1438 1547
1438 1574
1438 1587
1438 1662
1438 1683
1438 1684
1438 1686
1438 1692
1438 1741
1438 1778
1438 1870
1438 1882
1438 2037
1438 2078
1438 2095
1438 2140
1438 2228
1438 2243
1438 2305
1438 2353
1438 2429
1438 2467
1438 2502
1438 2528
1438 2638
1438 2665
1439 1474
1439 1597
1439 1600
1439 1622
1439 1692
1439 1696
1439 1770
1439 1984
1439 1998
1439 2001
1439 2016
1439 2031
1439 2050
1439 2145
1439 2205
1439 2264
1439 2277
1439 2294
1439 2309
1439 2362
1439 2457
1439 2486
1439 2514
1439 2536
1439 2606
1439 2655
1440 1575
1440 1931
1440 2233
1440 2345
1440 2629
1442 1539
1442 1541
1442 1562
1442 1608
1442 1693
1442 1708
1442 1729
1442 1749
1442 1784
1442 1795
1442 1796
1442 1798
1442 1829
1442 1871
1442 1905
1442 1916
1442 1938
1442 1973
1442 1994
1442 2034
1442 2038
1442 2066
1442 2068
1442 2078
1442 2080
1442 2083
1442 2135
1442 2171
1442 2173
1442 2211
1442 2225
1442 2228
1442 2277
1442 2283
1442 2299
1442 2309
1442 2361
1442 2380
1442 2426
1442 2488
1442 2489
1442 2491
1442 2570
1442 2586
1442 2598
1442 2608
1442 2615
1442 2628
1442 2634
1442 2651
1442 2676
1443 1708
1443 1847
1443 2062
1443 2144
1443 2639
1444 1474
1444 1484
1444 1502
1444 1503
1444 1536
1444 1565
1444 1589
1444 1633
1444 1724
1444 1760
1444 1769
1444 1797
1444 1819
1444 1885
1444 1940
1444 2010
1444 2029
1444 2046
1444 2074
1444 2112
1444 2312
1444 2346
1444 2362
1444 2539
1444 2544
1444 2583
1444 2598
1444 2618
1444 2646
1445 1457
1445 1583
1445 1651
1445 1703
1445 2084
1445 2157
1445 2242
1445 2271
1446 1559
1446 1608
1446 1750
1446 1796
1446 2246
1447 1511
1447 1630
1447 1722
1447 1934
1447 2011
1447 2166
1447 2230
1447 2289
1447 2304
1447 2375
1447 2419
1447 2618
1448 1801
1448 2175
1449 1558
1449 1666
1449 1835
1449 2001
1449 2236
1449 2442
1451 1472
1451 1664
1451 1696
1451 1733
1451 1734
1451 1973
1451 2092
1451 2233
1451 2311
1451 2346
1451 2385
1451 2456
1451 2623
1451 2628
1452 1507
1452 1863
1453 2039
1453 2319
1453 2330
1454 1491
1454 1494
1454 1507
1454 1530
1454 1558
1454 1570
1454 1616
1454 1638
1454 1651
1454 1686
1454 1687
1454 1688
1454 1704
1454 1729
1454 1734
1454 1753
1454 1758
1454 1779
1454 1795
1454 1837
1454 1929
1454 1957
1454 2004
1454 2036
1454 2093
1454 2109
1454 2126
1454 2138
1454 2184
1454 2201
1454 2202
1454 2206
1454 2320
1454 2351
1454 2370
1454 2432
1454 2451
1454 2453
1454 2473
1454 2561
1454 2564
1454 2615
1454 2634
1454 2665
1455 1498
1455 1524
1455 1605
1455 1799
1455 1813
1455 1832
1455 1862
1455 1870
1455 1876
1455 1881
1455 1895
1455 2010
1455 2025
1455 2099
1455 2126
1455 2128
1455 2179
1455 2180
1455 2188
1455 2209
1455 2212
1455 2362
1455 2380
1455 2389
1455 2490
1455 2532
1455 2591
1455 2626
1455 2659
1456 1489
1456 1494
1456 1519
1456 1545
1456 1558
1456 1574
1456 1587
1456 1729
1456 1739
1456 1760
1456 1773
1456 1801
1456 1870
1456 1890
1456 2037
1456 2062
1456 2064
1456 2095
1456 2251
1456 2261
1456 2347
1456 2361
1456 2362
1456 2367
1456 2377
1456 2459
1456 2586
1456 2593
1456 2638
1457 1473
1457 1562
1457 1681
1457 1719
1457 1750
1457 1918
1457 1963
1457 2023
1457 2025
1457 2065
1457 2137
1457 2171
1457 2252
1457 2323
1457 2467
1457 2471
1457 2578
1458 1744
1459 1638
1459 1760
1460 1504
1460 1505
1460 1586
1460 1598
1460 1694
1460 1706
1460 1771
1460 1888
1460 1952
1460 1979
1460 2082
1460 2254
1460 2274
1460 2281
1460 2324
1460 2354
1460 2362
1460 2385
1460 2406
1460 2494
1460 2497
1460 2560
1460 2577
1460 2640
1460 2648
1460 2671
1461 1588
1461 1594
1461 1599
1461 1779
1461 1815
1461 1817
1461 1835
1461 1845
1461 1910
1461 1919
1461 2042
1461 2163
1461 2180
1461 2205
1461 2417
1461 2421
1461 2475
1461 2489
1461 2507
1461 2634
1462 1551
1462 1600
1462 1824
1462 1867
1462 2575
1462 2663
1463 1466
1463 1505
1463 1539
1463 1586
1463 1706
1463 1709
1463 1736
1463 1850
1463 1854
1463 1894
1463 1901
1463 1923
1463 1979
1463 2199
1463 2501
1463 2673
1464 1524
1464 1548
1464 1558
1464 1617
1464 1675
1464 1737
1464 1739
1464 1798
1464 1822
1464 1830
1464 1854
1464 1875
1464 1945
1464 1979
1464 1980
1464 2027
1464 2062
1464 2075
1464 2114
1464 2162
1464 2201
1464 2231
1464 2294
1464 2309
1464 2315
1464 2320
1464 2332
1464 2469
1464 2483
1464 2501
1464 2523
1464 2562
1464 2593
1464 2659
1464 2673
1465 1660
1465 1745
1465 1788
1465 1894
1466 1564
1466 1728
1466 1795
1466 1858
1466 1881
1466 2010
1466 2263
1466 2306
1466 2362
1466 2390
1466 2478
1466 2512
1467 1617
1467 2177
1467 2190
1467 2231
1467 2437
1467 2598
1468 1495
1468 1534
1468 1558
1468 1587
1468 1596
1468 1617
1468 1635
1468 1648
1468 1685
1468 1699
1468 1761
1468 1778
1468 1779
1468 1860
1468 1870
1468 1917
1468 1931
1468 1980
1468 2025
1468 2037
1468 2137
1468 2172
1468 2246
1468 2342
1468 2403
1468 2410
1468 2544
1468 2547
1468 2551
1468 2592
1468 2593
1468 2618
1468 2626
1468 2643
1468 2660
1468 2665
1469 1741
1470 1600
1470 1804
1470 1909
1470 2084
1470 2106
1470 2489
1470 2550
1470 2571
1471 1512
1471 1574
1471 1702
1471 1710
1471 1781
1471 1814
1471 1883
1471 1934
1471 1961
1471 2015
1471 2047
1471 2124
1471 2185
1471 2204
1471 2300
1472 1574
1472 1613
1472 1634
1472 1635
1472 1760
1472 1782
1472 1820
1472 1845
1472 1887
1472 1898
1472 1936
1472 1937
1472 1939
1472 2076
1472 2135
1472 2228
1472 2265
1472 2286
1472 2302
1472 2365
1472 2377
1472 2411
1472 2586
1472 2599
1472 2616
1472 2634
1472 2638
1472 2660
1473 1500
1473 1519
1473 1524
1473 1548
1473 1588
1473 1639
1473 1649
1473 1664
1473 1685
1473 1719
1473 1721
1473 1750
1473 1905
1473 1916
1473 1918
1473 1967
1473 2021
1473 2025
1473 2050
1473 2119
1473 2137
1473 2171
1473 2208
1473 2239
1473 2250
1473 2258
1473 2294
1473 2330
1473 2389
1473 2471
1473 2474
1473 2486
1473 2492
1473 2520
1473 2523
1473 2574
1473 2578
1473 2591
1473 2598
1473 2671
1473 2676
1474 1484
1474 1502
1474 1503
1474 1536
1474 1558
1474 1633
1474 1659
1474 1724
1474 1760
1474 1769
1474 1819
1474 1854
1474 1947
1474 1965
1474 2010
1474 2074
1474 2112
1474 2294
1474 2312
1474 2346
1474 2362
1474 2402
1474 2490
1474 2538
1474 2539
1474 2544
1474 2618
1475 1537
1475 1549
1475 1594
1475 1625
1475 1641
1475 1696
1475 1709
1475 1717
1475 1797
1475 1868
1475 1870
1475 1927
1475 1934
1475 1994
1475 2031
1475 2038
1475 2053
1475 2073
1475 2128
1475 2145
1475 2180
1475 2211
1475 2243
1475 2277
1475 2410
1475 2424
1475 2429
1475 2470
1475 2479
1475 2526
1475 2577
1475 2606
1475 2649
1475 2655
1476 1497
1476 1514
1476 1549
1476 1574
1476 1681
1476 1695
1476 1702
1476 1709
1476 1717
1476 1726
1476 1744
1476 1792
1476 1841
1476 1868
1476 1884
1476 1930
1476 1995
1476 2015
1476 2031
1476 2073
1476 2157
1476 2252
1476 2292
1476 2297
1476 2300
1476 2313
1476 2329
1476 2331
1476 2393
1476 2396
1476 2428
1476 2429
1476 2495
1476 2518
1476 2526
1476 2582
1477 1478
1477 1495
1477 1541
1477 1724
1477 1840
1477 1917
1477 2031
1477 2034
1477 2037
1477 2310
1477 2361
1477 2559
1477 2609
1478 1530
1478 1541
1478 1625
1478 1629
1478 1638
1478 1791
1478 1860
1478 2031
1478 2050
1478 2210
1478 2310
1478 2318
1478 2397
1478 2410
1478 2413
1478 2496
1478 2540
1478 2544
1479 1498
1479 1534
1479 1537
1479 1553
1479 1600
1479 1622
1479 1629
1479 1641
1479 1657
1479 1662
1479 1664
1479 1686
1479 1696
1479 1709
1479 1762
1479 1813
1479 1824
1479 1917
1479 1931
1479 1979
1479 2074
1479 2128
1479 2179
1479 2180
1479 2221
1479 2282
1479 2310
1479 2327
1479 2395
1479 2410
1479 2413
1479 2423
1479 2425
1479 2526
1479 2592
1479 2629
1479 2634
1479 2659
1480 1528
1480 1795
1480 2175
1480 2232
1480 2362
1481 1519
1481 1574
1481 1577
1481 1647
1481 1714
1481 1718
1481 1870
1481 1934
1481 1970
1481 2071
1481 2245
1481 2329
1481 2522
1481 2540
1481 2614
1481 2638
1481 2659
1481 2668
1482 1965
1482 2002
1482 2096
1482 2261
1482 2354
1482 2362
1482 2456
1482 2497
1482 2608
1482 2632
1482 2636
1483 1555
1483 1705
1483 2015
1483 2427
1483 2443
1483 2592
1484 1494
1484 1502
1484 1503
1484 1534
1484 1536
1484 1541
1484 1558
1484 1570
1484 1588
1484 1594
1484 1618
1484 1633
1484 1708
1484 1724
1484 1733
1484 1760
1484 1769
1484 1788
1484 1819
1484 1844
1484 1858
1484 1883
1484 1923
1484 1937
1484 1958
1484 1979
1484 2001
1484 2010
1484 2016
1484 2046
1484 2074
1484 2076
1484 2079
1484 2094
1484 2112
1484 2119
1484 2142
1484 2182
1484 2199
1484 2208
1484 2209
1484 2261
1484 2283
1484 2294
1484 2312
1484 2321
1484 2346
1484 2362
1484 2367
1484 2370
1484 2386
1484 2387
1484 2435
1484 2437
1484 2464
1484 2467
1484 2501
1484 2540
1484 2544
1484 2578
1484 2618
1484 2631
1484 2653
1484 2660
1484 2671
1485 2250
1486 1502
1486 1851
1486 2042
1486 2221
1486 2303
1486 2596
1487 1529
1487 1581
1487 1683
1487 1729
1487 1774
1487 1821
1487 1837
1487 1840
1487 1907
1487 1912
1487 2034
1487 2068
1487 2083
1487 2093
1487 2202
1487 2205
1487 2211
1487 2228
1487 2338
1487 2371
1487 2417
1487 2421
1487 2453
1487 2486
1487 2495
1487 2507
1487 2515
1487 2586
1487 2608
1487 2612
1487 2622
1487 2666
1488 1507
1488 1906
1488 2015
1489 1546
1489 1575
1489 1617
1489 1696
1489 1739
1489 1770
1489 1955
1489 1965
1489 1979
1489 2062
1489 2179
1489 2205
1489 2261
1489 2367
1489 2386
1489 2426
1489 2561
1489 2586
1489 2608
1489 2628
1491 1520
1491 1579
1491 1637
1491 1758
1491 1796
1491 1903
1491 1998
1491 2016
1491 2190
1491 2294
1491 2361
1491 2540
1491 2609
1492 1574
1492 1583
1492 1702
1492 1703
1492 1711
1492 1743
1492 1810
1492 1814
1492 1873
1492 1874
1492 1906
1492 1911
1492 1934
1492 1962
1492 1970
1492 1995
1492 2003
1492 2005
1492 2084
1492 2085
1492 2124
1492 2136
1492 2150
1492 2157
1492 2167
1492 2185
1492 2207
1492 2251
1492 2350
1492 2394
1492 2568
1492 2652
1492 2659
1493 1817
1493 2668
1494 1503
1494 1519
1494 1521
1494 1524
1494 1539
1494 1545
1494 1547
1494 1548
1494 1558
1494 1562
1494 1570
1494 1617
1494 1630
1494 1634
1494 1635
1494 1652
1494 1675
1494 1678
1494 1687
1494 1688
1494 1691
1494 1692
1494 1693
1494 1714
1494 1729
1494 1733
1494 1739
1494 1769
1494 1773
1494 1795
1494 1796
1494 1797
1494 1837
1494 1840
1494 1869
1494 1876
1494 1890
1494 1893
1494 1897
1494 1916
1494 1942
1494 1967
1494 1979
1494 2016
1494 2046
1494 2050
1494 2062
1494 2068
1494 2079
1494 2091
1494 2151
1494 2162
1494 2171
1494 2188
1494 2189
1494 2200
1494 2201
1494 2203
1494 2228
1494 2246
1494 2261
1494 2274
1494 2283
1494 2294
1494 2321
1494 2347
1494 2358
1494 2367
1494 2370
1494 2377
1494 2390
1494 2411
1494 2425
1494 2437
1494 2453
1494 2467
1494 2488
1494 2551
1494 2570
1494 2574
1494 2584
1494 2588
1494 2593
1494 2598
1494 2599
1494 2604
1494 2623
1494 2633
1494 2634
1494 2658
1494 2659
1494 2677
1495 1503
1495 1534
1495 1547
1495 1635
1495 1682
1495 1685
1495 1687
1495 1699
1495 1708
1495 1715
1495 1736
1495 1760
1495 1762
1495 1795
1495 1797
1495 1885
1495 1963
1495 1964
1495 1980
1495 2001
1495 2007
1495 2025
1495 2038
1495 2039
1495 2046
1495 2068
1495 2101
1495 2118
1495 2135
1495 2137
1495 2171
1495 2189
1495 2201
1495 2231
1495 2235
1495 2246
1495 2342
1495 2365
1495 2366
1495 2389
1495 2425
1495 2435
1495 2437
1495 2452
1495 2469
1495 2488
1495 2501
1495 2523
1495 2551
1495 2570
1495 2574
1495 2583
1495 2584
1495 2618
1495 2646
1495 2660
1495 2671
1495 2673
1495 2677
1496 1517
1496 1544
1496 1712
1496 2087
1496 2139
1496 2253
1496 2672
1497 1755
1497 1792
1497 1841
1497 1868
1497 1949
1497 1968
1497 2362
1497 2541
1498 1503
1498 1504
1498 1505
1498 1564
1498 1576
1498 1617
1498 1682
1498 1699
1498 1708
1498 1721
1498 1732
1498 1745
1498 1764
1498 1787
1498 1799
1498 1824
1498 1876
1498 1883
1498 1901
1498 1965
1498 2042
1498 2119
1498 2155
1498 2179
1498 2184
1498 2199
1498 2264
1498 2267
1498 2282
1498 2329
1498 2380
1498 2409
1498 2435
1498 2500
1498 2534
1498 2591
1498 2671
1499 1524
1499 1567
1499 1696
1499 1736
1499 1773
1499 1799
1499 1822
1499 1854
1499 1883
1499 1901
1499 2000
1499 2199
1499 2307
1499 2586
1499 2640
1499 2671
1500 1524
1500 1549
1500 1558
1500 1579
1500 1588
1500 1649
1500 1652
1500 1664
1500 1687
1500 1698
1500 1708
1500 1719
1500 1721
1500 1736
1500 1738
1500 1742
1500 1762
1500 1773
1500 1799
1500 1832
1500 1862
1500 1863
1500 1870
1500 1876
1500 1942
1500 1958
1500 1998
1500 2014
1500 2039
1500 2048
1500 2050
1500 2051
1500 2062
1500 2091
1500 2119
1500 2155
1500 2188
1500 2189
1500 2190
1500 2208
1500 2227
1500 2239
1500 2267
1500 2269
1500 2294
1500 2297
1500 2330
1500 2352
1500 2363
1500 2370
1500 2377
1500 2380
1500 2385
1500 2420
1500 2473
1500 2499
1500 2520
1500 2553
1500 2591
1500 2625
1500 2651
1500 2672
1500 2676
1501 1518
1501 1612
1501 1730
1501 1824
1501 1836
1501 1846
1501 1855
1501 2025
1501 2042
1501 2110
1501 2662
1502 1503
1502 1536
1502 1617
1502 1630
1502 1633
1502 1635
1502 1650
1502 1659
1502 1664
1502 1708
1502 1713
1502 1724
1502 1760
1502 1769
1502 1819
1502 1843
1502 1858
1502 1881
1502 1971
1502 1979
1502 2010
1502 2011
1502 2074
1502 2112
1502 2137
1502 2161
1502 2199
1502 2213
1502 2240
1502 2269
1502 2289
1502 2312
1502 2346
1502 2362
1502 2387
1502 2435
1502 2451
1502 2452
1502 2460
1502 2464
1502 2473
1502 2491
1502 2526
1502 2539
1502 2544
1502 2550
1502 2587
1502 2618
1503 1510
1503 1519
1503 1536
1503 1547
1503 1570
1503 1577
1503 1579
1503 1608
1503 1617
1503 1618
1503 1630
1503 1633
1503 1634
1503 1635
1503 1659
1503 1685
1503 1708
1503 1724
1503 1733
1503 1750
1503 1760
1503 1769
1503 1784
1503 1795
1503 1798
1503 1852
1503 1854
1503 1857
1503 1871
1503 1885
1503 1893
1503 1897
1503 1916
1503 1923
1503 1934
1503 1954
1503 1963
1503 1965
1503 1979
1503 1983
1503 1984
1503 1994
1503 2007
1503 2010
1503 2016
1503 2025
1503 2046
1503 2068
1503 2074
1503 2092
1503 2112
1503 2135
1503 2151
1503 2175
1503 2177
1503 2179
1503 2189
1503 2199
1503 2215
1503 2240
1503 2251
1503 2258
1503 2294
1503 2312
1503 2316
1503 2330
1503 2346
1503 2362
1503 2377
1503 2380
1503 2386
1503 2425
1503 2435
1503 2452
1503 2456
1503 2469
1503 2501
1503 2539
1503 2544
1503 2551
1503 2570
1503 2583
1503 2584
1503 2586
1503 2595
1503 2602
1503 2618
1503 2628
1503 2634
1503 2636
1503 2646
1503 2673
1504 1505
1504 1508
1504 1524
1504 1598
1504 1718
1504 1870
1504 1979
1504 2082
1504 2179
1504 2184
1504 2199
1504 2254
1504 2262
1504 2274
1504 2298
1504 2354
1504 2367
1504 2481
1504 2494
1504 2497
1504 2562
1504 2572
1504 2586
1504 2589
1504 2648
1504 2670
1505 1524
1505 1598
1505 2082
1505 2099
1505 2179
1505 2262
1505 2274
1505 2298
1505 2406
1505 2494
1505 2497
1505 2562
1505 2586
1505 2670
1506 1575
1506 1598
1506 1762
1506 1854
1506 1895
1506 1903
1506 2039
1506 2137
1506 2172
1506 2399
1506 2402
1506 2435
1506 2501
1506 2526
1506 2593
1506 2670
1507 1520
1507 1524
1507 1558
1507 1576
1507 1638
1507 1641
1507 1657
1507 1672
1507 1687
1507 1720
1507 1784
1507 1795
1507 1881
1507 1895
1507 1900
1507 1931
1507 2027
1507 2042
1507 2095
1507 2213
1507 2221
1507 2222
1507 2311
1507 2327
1507 2345
1507 2408
1507 2464
1507 2530
1507 2556
1507 2589
1507 2670
1508 1574
1508 1577
1508 1661
1508 1716
1508 1718
1508 1787
1508 1835
1508 1933
1508 1934
1508 1974
1508 2000
1508 2027
1508 2107
1508 2196
1508 2494
1508 2497
1508 2577
1508 2638
1508 2659
1509 1549
1509 1566
1509 1599
1509 1696
1509 1803
1509 1923
1509 2018
1509 2053
1509 2287
1509 2297
1509 2361
1509 2410
1509 2502
1509 2540
1509 2553
1509 2662
1510 1547
1510 1565
1510 1575
1510 1579
1510 1733
1510 1760
1510 1796
1510 1864
1510 1885
1510 1893
1510 1897
1510 1903
1510 1905
1510 1916
1510 1998
1510 2007
1510 2016
1510 2050
1510 2068
1510 2135
1510 2138
1510 2151
1510 2189
1510 2190
1510 2215
1510 2258
1510 2283
1510 2330
1510 2469
1510 2483
1510 2556
1510 2570
1510 2583
1510 2593
1510 2623
1510 2645
1510 2646
1511 1630
1511 1650
1511 1977
1511 2011
1511 2230
1511 2289
1511 2375
1511 2419
1511 2618
1512 1595
1512 1717
1512 1749
1512 2053
1512 2243
1512 2329
1512 2370
1512 2382
1512 2400
1512 2404
1512 2436
1512 2493
1512 2541
1512 2580
1512 2582
1512 2624
1513 1595
1513 1645
1513 1768
1513 2124
1513 2125
1513 2166
1513 2167
1513 2339
1514 1883
1514 2005
1514 2043
1514 2084
1514 2154
1514 2375
1515 1614
1515 1823
1515 1880
1515 2132
1515 2219
1515 2331
1516 1558
1516 1810
1516 1874
1516 1930
1516 1992
1516 2139
1516 2620
1517 2015
1518 1530
1518 1563
1518 1585
1518 1597
1518 1599
1518 1603
1518 1611
1518 1612
1518 1622
1518 1641
1518 1687
1518 1692
1518 1770
1518 1795
1518 1797
1518 1824
1518 1838
1518 1845
1518 1860
1518 1870
1518 2018
1518 2024
1518 2026
1518 2037
1518 2039
1518 2042
1518 2044
1518 2053
1518 2180
1518 2205
1518 2287
1518 2318
1518 2333
1518 2353
1518 2361
1518 2422
1518 2426
1518 2481
1518 2486
1518 2496
1518 2522
1518 2577
1518 2585
1518 2612
1518 2635
1518 2662
1519 1545
1519 1547
1519 1562
1519 1570
1519 1574
1519 1579
1519 1624
1519 1635
1519 1652
1519 1673
1519 1699
1519 1708
1519 1714
1519 1718
1519 1719
1519 1733
1519 1737
1519 1738
1519 1746
1519 1750
1519 1773
1519 1795
1519 1796
1519 1871
1519 1876
1519 1883
1519 1885
1519 1906
1519 1916
1519 1918
1519 1923
1519 1927
1519 1934
1519 1938
1519 1941
1519 1978
1519 1979
1519 1983
1519 1985
1519 2051
1519 2064
1519 2068
1519 2091
1519 2101
1519 2107
1519 2135
1519 2137
1519 2189
1519 2209
1519 2212
1519 2215
1519 2246
1519 2251
1519 2261
1519 2262
1519 2267
1519 2309
1519 2329
1519 2342
1519 2361
1519 2363
1519 2367
1519 2377
1519 2385
1519 2387
1519 2399
1519 2409
1519 2434
1519 2435
1519 2456
1519 2500
1519 2501
1519 2520
1519 2570
1519 2577
1519 2584
1519 2586
1519 2588
1519 2593
1519 2614
1519 2638
1519 2659
1519 2668
1519 2673
1520 1641
1520 1824
1520 2031
1520 2095
1520 2145
1520 2183
1520 2190
1520 2327
1520 2410
1520 2432
1520 2496
1520 2544
1521 1548
1521 1558
1521 1579
1521 1617
1521 1627
1521 1730
1521 1745
1521 1760
1521 1773
1521 1787
1521 1795
1521 1839
1521 1852
1521 1870
1521 1893
1521 1923
1521 1965
1521 1967
1521 1978
1521 1998
1521 2025
1521 2036
1521 2039
1521 2073
1521 2264
1521 2294
1521 2467
1521 2502
1521 2534
1521 2578
1521 2588
1522 1755
1522 1802
1522 1968
1522 2020
1522 2323
1522 2364
1524 1545
1524 1549
1524 1561
1524 1564
1524 1570
1524 1574
1524 1577
1524 1579
1524 1588
1524 1649
1524 1655
1524 1673
1524 1688
1524 1708
1524 1709
1524 1728
1524 1732
1524 1733
1524 1736
1524 1757
1524 1762
1524 1764
1524 1795
1524 1796
1524 1798
1524 1799
1524 1813
1524 1822
1524 1832
1524 1849
1524 1854
1524 1856
1524 1858
1524 1868
1524 1870
1524 1901
1524 1920
1524 1923
1524 1934
1524 1942
1524 1965
1524 1976
1524 1979
1524 1998
1524 2027
1524 2078
1524 2090
1524 2099
1524 2101
1524 2179
1524 2184
1524 2186
1524 2190
1524 2225
1524 2261
1524 2282
1524 2299
1524 2309
1524 2310
1524 2361
1524 2363
1524 2367
1524 2370
1524 2380
1524 2387
1524 2398
1524 2401
1524 2456
1524 2469
1524 2481
1524 2485
1524 2570
1524 2586
1524 2591
1524 2614
1524 2655
1524 2657
1524 2676
1525 1590
1525 1636
1525 1651
1525 1667
1525 1722
1525 1726
1525 2005
1525 2124
1525 2170
1525 2179
1525 2185
1525 2245
1525 2292
1525 2295
1525 2331
1525 2370
1525 2374
1525 2404
1525 2407
1525 2445
1525 2448
1525 2495
1525 2565
1526 1601
1526 1936
1526 2002
1526 2274
1526 2281
1526 2464
1526 2469
1526 2613
1528 1630
1528 1632
1528 1683
1528 1729
1528 1897
1528 1917
1528 2100
1528 2112
1528 2175
1528 2210
1528 2395
1528 2587
1528 2626
1529 1581
1529 1608
1529 1686
1529 1774
1529 2031
1529 2034
1529 2066
1529 2205
1529 2228
1529 2313
1529 2417
1529 2453
1529 2528
1529 2666
1530 1541
1530 1545
1530 1548
1530 1569
1530 1594
1530 1597
1530 1599
1530 1622
1530 1734
1530 1764
1530 1795
1530 1838
1530 1840
1530 1881
1530 1929
1530 1957
1530 2026
1530 2039
1530 2042
1530 2053
1530 2093
1530 2112
1530 2182
1530 2210
1530 2294
1530 2311
1530 2318
1530 2327
1530 2353
1530 2421
1530 2422
1530 2486
1530 2544
1530 2591
1530 2615
1530 2635
1531 1587
1531 2037
1531 2172
1531 2544
1531 2554
1532 1537
1532 1579
1532 1588
1532 1671
1532 1693
1532 1723
1532 1785
1532 1796
1532 1822
1532 1870
1532 1871
1532 1887
1532 1897
1532 1916
1532 1938
1532 1943
1532 1945
1532 1998
1532 2068
1532 2119
1532 2122
1532 2200
1532 2299
1532 2307
1532 2398
1532 2456
1532 2570
1532 2651
1532 2673
1533 1539
1533 1575
1533 1587
1533 1597
1533 1683
1533 1688
1533 1696
1533 1724
1533 1809
1533 1838
1533 1899
1533 1920
1533 2004
1533 2016
1533 2037
1533 2112
1533 2172
1533 2183
1533 2212
1533 2231
1533 2233
1533 2294
1533 2309
1533 2310
1533 2311
1533 2353
1533 2365
1533 2426
1533 2457
1533 2486
1533 2505
1533 2544
1533 2547
1533 2609
1533 2629
1533 2665
1533 2669
1534 1592
1534 1635
1534 1685
1534 1699
1534 1721
1534 1750
1534 1757
1534 1762
1534 1795
1534 1837
1534 1869
1534 1883
1534 1885
1534 1954
1534 1963
1534 1979
1534 1980
1534 1983
1534 2025
1534 2076
1534 2101
1534 2137
1534 2151
1534 2201
1534 2212
1534 2222
1534 2228
1534 2246
1534 2275
1534 2312
1534 2342
1534 2347
1534 2425
1534 2434
1534 2435
1534 2501
1534 2539
1534 2551
1534 2562
1534 2574
1534 2618
1534 2660
1534 2673
1535 1545
1535 1643
1535 1788
1535 1795
1535 2361
1535 2369
1535 2437
1535 2459
1536 1558
1536 1633
1536 1668
1536 1724
1536 1736
1536 1760
1536 1769
1536 1819
1536 1923
1536 1953
1536 2010
1536 2074
1536 2112
1536 2311
1536 2312
1536 2346
1536 2362
1536 2505
1536 2532
1536 2538
1536 2539
1536 2544
1536 2618
1537 1545
1537 1549
1537 1558
1537 1569
1537 1588
1537 1625
1537 1696
1537 1709
1537 1717
1537 1745
1537 1752
1537 1868
1537 1870
1537 1904
1537 1923
1537 1933
1537 1934
1537 1944
1537 1998
1537 2010
1537 2038
1537 2039
1537 2062
1537 2073
1537 2099
1537 2119
1537 2128
1537 2137
1537 2155
1537 2184
1537 2188
1537 2197
1537 2212
1537 2307
1537 2359
1537 2361
1537 2367
1537 2410
1537 2470
1537 2471
1537 2479
1537 2481
1537 2491
1537 2512
1537 2526
1537 2588
1537 2591
1537 2592
1537 2631
1537 2649
1537 2651
1539 1699
1539 1706
1539 1708
1539 1764
1539 1854
1539 1901
1539 1921
1539 1937
1539 2058
1539 2137
1539 2152
1539 2193
1539 2199
1539 2214
1539 2223
1539 2254
1539 2262
1539 2298
1539 2321
1539 2478
1539 2479
1539 2593
1540 1541
1540 1566
1540 1629
1540 1638
1540 1852
1540 1875
1540 1931
1540 2060
1540 2112
1540 2182
1540 2203
1540 2241
1540 2268
1540 2287
1540 2310
1540 2368
1540 2410
1540 2432
1540 2444
1540 2547
1540 2603
1540 2629
1540 2662
1541 1591
1541 1594
1541 1603
1541 1635
1541 1638
1541 1678
1541 1683
1541 1713
1541 1724
1541 1749
1541 1760
1541 1761
1541 1769
1541 1783
1541 1784
1541 1786
1541 1817
1541 1840
1541 1852
1541 1875
1541 1883
1541 1910
1541 1912
1541 1916
1541 1917
1541 1928
1541 1931
1541 1934
1541 1946
1541 1953
1541 1957
1541 2026
1541 2037
1541 2038
1541 2045
1541 2060
1541 2112
1541 2126
1541 2163
1541 2175
1541 2182
1541 2183
1541 2203
1541 2206
1541 2210
1541 2241
1541 2268
1541 2283
1541 2287
1541 2289
1541 2310
1541 2313
1541 2327
1541 2368
1541 2370
1541 2395
1541 2397
1541 2410
1541 2417
1541 2421
1541 2422
1541 2425
1541 2429
1541 2444
1541 2449
1541 2470
1541 2474
1541 2491
1541 2496
1541 2501
1541 2507
1541 2547
1541 2551
1541 2570
1541 2585
1541 2603
1541 2616
1541 2629
1541 2633
1541 2635
1541 2647
1541 2661
1542 1601
1542 1660
1542 1785
1542 1798
1542 2027
1542 2045
1542 2049
1542 2469
1542 2628
1542 2674
1543 1675
1543 2671
1544 1621
1544 1658
1544 1680
1544 1710
1544 1712
1544 1845
1544 1884
1544 1885
1544 1930
1544 2123
1544 2157
1544 2194
1544 2218
1544 2242
1544 2255
1544 2292
1544 2396
1544 2516
1544 2580
1545 1547
1545 1558
1545 1574
1545 1588
1545 1635
1545 1683
1545 1691
1545 1692
1545 1708
1545 1719
1545 1733
1545 1773
1545 1787
1545 1795
1545 1796
1545 1799
1545 1837
1545 1863
1545 1870
1545 1890
1545 1893
1545 1913
1545 1916
1545 1934
1545 1998
1545 2039
1545 2042
1545 2062
1545 2064
1545 2119
1545 2134
1545 2140
1545 2151
1545 2162
1545 2190
1545 2201
1545 2212
1545 2222
1545 2225
1545 2228
1545 2249
1545 2251
1545 2261
1545 2294
1545 2329
1545 2347
1545 2352
1545 2361
1545 2362
1545 2367
1545 2370
1545 2390
1545 2429
1545 2456
1545 2459
1545 2479
1545 2522
1545 2557
1545 2570
1545 2584
1545 2593
1545 2634
1545 2651
1546 1562
1546 1570
1546 1608
1546 1634
1546 1733
1546 1767
1546 1795
1546 1798
1546 1807
1546 1839
1546 1840
1546 1857
1546 1885
1546 1887
1546 1897
1546 1904
1546 1908
1546 1916
1546 1941
1546 1980
1546 1994
1546 2062
1546 2118
1546 2164
1546 2261
1546 2347
1546 2367
1546 2392
1546 2452
1546 2468
1546 2469
1546 2512
1546 2586
1546 2610
1546 2623
1546 2628
1547 1617
1547 1675
1547 1687
1547 1688
1547 1691
1547 1692
1547 1708
1547 1739
1547 1748
1547 1760
1547 1769
1547 1773
1547 1795
1547 1837
1547 1869
1547 1883
1547 1890
1547 1893
1547 1916
1547 1963
1547 1969
1547 1979
1547 2016
1547 2062
1547 2100
1547 2151
1547 2189
1547 2190
1547 2201
1547 2212
1547 2225
1547 2233
1547 2261
1547 2282
1547 2294
1547 2367
1547 2388
1547 2389
1547 2390
1547 2425
1547 2570
1547 2586
1547 2593
1547 2604
1547 2659
1548 1558
1548 1559
1548 1569
1548 1579
1548 1626
1548 1634
1548 1671
1548 1678
1548 1685
1548 1696
1548 1699
1548 1721
1548 1723
1548 1733
1548 1789
1548 1796
1548 1798
1548 1840
1548 1855
1548 1870
1548 1871
1548 1887
1548 1893
1548 1903
1548 1916
1548 1938
1548 1967
1548 1969
1548 1978
1548 1998
1548 2016
1548 2062
1548 2151
1548 2175
1548 2179
1548 2182
1548 2225
1548 2235
1548 2246
1548 2264
1548 2294
1548 2299
1548 2430
1548 2467
1548 2551
1548 2574
1548 2576
1548 2593
1548 2598
1548 2606
1548 2634
1548 2645
1549 1588
1549 1625
1549 1654
1549 1673
1549 1709
1549 1752
1549 1868
1549 1876
1549 1923
1549 2038
1549 2042
1549 2073
1549 2086
1549 2119
1549 2128
1549 2152
1549 2163
1549 2180
1549 2184
1549 2282
1549 2329
1549 2359
1549 2380
1549 2410
1549 2470
1549 2479
1549 2481
1549 2512
1549 2526
1549 2560
1549 2631
1549 2655
1549 2672
1550 1924
1550 2016
1550 2232
1551 1574
1551 1909
1551 1964
1551 2030
1551 2429
1551 2606
1551 2663
1552 2298
1552 2551
1553 1567
1553 1574
1553 1764
1553 1894
1553 1979
1553 2027
1553 2131
1553 2199
1553 2465
1553 2501
1553 2512
1553 2524
1553 2530
1553 2659
1555 1576
1555 1599
1555 1670
1555 1696
1555 1705
1555 1746
1555 1762
1555 1779
1555 1788
1555 1803
1555 1838
1555 1839
1555 1931
1555 2004
1555 2092
1555 2163
1555 2221
1555 2427
1555 2443
1555 2483
1555 2536
1555 2635
1556 1995
1556 2005
1557 1758
1557 1779
1557 1912
1557 2206
1557 2228
1557 2356
1557 2453
1557 2561
1557 2615
1557 2633
1558 1566
1558 1569
1558 1575
1558 1578
1558 1587
1558 1588
1558 1592
1558 1617
1558 1647
1558 1685
1558 1688
1558 1696
1558 1708
1558 1725
1558 1726
1558 1729
1558 1730
1558 1734
1558 1736
1558 1745
1558 1748
1558 1760
1558 1769
1558 1773
1558 1779
1558 1782
1558 1792
1558 1795
1558 1797
1558 1799
1558 1845
1558 1850
1558 1858
1558 1863
1558 1870
1558 1883
1558 1890
1558 1903
1558 1906
1558 1916
1558 1918
1558 1923
1558 1931
1558 1944
1558 1947
1558 1954
1558 1958
1558 1963
1558 1967
1558 1968
1558 1980
1558 1983
1558 2001
1558 2003
1558 2007
1558 2016
1558 2027
1558 2050
1558 2054
1558 2056
1558 2084
1558 2119
1558 2136
1558 2137
1558 2142
1558 2149
1558 2151
1558 2170
1558 2172
1558 2180
1558 2190
1558 2192
1558 2201
1558 2222
1558 2233
1558 2251
1558 2261
1558 2264
1558 2265
1558 2270
1558 2294
1558 2297
1558 2305
1558 2309
1558 2347
1558 2361
1558 2362
1558 2367
1558 2370
1558 2377
1558 2379
1558 2411
1558 2426
1558 2460
1558 2464
1558 2467
1558 2481
1558 2491
1558 2492
1558 2498
1558 2500
1558 2502
1558 2516
1558 2520
1558 2529
1558 2530
1558 2539
1558 2540
1558 2547
1558 2550
1558 2551
1558 2553
1558 2567
1558 2574
1558 2578
1558 2581
1558 2585
1558 2589
1558 2593
1558 2598
1558 2610
1558 2618
1558 2631
1559 1579
1559 1608
1559 1678
1559 1685
1559 1764
1559 1796
1559 1840
1559 1881
1559 1885
1559 1969
1559 1971
1559 2025
1559 2199
1559 2235
1559 2246
1559 2299
1559 2309
1559 2551
1559 2585
1559 2634
1560 1866
1560 1922
1560 2005
1560 2083
1560 2124
1560 2156
1560 2185
1560 2216
1560 2228
1560 2339
1560 2393
1560 2394
1560 2425
1560 2545
1560 2570
1560 2590
1560 2621
1560 2666
1561 1607
1561 1617
1561 1745
1561 1795
1561 1822
1561 1863
1561 1868
1561 1931
1561 2027
1561 2039
1561 2354
1561 2460
1561 2509
1561 2562
1561 2589
1561 2593
1561 2594
1562 1577
1562 1608
1562 1671
1562 1708
1562 1733
1562 1739
1562 1742
1562 1750
1562 1758
1562 1797
1562 1798
1562 1840
1562 1870
1562 1871
1562 1876
1562 1887
1562 1893
1562 1897
1562 1908
1562 1916
1562 1918
1562 1923
1562 1954
1562 1978
1562 1994
1562 2023
1562 2025
1562 2062
1562 2079
1562 2083
1562 2104
1562 2137
1562 2140
1562 2171
1562 2211
1562 2267
1562 2277
1562 2278
1562 2283
1562 2309
1562 2316
1562 2337
1562 2347
1562 2387
1562 2392
1562 2425
1562 2453
1562 2456
1562 2471
1562 2488
1562 2570
1562 2578
1562 2584
1562 2628
1562 2638
1562 2671
1562 2677
1563 1611
1564 1732
1564 1761
1564 1764
1564 1788
1564 1965
1564 1979
1564 2090
1564 2179
1564 2362
1564 2390
1564 2392
1565 1574
1565 1589
1565 1885
1565 2646
1565 2673
1566 1569
1566 1599
1566 1736
1566 1754
1566 1803
1566 1923
1566 1942
1566 1958
1566 2018
1566 2180
1566 2287
1566 2361
1566 2380
1566 2410
1566 2553
1566 2606
1566 2662
1567 1854
1567 1868
1567 1901
1567 1979
1567 2010
1567 2052
1567 2199
1567 2532
1567 2659
1568 2274
1569 1588
1569 1625
1569 1717
1569 1789
1569 1958
1569 2010
1569 2038
1569 2048
1569 2091
1569 2126
1569 2128
1569 2138
1569 2163
1569 2175
1569 2177
1569 2318
1569 2341
1569 2399
1569 2410
1569 2437
1569 2486
1569 2526
1569 2544
1569 2553
1569 2649
1570 1608
1570 1615
1570 1617
1570 1618
1570 1634
1570 1635
1570 1683
1570 1685
1570 1697
1570 1699
1570 1733
1570 1742
1570 1750
1570 1760
1570 1778
1570 1779
1570 1783
1570 1798
1570 1807
1570 1821
1570 1837
1570 1840
1570 1855
1570 1864
1570 1869
1570 1871
1570 1883
1570 1886
1570 1887
1570 1893
1570 1897
1570 1908
1570 1912
1570 1915
1570 1916
1570 1917
1570 1918
1570 1938
1570 1939
1570 1941
1570 1979
1570 1980
1570 1983
1570 1994
1570 2016
1570 2036
1570 2037
1570 2046
1570 2062
1570 2068
1570 2083
1570 2118
1570 2137
1570 2140
1570 2141
1570 2151
1570 2164
1570 2175
1570 2179
1570 2182
1570 2201
1570 2203
1570 2212
1570 2228
1570 2278
1570 2294
1570 2296
1570 2312
1570 2316
1570 2321
1570 2326
1570 2334
1570 2342
1570 2347
1570 2359
1570 2380
1570 2390
1570 2392
1570 2395
1570 2401
1570 2425
1570 2430
1570 2432
1570 2434
1570 2435
1570 2438
1570 2453
1570 2457
1570 2501
1570 2533
1570 2549
1570 2551
1570 2570
1570 2574
1570 2583
1570 2586
1570 2605
1570 2607
1570 2615
1570 2622
1570 2623
1570 2628
1570 2633
1570 2634
1570 2636
1570 2661
1570 2673
1570 2677
1571 1686
1571 1729
1571 1834
1571 1870
1571 1881
1571 1912
1571 1946
1571 2045
1571 2277
1571 2327
1571 2343
1571 2421
1571 2509
1571 2540
1572 1576
1572 1638
1572 1657
1572 1671
1572 1696
1572 1964
1572 2004
1572 2100
1572 2172
1572 2202
1572 2423
1572 2427
1572 2635
1572 2648
1572 2654
1574 1577
1574 1633
1574 1649
1574 1658
1574 1683
1574 1703
1574 1714
1574 1718
1574 1726
1574 1764
1574 1773
1574 1787
1574 1791
1574 1826
1574 1848
1574 1861
1574 1870
1574 1873
1574 1911
1574 1921
1574 1934
1574 1945
1574 1949
1574 1979
1574 1995
1574 2000
1574 2015
1574 2017
1574 2058
1574 2062
1574 2064
1574 2070
1574 2085
1574 2087
1574 2115
1574 2157
1574 2182
1574 2185
1574 2204
1574 2208
1574 2218
1574 2225
1574 2251
1574 2262
1574 2297
1574 2329
1574 2353
1574 2370
1574 2377
1574 2393
1574 2409
1574 2427
1574 2434
1574 2464
1574 2473
1574 2484
1574 2500
1574 2502
1574 2510
1574 2512
1574 2518
1574 2533
1574 2534
1574 2538
1574 2557
1574 2612
1574 2614
1574 2624
1574 2637
1574 2638
1574 2652
1574 2666
1575 1629
1575 1641
1575 1678
1575 1686
1575 1692
1575 1696
1575 1699
1575 1713
1575 1721
1575 1729
1575 1736
1575 1758
1575 1770
1575 1779
1575 1797
1575 1798
1575 1809
1575 1815
1575 1840
1575 1843
1575 1847
1575 1881
1575 1888
1575 1899
1575 1903
1575 1912
1575 1915
1575 1947
1575 1963
1575 1979
1575 2008
1575 2016
1575 2109
1575 2138
1575 2151
1575 2163
1575 2179
1575 2184
1575 2201
1575 2205
1575 2212
1575 2233
1575 2277
1575 2294
1575 2302
1575 2309
1575 2312
1575 2327
1575 2351
1575 2365
1575 2370
1575 2386
1575 2395
1575 2397
1575 2423
1575 2426
1575 2457
1575 2464
1575 2474
1575 2491
1575 2501
1575 2505
1575 2515
1575 2536
1575 2561
1575 2593
1575 2608
1575 2609
1575 2633
1575 2634
1576 1627
1576 1638
1576 1696
1576 1758
1576 1760
1576 1790
1576 1839
1576 2045
1576 2398
1577 1624
1577 1714
1577 1718
1577 1787
1577 1862
1577 1863
1577 1904
1577 1933
1577 1934
1577 1946
1577 1970
1577 2052
1577 2062
1577 2071
1577 2074
1577 2090
1577 2099
1577 2143
1577 2149
1577 2243
1577 2288
1577 2329
1577 2367
1577 2413
1577 2424
1577 2479
1577 2490
1577 2500
1577 2522
1577 2526
1577 2614
1577 2638
1577 2668
1578 1715
1578 1852
1578 1945
1578 1951
1578 2423
1578 2437
1578 2616
1579 1671
1579 1675
1579 1708
1579 1723
1579 1730
1579 1733
1579 1737
1579 1746
1579 1750
1579 1773
1579 1784
1579 1795
1579 1796
1579 1799
1579 1829
1579 1870
1579 1887
1579 1897
1579 1916
1579 1938
1579 1942
1579 1945
1579 1947
1579 1967
1579 1994
1579 1998
1579 2016
1579 2068
1579 2119
1579 2151
1579 2162
1579 2190
1579 2235
1579 2264
1579 2267
1579 2299
1579 2330
1579 2380
1579 2389
1579 2399
1579 2437
1579 2456
1579 2467
1579 2492
1579 2588
1579 2634
1579 2637
1579 2651
1579 2658
1579 2660
1579 2671
1580 1949
1580 2357
1580 2537
1581 1837
1581 1907
1581 1917
1581 2034
1581 2083
1581 2100
1581 2202
1581 2228
1581 2361
1581 2417
1581 2486
1581 2491
1581 2495
1581 2666
1582 1664
1582 1753
1582 1758
1582 1909
1582 1919
1582 1945
1582 1986
1582 2110
1582 2136
1582 2180
1582 2202
1582 2228
1582 2251
1582 2370
1582 2384
1582 2432
1582 2451
1582 2515
1582 2546
1582 2608
1583 1744
1583 2157
1583 2194
1583 2350
1583 2428
1583 2662
1583 2672
1584 1597
1584 1657
1584 1780
1584 1958
1584 2034
1584 2093
1584 2126
1584 2202
1584 2231
1584 2313
1584 2334
1584 2421
1584 2422
1584 2496
1584 2553
1584 2559
1584 2629
1585 1597
1585 1622
1585 1770
1585 1838
1585 1870
1585 2039
1585 2042
1585 2486
1585 2544
1585 2644
1585 2665
1586 1732
1586 1790
1586 1848
1586 1870
1586 1952
1586 2107
1586 2254
1586 2274
1586 2298
1586 2361
1586 2406
1586 2502
1586 2560
1586 2577
1587 1596
1587 1603
1587 1621
1587 1686
1587 1696
1587 1778
1587 1783
1587 1803
1587 1809
1587 1824
1587 1860
1587 1920
1587 1931
1587 1964
1587 2037
1587 2110
1587 2159
1587 2172
1587 2183
1587 2221
1587 2228
1587 2250
1587 2302
1587 2305
1587 2353
1587 2491
1587 2544
1587 2553
1587 2563
1587 2607
1587 2612
1587 2626
1587 2629
1587 2643
1587 2665
1588 1649
1588 1696
1588 1709
1588 1745
1588 1798
1588 1832
1588 1845
1588 1868
1588 1870
1588 1876
1588 1904
1588 1923
1588 1933
1588 1934
1588 1942
1588 1944
1588 1954
1588 2018
1588 2039
1588 2045
1588 2073
1588 2093
1588 2119
1588 2124
1588 2137
1588 2149
1588 2155
1588 2187
1588 2212
1588 2251
1588 2262
1588 2294
1588 2297
1588 2359
1588 2367
1588 2399
1588 2470
1588 2479
1588 2481
1588 2631
1588 2651
1588 2676
1589 1885
1589 2386
1589 2646
1590 1636
1590 1647
1590 1844
1590 1848
1590 2005
1590 2012
1590 2017
1590 2047
1590 2244
1590 2293
1590 2295
1590 2445
1590 2565
1590 2597
1591 1697
1591 1724
1591 1730
1591 1734
1591 1825
1591 1838
1591 1840
1591 1846
1591 1907
1591 1950
1591 2037
1591 2039
1591 2053
1591 2076
1591 2097
1591 2101
1591 2128
1591 2182
1591 2227
1591 2313
1591 2378
1591 2416
1591 2427
1591 2443
1591 2483
1591 2570
1591 2609
1591 2629
1591 2633
1592 1746
1592 1769
1592 1947
1592 1979
1592 2312
1592 2464
1594 1638
1594 1686
1594 1717
1594 1723
1594 1724
1594 1758
1594 1779
1594 1783
1594 1796
1594 1831
1594 1870
1594 1881
1594 1910
1594 1917
1594 1919
1594 1970
1594 2053
1594 2112
1594 2163
1594 2183
1594 2287
1594 2290
1594 2318
1594 2327
1594 2353
1594 2361
1594 2410
1594 2421
1594 2426
1594 2429
1594 2449
1594 2479
1594 2507
1594 2519
1594 2547
1594 2585
1594 2668
1595 1726
1595 1749
1595 1810
1595 1911
1595 1962
1595 2124
1595 2207
1595 2242
1595 2666
1596 1683
1596 1778
1596 1837
1596 2037
1596 2100
1596 2159
1596 2544
1596 2665
1597 1599
1597 1622
1597 1641
1597 1687
1597 1692
1597 1696
1597 1724
1597 1770
1597 1803
1597 1815
1597 1817
1597 1825
1597 1838
1597 1940
1597 2018
1597 2039
1597 2042
1597 2052
1597 2076
1597 2128
1597 2190
1597 2205
1597 2265
1597 2326
1597 2353
1597 2422
1597 2426
1597 2486
1597 2496
1597 2533
1597 2611
1598 1965
1598 2039
1598 2082
1598 2274
1598 2376
1598 2402
1598 2492
1598 2494
1598 2497
1598 2501
1598 2670
1599 1622
1599 1783
1599 1815
1599 1834
1599 1835
1599 1838
1599 1934
1599 1946
1599 2024
1599 2042
1599 2044
1599 2145
1599 2192
1599 2287
1599 2417
1599 2422
1599 2426
1599 2486
1599 2544
1599 2561
1599 2606
1599 2655
1599 2662
1600 1616
1600 1622
1600 1641
1600 1657
1600 1664
1600 1750
1600 1805
1600 1824
1600 1958
1600 1996
1600 2031
1600 2042
1600 2128
1600 2172
1600 2187
1600 2205
1600 2221
1600 2486
1600 2489
1600 2553
1600 2571
1601 1727
1601 1788
1601 2010
1601 2016
1601 2234
1601 2469
1602 1934
1603 1696
1603 1741
1603 1786
1603 1832
1603 1834
1603 1838
1603 1876
1603 2018
1603 2042
1603 2205
1603 2489
1603 2496
1603 2548
1603 2554
1603 2612
1603 2635
1604 1620
1604 1958
1605 1714
1605 1857
1605 1920
1605 2214
1605 2227
1605 2468
1605 2483
1606 1702
1606 1884
1606 2003
1606 2015
1606 2043
1606 2084
1606 2132
1606 2219
1606 2270
1606 2292
1606 2300
1606 2331
1606 2554
1606 2601
1607 1798
1607 1901
1607 1945
1607 2161
1607 2199
1607 2232
1607 2321
1607 2360
1607 2500
1607 2594
1607 2657
1608 1616
1608 1634
1608 1685
1608 1696
1608 1733
1608 1750
1608 1758
1608 1760
1608 1795
1608 1796
1608 1840
1608 1871
1608 1887
1608 1897
1608 1905
1608 1908
1608 1916
1608 1938
1608 1941
1608 1965
1608 1994
1608 2007
1608 2016
1608 2046
1608 2062
1608 2066
1608 2078
1608 2079
1608 2080
1608 2083
1608 2100
1608 2118
1608 2171
1608 2187
1608 2211
1608 2246
1608 2278
1608 2316
1608 2347
1608 2360
1608 2392
1608 2398
1608 2401
1608 2425
1608 2441
1608 2453
1608 2488
1608 2508
1608 2528
1608 2549
1608 2570
1608 2583
1608 2586
1608 2623
1608 2628
1608 2633
1608 2636
1608 2659
1608 2673
1609 1624
1609 1635
1609 1883
1609 1983
1609 2435
1610 1618
1610 1663
1610 1767
1610 1777
1610 1940
1610 1979
1610 2296
1610 2468
1610 2512
1610 2673
1611 1849
1611 1934
1611 2053
1611 2084
1612 1640
1612 1696
1612 1697
1612 1733
1612 1765
1612 1769
1612 1778
1612 1824
1612 1907
1612 1912
1612 1917
1612 1999
1612 2228
1612 2334
1612 2411
1612 2453
1612 2509
1612 2528
1612 2607
1612 2609
1612 2634
1612 2662
1613 1635
1613 1798
1613 1887
1613 2599
1613 2634
1614 1636
1614 1781
1614 2015
1614 2132
1614 2600
1615 1617
1615 1733
1615 1742
1615 1758
1615 1798
1615 1840
1615 1855
1615 1869
1615 1893
1615 1897
1615 1904
1615 1908
1615 1912
1615 1916
1615 1941
1615 1994
1615 2016
1615 2062
1615 2118
1615 2140
1615 2225
1615 2228
1615 2321
1615 2334
1615 2392
1615 2425
1615 2430
1615 2453
1615 2512
1615 2570
1615 2586
1615 2607
1615 2615
1615 2623
1615 2633
1616 1750
1616 1825
1616 1832
1616 1917
1616 1994
1616 2016
1616 2031
1616 2038
1616 2041
1616 2066
1616 2109
1616 2138
1616 2187
1616 2210
1616 2277
1616 2324
1616 2344
1616 2347
1616 2401
1616 2489
1616 2515
1616 2528
1616 2561
1616 2606
1616 2615
1616 2628
1616 2665
1617 1618
1617 1624
1617 1693
1617 1719
1617 1733
1617 1778
1617 1822
1617 1840
1617 1868
1617 1871
1617 1887
1617 1897
1617 1903
1617 1908
1617 1916
1617 1920
1617 1941
1617 1954
1617 1963
1617 1971
1617 1979
1617 1983
1617 1984
1617 1994
1617 2011
1617 2027
1617 2075
1617 2080
1617 2083
1617 2113
1617 2162
1617 2164
1617 2177
1617 2179
1617 2188
1617 2266
1617 2274
1617 2282
1617 2307
1617 2315
1617 2332
1617 2361
1617 2398
1617 2422
1617 2449
1617 2452
1617 2469
1617 2480
1617 2483
1617 2514
1617 2570
1617 2593
1617 2615
1617 2618
1617 2633
1617 2634
1617 2673
1617 2677
1618 1635
1618 1697
1618 1732
1618 1767
1618 1819
1618 1883
1618 1939
1618 1940
1618 1941
1618 2118
1618 2145
1618 2162
1618 2175
1618 2182
1618 2225
1618 2251
1618 2261
1618 2296
1618 2307
1618 2362
1618 2398
1618 2452
1618 2480
1618 2501
1618 2539
1618 2551
1618 2584
1618 2586
1618 2599
1618 2622
1618 2636
1618 2638
1618 2673
1619 1702
1619 1768
1619 1874
1619 1930
1619 2244
1619 2247
1619 2428
1619 2516
1619 2568
1620 2324
1620 2403
1620 2515
1621 1712
1621 1877
1621 1885
1621 2040
1621 2165
1621 2517
1621 2555
1622 1623
1622 1629
1622 1664
1622 1723
1622 1744
1622 1760
1622 1770
1622 1803
1622 1815
1622 1824
1622 1838
1622 1848
1622 1931
1622 2042
1622 2050
1622 2053
1622 2112
1622 2119
1622 2159
1622 2182
1622 2187
1622 2205
1622 2221
1622 2231
1622 2297
1622 2327
1622 2362
1622 2422
1622 2426
1622 2437
1622 2486
1622 2489
1622 2544
1622 2652
1622 2662
1623 1629
1623 1638
1623 1713
1623 1719
1623 1733
1623 1778
1623 1783
1623 1824
1623 1931
1623 1973
1623 2182
1623 2228
1623 2283
1623 2310
1623 2333
1623 2370
1623 2423
1623 2444
1623 2453
1623 2474
1623 2491
1623 2547
1623 2553
1623 2593
1623 2629
1623 2634
1623 2657
1624 1635
1624 1652
1624 1673
1624 1708
1624 1718
1624 1773
1624 1870
1624 1883
1624 1927
1624 1933
1624 1934
1624 1946
1624 1970
1624 1979
1624 1983
1624 2053
1624 2071
1624 2073
1624 2099
1624 2137
1624 2161
1624 2188
1624 2189
1624 2243
1624 2288
1624 2363
1624 2377
1624 2380
1624 2385
1624 2399
1624 2434
1624 2435
1624 2456
1624 2479
1624 2490
1624 2500
1624 2570
1624 2584
1624 2614
1624 2659
1624 2668
1624 2673
1625 1641
1625 1657
1625 1662
1625 1696
1625 1709
1625 1731
1625 1752
1625 1795
1625 1824
1625 1868
1625 1870
1625 1934
1625 2044
1625 2073
1625 2128
1625 2179
1625 2221
1625 2282
1625 2297
1625 2410
1625 2424
1625 2456
1625 2470
1625 2479
1625 2526
1625 2649
1625 2655
1626 1870
1626 1954
1626 1963
1626 1978
1626 1979
1626 2311
1626 2380
1626 2456
1626 2512
1627 1796
1627 1839
1627 1998
1627 2588
1627 2631
1628 1636
1628 1667
1628 1681
1628 1792
1628 1877
1628 1975
1628 1986
1628 1987
1628 1995
1628 2003
1628 2015
1628 2129
1628 2157
1628 2167
1628 2242
1628 2331
1628 2340
1628 2495
1628 2565
1628 2666
1629 1638
1629 1657
1629 1744
1629 1754
1629 1778
1629 1783
1629 1824
1629 1931
1629 2179
1629 2182
1629 2205
1629 2228
1629 2233
1629 2310
1629 2313
1629 2333
1629 2353
1629 2370
1629 2423
1629 2444
1629 2453
1629 2474
1629 2491
1629 2544
1629 2547
1629 2629
1629 2634
1629 2657
1630 1650
1630 1659
1630 1692
1630 1700
1630 1769
1630 1779
1630 1843
1630 1971
1630 1977
1630 2011
1630 2016
1630 2039
1630 2051
1630 2073
1630 2112
1630 2201
1630 2230
1630 2236
1630 2237
1630 2240
1630 2289
1630 2290
1630 2375
1630 2387
1630 2395
1630 2419
1630 2442
1630 2451
1630 2464
1630 2469
1630 2544
1630 2550
1630 2583
1630 2587
1630 2618
1630 2626
1633 1724
1633 1760
1633 1852
1633 1858
1633 1979
1633 2007
1633 2010
1633 2046
1633 2051
1633 2074
1633 2112
1633 2312
1633 2346
1633 2362
1633 2456
1633 2501
1633 2505
1633 2539
1633 2544
1633 2618
1633 2671
1634 1733
1634 1742
1634 1778
1634 1840
1634 1846
1634 1855
1634 1887
1634 1893
1634 1897
1634 1912
1634 1916
1634 1999
1634 2037
1634 2079
1634 2134
1634 2135
1634 2185
1634 2189
1634 2201
1634 2228
1634 2326
1634 2334
1634 2347
1634 2360
1634 2392
1634 2453
1634 2521
1634 2570
1634 2607
1634 2633
1634 2634
1635 1652
1635 1673
1635 1685
1635 1699
1635 1733
1635 1737
1635 1773
1635 1783
1635 1791
1635 1883
1635 1885
1635 1887
1635 1897
1635 1906
1635 1916
1635 1927
1635 1931
1635 1934
1635 1938
1635 1941
1635 1979
1635 1980
1635 1983
1635 2025
1635 2036
1635 2037
1635 2050
1635 2064
1635 2083
1635 2091
1635 2107
1635 2137
1635 2182
1635 2189
1635 2209
1635 2215
1635 2246
1635 2329
1635 2342
1635 2361
1635 2367
1635 2368
1635 2377
1635 2395
1635 2409
1635 2425
1635 2434
1635 2435
1635 2444
1635 2456
1635 2501
1635 2520
1635 2551
1635 2570
1635 2574
1635 2577
1635 2593
1635 2599
1635 2618
1635 2638
1635 2659
1635 2660
1635 2673
1636 1680
1636 1722
1636 1747
1636 1986
1636 2003
1636 2005
1636 2069
1636 2089
1636 2123
1636 2136
1636 2349
1636 2374
1636 2445
1636 2666
1637 1706
1637 1854
1637 2160
1637 2261
1637 2361
1637 2367
1637 2376
1638 1664
1638 1696
1638 1713
1638 1753
1638 1758
1638 1760
1638 1782
1638 1783
1638 1784
1638 1809
1638 1824
1638 1931
1638 1951
1638 2037
1638 2042
1638 2060
1638 2063
1638 2069
1638 2112
1638 2123
1638 2141
1638 2181
1638 2182
1638 2241
1638 2268
1638 2271
1638 2287
1638 2310
1638 2370
1638 2410
1638 2423
1638 2432
1638 2444
1638 2451
1638 2474
1638 2491
1638 2547
1638 2593
1638 2603
1638 2615
1638 2626
1638 2629
1639 1699
1639 1730
1639 1914
1639 2016
1639 2127
1639 2208
1639 2275
1639 2488
1639 2523
1639 2591
1639 2593
1639 2651
1639 2671
1639 2673
1640 1778
1640 1783
1640 2228
1640 2453
1640 2634
1641 1657
1641 1662
1641 1664
1641 1778
1641 1808
1641 1815
1641 1817
1641 1824
1641 1825
1641 1860
1641 1931
1641 1940
1641 1955
1641 2095
1641 2128
1641 2221
1641 2296
1641 2326
1641 2334
1641 2370
1641 2395
1641 2398
1641 2410
1641 2526
1641 2533
1641 2647
1641 2649
1642 1788
1642 1845
1642 1891
1642 1923
1642 2160
1642 2346
1642 2497
1642 2540
1642 2554
1642 2578
1643 2376
1643 2670
1644 2559
1645 2134
1645 2165
1645 2166
1645 2516
1646 2510
1646 2600
1647 1702
1647 1743
1647 1768
1647 1772
1647 1848
1647 1878
1647 1979
1647 2012
1647 2146
1647 2245
1647 2297
1647 2428
1647 2506
1647 2597
1648 1696
1648 1931
1648 2037
1648 2290
1648 2310
1648 2353
1648 2371
1648 2444
1648 2553
1648 2629
1649 1703
1649 1705
1649 1706
1649 1708
1649 1719
1649 1721
1649 1799
1649 1819
1649 1827
1649 1830
1649 1845
1649 1870
1649 1930
1649 1949
1649 2005
1649 2014
1649 2048
1649 2119
1649 2208
1649 2239
1649 2258
1649 2294
1649 2330
1649 2520
1649 2591
1649 2671
1649 2676
1650 1659
1650 1708
1650 1742
1650 1971
1650 2011
1650 2051
1650 2237
1650 2240
1650 2289
1650 2375
1650 2387
1650 2451
1650 2464
1650 2469
1650 2550
1650 2587
1650 2618
1651 1684
1651 1781
1651 1883
1651 2249
1651 2252
1651 2438
1651 2445
1651 2450
1651 2495
1651 2555
1651 2564
1651 2600
1652 1708
1652 1733
1652 1737
1652 1738
1652 1773
1652 1863
1652 1881
1652 1883
1652 1923
1652 1983
1652 2001
1652 2048
1652 2050
1652 2051
1652 2189
1652 2201
1652 2215
1652 2231
1652 2303
1652 2363
1652 2380
1652 2385
1652 2435
1652 2456
1654 1760
1654 2073
1654 2119
1654 2302
1654 2616
1655 1706
1655 1854
1655 1888
1655 1952
1655 1976
1655 2261
1655 2367
1655 2376
1655 2398
1656 2002
1656 2007
1656 2523
1657 1662
1657 1824
1657 1934
1657 2042
1657 2180
1657 2221
1657 2282
1657 2410
1657 2413
1657 2526
1657 2629
1657 2649
1658 1722
1658 1814
1658 1930
1658 2005
1658 2015
1658 2085
1658 2136
1658 2150
1658 2157
1658 2251
1658 2255
1658 2270
1658 2381
1658 2510
1658 2568
1658 2580
1659 1829
1659 1838
1659 1881
1659 1883
1659 1909
1659 1931
1659 1963
1659 1971
1659 2011
1659 2016
1659 2048
1659 2093
1659 2137
1659 2180
1659 2258
1659 2269
1659 2289
1659 2290
1659 2335
1659 2363
1659 2370
1659 2375
1659 2387
1659 2397
1659 2419
1659 2451
1659 2456
1659 2464
1659 2474
1659 2578
1659 2593
1659 2603
1659 2618
1659 2629
1660 1736
1660 1788
1660 1799
1660 1858
1660 1967
1660 2142
1660 2199
1660 2370
1660 2413
1660 2430
1660 2540
1660 2593
1661 1682
1661 1717
1661 1718
1661 2053
1661 2071
1661 2100
1661 2583
1662 1714
1662 1730
1662 1824
1662 1833
1662 1870
1662 1931
1662 1934
1662 1980
1662 1989
1662 2025
1662 2076
1662 2095
1662 2172
1662 2180
1662 2221
1662 2282
1662 2286
1662 2310
1662 2362
1662 2377
1662 2410
1662 2522
1662 2526
1662 2584
1662 2626
1662 2638
1663 1782
1663 1936
1663 2468
1663 2512
1663 2608
1664 1696
1664 1736
1664 1738
1664 1824
1664 1831
1664 1870
1664 1954
1664 2051
1664 2068
1664 2092
1664 2095
1664 2110
1664 2175
1664 2221
1664 2233
1664 2268
1664 2277
1664 2311
1664 2370
1664 2385
1664 2432
1664 2456
1664 2603
1664 2608
1664 2615
1664 2617
1664 2669
1664 2671
1665 1745
1666 2001
1666 2236
1666 2442
1667 1669
1667 1681
1667 1759
1667 1877
1667 1986
1667 1987
1667 2003
1667 2015
1667 2129
1667 2136
1667 2167
1667 2340
1667 2666
1668 1770
1668 1958
1668 2015
1668 2464
1668 2544
1668 2592
1669 1986
1669 2015
1669 2069
1669 2123
1669 2129
1669 2666
1670 1705
1670 1817
1670 1831
1670 1919
1670 2110
1670 2367
1670 2421
1670 2536
1670 2576
1670 2608
1671 1723
1671 1746
1671 1796
1671 1870
1671 1871
1671 1902
1671 1938
1671 1945
1671 1947
1671 1954
1671 1978
1671 2104
1671 2202
1671 2235
1671 2290
1671 2299
1671 2316
1671 2365
1671 2387
1671 2456
1671 2492
1671 2502
1672 1762
1672 1797
1672 1915
1672 1982
1672 2039
1672 2048
1672 2104
1672 2269
1672 2387
1672 2523
1672 2634
1672 2671
1673 1696
1673 1709
1673 1736
1673 1799
1673 1817
1673 1868
1673 1870
1673 1885
1673 1901
1673 1934
1673 1942
1673 1945
1673 1946
1673 2078
1673 2184
1673 2199
1673 2286
1673 2358
1673 2361
1673 2421
1673 2434
1673 2435
1673 2591
1673 2608
1673 2676
1674 1726
1674 1789
1674 1823
1674 1870
1674 2115
1674 2124
1674 2242
1674 2370
1674 2440
1674 2450
1674 2495
1674 2666
1675 1700
1675 1719
1675 1723
1675 1730
1675 1736
1675 1737
1675 1760
1675 1773
1675 1782
1675 1784
1675 1945
1675 1951
1675 1998
1675 2016
1675 2021
1675 2038
1675 2050
1675 2051
1675 2162
1675 2200
1675 2208
1675 2221
1675 2251
1675 2258
1675 2286
1675 2352
1675 2399
1675 2456
1675 2476
1675 2520
1675 2593
1675 2645
1675 2655
1675 2671
1675 2673
1676 1835
1676 1898
1676 2016
1676 2046
1676 2100
1676 2229
1676 2263
1676 2452
1676 2455
1676 2457
1677 1735
1677 1791
1677 1823
1677 1934
1677 1968
1677 2150
1677 2185
1677 2370
1677 2436
1677 2493
1678 1729
1678 1739
1678 1795
1678 1837
1678 1840
1678 1893
1678 2109
1678 2182
1678 2203
1678 2225
1678 2370
1678 2444
1678 2451
1678 2609
1680 1747
1680 1874
1680 1986
1680 2003
1680 2015
1680 2089
1680 2136
1680 2219
1680 2349
1680 2666
1681 1703
1681 1722
1681 1877
1681 1986
1681 2003
1681 2005
1681 2015
1681 2065
1681 2084
1681 2103
1681 2129
1681 2150
1681 2154
1681 2167
1681 2219
1681 2242
1681 2331
1681 2396
1681 2555
1681 2565
1681 2568
1681 2580
1681 2666
1682 1717
1682 1736
1682 1861
1682 2053
1682 2243
1682 2262
1682 2267
1682 2329
1683 1696
1683 1718
1683 1778
1683 1809
1683 1821
1683 1837
1683 1840
1683 1870
1683 1897
1683 1916
1683 1917
1683 1994
1683 2030
1683 2037
1683 2110
1683 2147
1683 2172
1683 2228
1683 2310
1683 2318
1683 2353
1683 2395
1683 2453
1683 2502
1683 2586
1683 2607
1683 2633
1683 2642
1683 2665
1683 2666
1684 1778
1684 1871
1684 1883
1684 2140
1684 2228
1684 2270
1684 2528
1684 2564
1685 1699
1685 1721
1685 1750
1685 1760
1685 1762
1685 1764
1685 1773
1685 1783
1685 1784
1685 1789
1685 1840
1685 1883
1685 1885
1685 1897
1685 1916
1685 1931
1685 1938
1685 1941
1685 1967
1685 1971
1685 1979
1685 1983
1685 1984
1685 2021
1685 2062
1685 2083
1685 2101
1685 2104
1685 2109
1685 2137
1685 2151
1685 2175
1685 2182
1685 2200
1685 2201
1685 2246
1685 2286
1685 2294
1685 2342
1685 2387
1685 2435
1685 2464
1685 2501
1685 2551
1685 2570
1685 2574
1685 2593
1685 2599
1685 2618
1685 2634
1685 2660
1686 1698
1686 1729
1686 1741
1686 1779
1686 1784
1686 1796
1686 1824
1686 1840
1686 1863
1686 1881
1686 1912
1686 1919
1686 1993
1686 1996
1686 2015
1686 2039
1686 2091
1686 2093
1686 2202
1686 2205
1686 2221
1686 2228
1686 2233
1686 2277
1686 2313
1686 2318
1686 2327
1686 2343
1686 2370
1686 2421
1686 2544
1686 2608
1686 2651
1687 1691
1687 1692
1687 1708
1687 1715
1687 1739
1687 1760
1687 1769
1687 1770
1687 1795
1687 1837
1687 1869
1687 1969
1687 1979
1687 1980
1687 2016
1687 2037
1687 2062
1687 2151
1687 2200
1687 2201
1687 2212
1687 2231
1687 2232
1687 2235
1687 2367
1687 2370
1687 2390
1687 2430
1687 2437
1687 2496
1687 2499
1687 2530
1687 2548
1687 2589
1687 2593
1687 2604
1687 2608
1687 2634
1687 2658
1688 1691
1688 1692
1688 1714
1688 1787
1688 1799
1688 1837
1688 1893
1688 1957
1688 1994
1688 1998
1688 2010
1688 2062
1688 2127
1688 2140
1688 2163
1688 2180
1688 2184
1688 2201
1688 2254
1688 2282
1688 2321
1688 2367
1688 2370
1688 2392
1688 2433
1688 2459
1688 2593
1688 2604
1689 2386
1690 1776
1690 1901
1690 2062
1691 1714
1691 1773
1691 1795
1691 1798
1691 1835
1691 1837
1691 1870
1691 1969
1691 1979
1691 2027
1691 2046
1691 2201
1691 2225
1691 2232
1691 2261
1691 2309
1691 2347
1691 2367
1691 2385
1691 2390
1691 2530
1691 2584
1691 2638
1691 2659
1692 1696
1692 1700
1692 1706
1692 1770
1692 1795
1692 1796
1692 1837
1692 1838
1692 1869
1692 2039
1692 2042
1692 2179
1692 2201
1692 2205
1692 2309
1692 2367
1692 2370
1692 2386
1692 2390
1692 2395
1692 2426
1692 2486
1692 2561
1693 1778
1693 1857
1693 1870
1693 1871
1693 1916
1693 2079
1693 2321
1693 2347
1693 2570
1693 2634
1694 2002
1694 2283
1694 2497
1694 2577
1695 1703
1695 1768
1695 1911
1695 2009
1695 2029
1695 2166
1695 2242
1695 2348
1695 2484
1696 1705
1696 1713
1696 1715
1696 1720
1696 1723
1696 1729
1696 1736
1696 1765
1696 1770
1696 1779
1696 1782
1696 1795
1696 1797
1696 1809
1696 1816
1696 1822
1696 1839
1696 1847
1696 1850
1696 1863
1696 1868
1696 1883
1696 1895
1696 1917
1696 1923
1696 1931
1696 1933
1696 1958
1696 1980
1696 2001
1696 2004
1696 2007
1696 2016
1696 2027
1696 2039
1696 2042
1696 2045
1696 2046
1696 2050
1696 2137
1696 2138
1696 2161
1696 2163
1696 2172
1696 2179
1696 2180
1696 2212
1696 2233
1696 2235
1696 2265
1696 2287
1696 2294
1696 2302
1696 2309
1696 2327
1696 2365
1696 2377
1696 2386
1696 2410
1696 2427
1696 2434
1696 2443
1696 2460
1696 2479
1696 2486
1696 2498
1696 2512
1696 2526
1696 2530
1696 2536
1696 2544
1696 2553
1696 2561
1696 2569
1696 2588
1696 2610
1696 2612
1696 2613
1696 2639
1696 2642
1696 2649
1696 2654
1696 2670
1696 2676
1697 1724
1697 1733
1697 1825
1697 1840
1697 1897
1697 1907
1697 1917
1697 1950
1697 2037
1697 2228
1697 2313
1697 2334
1697 2386
1697 2392
1697 2570
1697 2665
1698 1851
1698 1919
1698 1971
1698 2081
1698 2211
1698 2318
1698 2420
1698 2557
1698 2585
1698 2654
1699 1733
1699 1760
1699 1761
1699 1762
1699 1783
1699 1883
1699 1885
1699 1916
1699 1938
1699 1941
1699 1979
1699 1980
1699 1983
1699 1984
1699 2010
1699 2025
1699 2083
1699 2116
1699 2137
1699 2201
1699 2231
1699 2246
1699 2275
1699 2298
1699 2312
1699 2342
1699 2380
1699 2434
1699 2435
1699 2444
1699 2464
1699 2478
1699 2501
1699 2545
1699 2550
1699 2551
1699 2570
1699 2574
1699 2593
1699 2606
1699 2618
1699 2659
1699 2660
1699 2673
1701 2072
1702 1703
1702 1743
1702 1763
1702 1768
1702 1772
1702 1814
1702 1884
1702 1906
1702 1934
1702 1979
1702 2012
1702 2043
1702 2124
1702 2146
1702 2150
1702 2154
1702 2174
1702 2228
1702 2245
1702 2285
1702 2297
1702 2300
1702 2328
1702 2350
1702 2428
1702 2439
1702 2506
1702 2545
1702 2568
1702 2580
1702 2585
1702 2597
1702 2624
1702 2652
1703 1711
1703 1722
1703 1726
1703 1744
1703 1791
1703 1823
1703 1848
1703 1866
1703 1873
1703 1884
1703 1906
1703 1911
1703 1930
1703 1995
1703 2003
1703 2005
1703 2017
1703 2065
1703 2085
1703 2115
1703 2124
1703 2136
1703 2154
1703 2157
1703 2185
1703 2192
1703 2194
1703 2195
1703 2204
1703 2218
1703 2242
1703 2251
1703 2255
1703 2270
1703 2285
1703 2292
1703 2295
1703 2297
1703 2310
1703 2350
1703 2370
1703 2405
1703 2419
1703 2484
1703 2495
1703 2510
1703 2540
1703 2568
1703 2580
1703 2585
1703 2601
1703 2652
1703 2666
1703 2672
1704 1753
1704 1784
1704 1810
1704 1821
1704 1929
1704 1957
1704 2015
1704 2093
1704 2109
1704 2138
1704 2340
1704 2565
1704 2615
1705 2361
1705 2427
1705 2443
1705 2536
1706 1770
1706 1819
1706 1830
1706 1854
1706 1868
1706 1952
1706 2039
1706 2160
1706 2192
1706 2199
1706 2254
1706 2274
1706 2327
1706 2352
1706 2376
1706 2497
1706 2513
1706 2514
1706 2572
1706 2577
1707 1722
1707 1744
1707 2194
1707 2350
1707 2375
1707 2568
1707 2672
1708 1719
1708 1721
1708 1733
1708 1737
1708 1738
1708 1742
1708 1760
1708 1769
1708 1773
1708 1782
1708 1795
1708 1796
1708 1799
1708 1837
1708 1847
1708 1869
1708 1876
1708 1883
1708 1893
1708 1897
1708 1914
1708 1916
1708 1938
1708 1942
1708 1978
1708 1979
1708 1983
1708 1984
1708 2007
1708 2016
1708 2048
1708 2050
1708 2051
1708 2053
1708 2079
1708 2091
1708 2100
1708 2135
1708 2144
1708 2151
1708 2155
1708 2171
1708 2183
1708 2188
1708 2189
1708 2190
1708 2201
1708 2212
1708 2215
1708 2222
1708 2228
1708 2231
1708 2235
1708 2258
1708 2261
1708 2267
1708 2283
1708 2330
1708 2363
1708 2367
1708 2380
1708 2385
1708 2387
1708 2390
1708 2425
1708 2435
1708 2456
1708 2467
1708 2475
1708 2520
1708 2529
1708 2583
1708 2586
1708 2593
1708 2598
1708 2651
1708 2661
1708 2671
1709 1717
1709 1718
1709 1745
1709 1752
1709 1805
1709 1858
1709 1862
1709 1863
1709 1868
1709 1904
1709 1933
1709 1934
1709 1998
1709 2038
1709 2039
1709 2062
1709 2073
1709 2091
1709 2099
1709 2119
1709 2128
1709 2184
1709 2188
1709 2197
1709 2254
1709 2282
1709 2297
1709 2307
1709 2329
1709 2359
1709 2377
1709 2410
1709 2470
1709 2479
1709 2481
1709 2491
1709 2512
1709 2518
1709 2526
1709 2588
1709 2589
1709 2649
1709 2655
1710 1712
1710 1874
1710 1956
1710 2015
1710 2085
1710 2218
1710 2270
1710 2373
1711 1726
1711 1747
1711 1814
1711 1906
1711 1933
1711 1934
1711 1962
1711 1985
1711 2005
1711 2015
1711 2030
1711 2043
1711 2150
1711 2192
1711 2300
1711 2479
1711 2540
1711 2567
1711 2580
1711 2659
1712 1885
1712 2218
1713 1840
1713 1881
1713 1912
1713 1917
1713 1931
1713 2112
1713 2163
1713 2182
1713 2202
1713 2210
1713 2228
1713 2268
1713 2277
1713 2310
1713 2342
1713 2358
1713 2370
1713 2397
1713 2403
1713 2417
1713 2444
1713 2460
1713 2470
1713 2474
1713 2489
1713 2491
1713 2507
1713 2547
1713 2559
1713 2608
1713 2629
1713 2633
1713 2651
1713 2671
1714 1764
1714 1773
1714 1833
1714 1862
1714 1913
1714 1934
1714 1979
1714 2261
1714 2294
1714 2367
1714 2522
1714 2584
1714 2614
1714 2638
1714 2659
1715 1750
1715 1795
1715 1846
1715 1852
1715 1883
1715 1951
1715 1967
1715 1984
1715 2161
1715 2237
1715 2302
1715 2303
1715 2365
1715 2520
1715 2574
1715 2593
1715 2616
1716 2000
1716 2196
1716 2362
1716 2576
1716 2591
1716 2593
1716 2670
1717 1910
1717 1923
1717 1934
1717 2053
1717 2071
1717 2084
1717 2112
1717 2234
1717 2243
1717 2329
1717 2382
1717 2424
1717 2429
1717 2479
1717 2490
1717 2540
1717 2582
1717 2624
1717 2651
1717 2668
1718 1752
1718 1771
1718 1819
1718 1852
1718 1870
1718 1883
1718 1886
1718 1933
1718 2062
1718 2071
1718 2073
1718 2078
1718 2149
1718 2234
1718 2261
1718 2288
1718 2367
1718 2369
1718 2434
1718 2481
1718 2490
1718 2494
1718 2497
1718 2502
1718 2577
1718 2614
1719 1721
1719 1737
1719 1745
1719 1748
1719 1782
1719 1796
1719 1799
1719 1870
1719 1895
1719 1954
1719 1963
1719 1979
1719 1998
1719 2014
1719 2068
1719 2119
1719 2135
1719 2142
1719 2161
1719 2208
1719 2239
1719 2251
1719 2263
1719 2294
1719 2299
1719 2380
1719 2387
1719 2399
1719 2492
1719 2520
1719 2523
1719 2524
1719 2544
1719 2570
1719 2586
1719 2591
1719 2630
1719 2637
1719 2651
1719 2671
1719 2676
1720 1957
1720 2004
1720 2163
1720 2333
1720 2370
1720 2443
1720 2474
1720 2483
1720 2642
1721 1737
1721 1760
1721 1784
1721 1799
1721 1815
1721 1819
1721 1835
1721 1845
1721 1870
1721 1895
1721 1998
1721 2014
1721 2016
1721 2119
1721 2151
1721 2189
1721 2208
1721 2239
1721 2258
1721 2294
1721 2312
1721 2330
1721 2389
1721 2421
1721 2467
1721 2514
1721 2520
1721 2570
1721 2591
1721 2593
1721 2598
1721 2660
1721 2671
1721 2676
1722 1744
1722 1773
1722 1814
1722 1911
1722 2005
1722 2015
1722 2065
1722 2124
1722 2136
1722 2154
1722 2163
1722 2185
1722 2194
1722 2220
1722 2253
1722 2270
1722 2297
1722 2339
1722 2349
1722 2350
1722 2405
1722 2445
1722 2510
1722 2568
1722 2597
1722 2652
1722 2672
1723 1746
1723 1796
1723 1870
1723 1871
1723 1916
1723 1931
1723 1938
1723 1947
1723 1978
1723 1998
1723 2068
1723 2151
1723 2190
1723 2221
1723 2235
1723 2299
1723 2327
1723 2456
1723 2520
1723 2583
1723 2588
1723 2634
1723 2637
1723 2658
1724 1760
1724 1769
1724 1786
1724 1808
1724 1817
1724 1819
1724 1840
1724 1907
1724 1935
1724 2010
1724 2037
1724 2112
1724 2128
1724 2163
1724 2182
1724 2211
1724 2228
1724 2312
1724 2313
1724 2335
1724 2346
1724 2362
1724 2370
1724 2417
1724 2486
1724 2501
1724 2507
1724 2528
1724 2539
1724 2617
1724 2620
1724 2659
1725 1845
1725 2015
1726 1791
1726 1792
1726 1870
1726 1873
1726 1906
1726 1911
1726 1934
1726 1962
1726 1968
1726 1970
1726 1985
1726 2015
1726 2030
1726 2043
1726 2084
1726 2085
1726 2150
1726 2157
1726 2192
1726 2204
1726 2207
1726 2247
1726 2248
1726 2256
1726 2370
1726 2405
1726 2484
1726 2495
1726 2502
1726 2516
1726 2541
1726 2580
1726 2601
1726 2652
1726 2659
1727 1788
1727 1816
1727 1846
1727 1852
1727 1891
1727 1920
1727 2319
1727 2387
1727 2469
1727 2569
1727 2608
1727 2676
1728 1790
1728 2039
1728 2078
1728 2137
1728 2162
1728 2179
1728 2200
1728 2212
1728 2360
1728 2361
1728 2398
1728 2659
1729 1733
1729 1741
1729 1758
1729 1784
1729 1795
1729 1801
1729 1837
1729 1840
1729 1881
1729 1890
1729 1897
1729 1912
1729 1916
1729 1917
1729 1979
1729 2034
1729 2042
1729 2151
1729 2163
1729 2175
1729 2190
1729 2201
1729 2211
1729 2228
1729 2277
1729 2343
1729 2370
1729 2417
1729 2491
1729 2507
1729 2509
1729 2515
1729 2593
1729 2633
1730 1737
1730 1762
1730 1771
1730 1846
1730 1870
1730 1883
1730 1951
1730 1963
1730 1967
1730 1979
1730 1982
1730 1984
1730 2007
1730 2025
1730 2076
1730 2110
1730 2182
1730 2189
1730 2221
1730 2234
1730 2240
1730 2311
1730 2387
1730 2488
1730 2492
1730 2514
1730 2521
1730 2523
1730 2563
1730 2598
1730 2634
1730 2660
1730 2671
1731 1923
1731 2410
1731 2544
1732 1764
1732 1765
1732 1790
1732 1852
1732 1856
1732 1939
1732 1965
1732 2016
1732 2058
1732 2099
1732 2162
1732 2179
1732 2298
1732 2309
1732 2324
1732 2362
1732 2449
1732 2482
1732 2591
1732 2593
1732 2599
1733 1742
1733 1750
1733 1758
1733 1773
1733 1778
1733 1779
1733 1783
1733 1798
1733 1821
1733 1840
1733 1855
1733 1857
1733 1869
1733 1871
1733 1883
1733 1887
1733 1893
1733 1897
1733 1908
1733 1912
1733 1915
1733 1916
1733 1926
1733 1938
1733 1941
1733 1950
1733 1967
1733 1979
1733 1983
1733 1994
1733 1999
1733 2016
1733 2046
1733 2050
1733 2062
1733 2068
1733 2079
1733 2083
1733 2118
1733 2135
1733 2137
1733 2140
1733 2151
1733 2162
1733 2189
1733 2201
1733 2203
1733 2211
1733 2215
1733 2228
1733 2246
1733 2264
1733 2278
1733 2294
1733 2296
1733 2316
1733 2326
1733 2330
1733 2334
1733 2342
1733 2347
1733 2360
1733 2370
1733 2385
1733 2392
1733 2401
1733 2425
1733 2432
1733 2435
1733 2453
1733 2456
1733 2467
1733 2474
1733 2533
1733 2549
1733 2570
1733 2574
1733 2584
1733 2586
1733 2593
1733 2595
1733 2607
1733 2623
1733 2628
1733 2633
1733 2634
1734 1760
1734 1770
1734 1795
1734 1957
1734 2004
1734 2039
1734 2097
1734 2201
1734 2228
1734 2311
1734 2370
1734 2378
1734 2460
1734 2615
1734 2634
1734 2671
1735 1768
1735 2340
1735 2405
1736 1737
1736 1738
1736 1757
1736 1788
1736 1799
1736 1822
1736 1830
1736 1835
1736 1901
1736 1923
1736 1934
1736 1942
1736 1965
1736 2039
1736 2052
1736 2073
1736 2114
1736 2137
1736 2142
1736 2162
1736 2188
1736 2199
1736 2233
1736 2309
1736 2363
1736 2367
1736 2377
1736 2379
1736 2479
1736 2490
1736 2562
1736 2585
1736 2591
1736 2640
1736 2676
1737 1983
1737 1984
1737 2014
1737 2025
1737 2050
1737 2162
1737 2200
1737 2208
1737 2227
1737 2251
1737 2361
1737 2399
1737 2435
1737 2476
1737 2520
1737 2574
1737 2645
1737 2655
1737 2671
1737 2673
1738 1852
1738 1945
1738 2048
1738 2051
1738 2147
1738 2215
1738 2352
1738 2363
1738 2385
1738 2387
1738 2456
1738 2659
1738 2671
1739 1760
1739 1795
1739 1837
1739 1979
1739 2062
1739 2201
1739 2261
1739 2358
1739 2361
1739 2367
1739 2370
1739 2390
1739 2459
1739 2586
1739 2604
1739 2608
1741 1801
1741 1882
1741 1980
1741 2175
1741 2217
1741 2264
1741 2305
1741 2318
1741 2327
1741 2343
1741 2370
1741 2585
1741 2639
1742 1798
1742 1829
1742 1834
1742 1855
1742 1869
1742 1871
1742 1893
1742 1897
1742 1912
1742 1916
1742 1923
1742 1941
1742 1973
1742 2051
1742 2062
1742 2079
1742 2119
1742 2140
1742 2188
1742 2192
1742 2294
1742 2316
1742 2327
1742 2347
1742 2379
1742 2392
1742 2425
1742 2430
1742 2471
1742 2540
1742 2554
1742 2570
1742 2588
1742 2677
1743 1934
1743 1979
1743 2111
1743 2134
1743 2146
1743 2157
1743 2245
1743 2297
1743 2318
1743 2387
1743 2428
1743 2597
1744 1762
1744 1772
1744 1791
1744 1848
1744 1932
1744 1934
1744 1984
1744 2005
1744 2101
1744 2115
1744 2150
1744 2154
1744 2170
1744 2194
1744 2242
1744 2257
1744 2297
1744 2328
1744 2350
1744 2399
1744 2405
1744 2428
1744 2516
1744 2541
1744 2568
1744 2652
1744 2672
1745 1795
1745 1870
1745 1923
1745 1944
1745 1998
1745 2001
1745 2119
1745 2163
1745 2209
1745 2299
1745 2352
1745 2367
1745 2389
1745 2399
1745 2456
1745 2467
1745 2588
1745 2591
1745 2598
1745 2651
1746 1762
1746 1782
1746 1797
1746 1840
1746 1883
1746 1895
1746 1918
1746 1947
1746 2007
1746 2101
1746 2201
1746 2231
1746 2235
1746 2267
1746 2269
1746 2280
1746 2380
1746 2492
1746 2524
1746 2637
1746 2658
1747 2015
1747 2069
1747 2123
1747 2256
1747 2328
1747 2331
1747 2555
1748 1909
1748 2001
1748 2048
1748 2233
1748 2303
1748 2467
1748 2505
1748 2671
1749 1814
1749 1823
1749 2242
1749 2317
1749 2370
1749 2404
1749 2419
1749 2436
1749 2493
1749 2506
1749 2666
1750 1758
1750 1760
1750 1769
1750 1805
1750 1827
1750 1840
1750 1846
1750 1850
1750 1871
1750 1876
1750 1887
1750 1897
1750 1908
1750 1916
1750 1918
1750 1923
1750 1941
1750 1967
1750 1994
1750 2010
1750 2016
1750 2023
1750 2025
1750 2046
1750 2066
1750 2079
1750 2083
1750 2135
1750 2137
1750 2144
1750 2151
1750 2161
1750 2171
1750 2187
1750 2201
1750 2211
1750 2231
1750 2235
1750 2246
1750 2264
1750 2278
1750 2280
1750 2294
1750 2302
1750 2316
1750 2324
1750 2327
1750 2347
1750 2358
1750 2365
1750 2371
1750 2392
1750 2471
1750 2482
1750 2492
1750 2528
1750 2551
1750 2570
1750 2574
1750 2578
1750 2593
1750 2598
1750 2623
1750 2628
1750 2636
1750 2637
1750 2677
1751 2166
1752 1856
1752 1863
1752 1868
1752 1927
1752 2099
1752 2329
1752 2479
1752 2481
1752 2586
1753 1758
1753 1821
1753 1929
1753 1957
1753 2081
1753 2093
1753 2109
1753 2138
1753 2370
1753 2432
1753 2451
1753 2473
1753 2615
1754 1778
1754 1783
1754 1795
1754 2213
1754 2221
1754 2277
1754 2474
1754 2574
1755 1802
1755 1968
1755 2019
1755 2020
1755 2323
1755 2364
1755 2501
1756 2607
1757 1858
1757 1895
1757 2014
1757 2142
1757 2208
1757 2239
1757 2269
1757 2464
1757 2492
1757 2520
1757 2591
1757 2630
1757 2671
1758 1760
1758 1779
1758 1840
1758 1855
1758 1871
1758 1881
1758 1897
1758 1912
1758 1916
1758 1957
1758 1963
1758 1994
1758 2045
1758 2062
1758 2083
1758 2093
1758 2109
1758 2138
1758 2163
1758 2202
1758 2206
1758 2211
1758 2228
1758 2268
1758 2278
1758 2313
1758 2356
1758 2392
1758 2425
1758 2432
1758 2451
1758 2453
1758 2473
1758 2474
1758 2528
1758 2561
1758 2615
1758 2618
1758 2626
1758 2633
1759 1986
1759 2015
1759 2292
1759 2300
1759 2565
1759 2666
1760 1767
1760 1769
1760 1779
1760 1782
1760 1784
1760 1795
1760 1796
1760 1797
1760 1815
1760 1819
1760 1846
1760 1855
1760 1881
1760 1893
1760 1897
1760 1898
1760 1903
1760 1905
1760 1915
1760 1916
1760 1931
1760 1939
1760 1941
1760 1965
1760 1967
1760 1979
1760 1983
1760 1994
1760 2004
1760 2010
1760 2046
1760 2050
1760 2051
1760 2060
1760 2062
1760 2074
1760 2079
1760 2112
1760 2151
1760 2177
1760 2181
1760 2201
1760 2212
1760 2225
1760 2228
1760 2251
1760 2258
1760 2261
1760 2278
1760 2294
1760 2312
1760 2315
1760 2324
1760 2329
1760 2330
1760 2346
1760 2362
1760 2367
1760 2392
1760 2411
1760 2425
1760 2435
1760 2437
1760 2454
1760 2458
1760 2482
1760 2483
1760 2501
1760 2512
1760 2539
1760 2544
1760 2551
1760 2556
1760 2570
1760 2586
1760 2593
1760 2599
1760 2615
1760 2616
1760 2618
1760 2636
1760 2637
1760 2639
1760 2670
1760 2673
1761 1769
1761 1784
1761 1852
1761 1875
1761 1931
1761 1979
1761 2027
1761 2060
1761 2112
1761 2309
1761 2410
1761 2501
1761 2547
1761 2616
1761 2659
1761 2673
1762 1794
1762 1799
1762 1850
1762 1883
1762 1942
1762 1951
1762 1954
1762 1963
1762 1964
1762 1967
1762 1979
1762 1982
1762 1983
1762 1984
1762 2033
1762 2076
1762 2096
1762 2101
1762 2104
1762 2109
1762 2137
1762 2151
1762 2163
1762 2184
1762 2197
1762 2231
1762 2235
1762 2300
1762 2312
1762 2347
1762 2377
1762 2380
1762 2387
1762 2389
1762 2399
1762 2425
1762 2434
1762 2435
1762 2521
1762 2570
1762 2591
1762 2660
1762 2673
1762 2677
1763 1934
1763 1970
1763 1979
1763 2003
1763 2012
1763 2111
1763 2146
1763 2245
1763 2297
1763 2506
1763 2568
1764 1852
1764 1864
1764 1876
1764 1881
1764 1894
1764 1923
1764 1965
1764 1979
1764 2058
1764 2061
1764 2140
1764 2142
1764 2177
1764 2179
1764 2246
1764 2261
1764 2362
1764 2376
1764 2501
1764 2534
1764 2551
1764 2563
1764 2591
1765 1885
1765 1887
1765 1897
1765 1912
1765 1916
1765 1940
1765 1994
1765 2411
1765 2482
1765 2599
1765 2609
1765 2646
1766 1816
1766 1895
1766 2034
1766 2035
1766 2041
1766 2144
1766 2175
1766 2264
1766 2302
1766 2305
1766 2474
1766 2515
1766 2569
1766 2598
1766 2639
1766 2653
1767 1857
1767 1887
1767 1939
1767 1958
1767 1980
1767 2140
1767 2164
1767 2296
1767 2452
1767 2468
1767 2483
1767 2501
1767 2566
1767 2586
1767 2673
1768 2009
1768 2054
1768 2125
1768 2166
1768 2348
1768 2405
1768 2428
1768 2597
1769 1773
1769 1819
1769 1837
1769 1852
1769 1912
1769 1958
1769 1967
1769 2010
1769 2046
1769 2074
1769 2112
1769 2151
1769 2201
1769 2294
1769 2312
1769 2346
1769 2362
1769 2370
1769 2458
1769 2464
1769 2539
1769 2544
1769 2553
1769 2593
1769 2616
1769 2618
1770 1838
1770 1931
1770 1979
1770 2024
1770 2039
1770 2042
1770 2074
1770 2097
1770 2161
1770 2179
1770 2180
1770 2205
1770 2386
1770 2423
1770 2426
1770 2460
1770 2486
1770 2489
1770 2496
1770 2544
1770 2561
1770 2612
1771 1870
1771 2039
1771 2234
1771 2367
1771 2434
1771 2497
1772 1814
1772 1821
1772 1878
1772 1880
1772 1979
1772 2111
1772 2146
1772 2224
1772 2245
1772 2317
1772 2428
1772 2597
1773 1795
1773 1799
1773 1883
1773 1901
1773 1923
1773 1933
1773 1963
1773 1983
1773 2048
1773 2050
1773 2079
1773 2091
1773 2100
1773 2112
1773 2162
1773 2179
1773 2188
1773 2189
1773 2200
1773 2209
1773 2215
1773 2233
1773 2251
1773 2261
1773 2262
1773 2267
1773 2282
1773 2294
1773 2303
1773 2309
1773 2359
1773 2367
1773 2370
1773 2380
1773 2385
1773 2435
1773 2437
1773 2454
1773 2456
1773 2489
1773 2574
1773 2586
1773 2593
1773 2616
1773 2626
1773 2636
1773 2638
1773 2644
1773 2660
1773 2671
1774 1798
1774 1920
1774 1994
1774 2023
1774 2034
1774 2367
1774 2622
1775 2121
1775 2200
1776 1819
1776 1820
1776 1835
1776 1920
1776 2062
1776 2118
1776 2171
1776 2456
1776 2584
1776 2604
1777 2278
1777 2296
1777 2566
1778 1795
1778 1817
1778 1825
1778 1840
1778 1871
1778 1887
1778 1897
1778 1907
1778 1912
1778 1915
1778 1916
1778 1917
1778 1941
1778 1964
1778 1999
1778 2037
1778 2206
1778 2228
1778 2334
1778 2336
1778 2370
1778 2392
1778 2408
1778 2423
1778 2453
1778 2486
1778 2544
1778 2570
1778 2607
1778 2626
1778 2633
1778 2634
1778 2665
1779 1784
1779 1821
1779 1825
1779 1840
1779 1855
1779 1871
1779 1881
1779 1897
1779 1912
1779 1915
1779 1917
1779 1920
1779 1931
1779 1941
1779 1957
1779 2007
1779 2011
1779 2015
1779 2036
1779 2081
1779 2083
1779 2093
1779 2109
1779 2126
1779 2175
1779 2177
1779 2202
1779 2203
1779 2206
1779 2211
1779 2213
1779 2221
1779 2228
1779 2231
1779 2232
1779 2240
1779 2241
1779 2289
1779 2296
1779 2313
1779 2316
1779 2324
1779 2327
1779 2356
1779 2370
1779 2392
1779 2403
1779 2421
1779 2423
1779 2424
1779 2437
1779 2451
1779 2473
1779 2503
1779 2523
1779 2528
1779 2561
1779 2570
1779 2580
1779 2585
1779 2612
1779 2615
1779 2618
1779 2633
1779 2647
1779 2668
1779 2670
1780 2304
1780 2629
1781 1961
1781 2136
1781 2555
1782 1783
1782 1784
1782 1827
1782 1847
1782 1876
1782 1895
1782 1916
1782 1923
1782 1958
1782 1984
1782 2050
1782 2101
1782 2197
1782 2201
1782 2208
1782 2235
1782 2267
1782 2294
1782 2311
1782 2377
1782 2387
1782 2389
1782 2437
1782 2492
1782 2524
1782 2556
1782 2589
1782 2670
1782 2676
1783 1883
1783 1916
1783 1931
1783 1938
1783 1983
1783 2112
1783 2137
1783 2172
1783 2180
1783 2201
1783 2310
1783 2395
1783 2435
1783 2444
1783 2551
1783 2561
1783 2574
1783 2629
1784 1821
1784 1850
1784 1871
1784 1895
1784 1897
1784 1916
1784 1979
1784 1998
1784 2001
1784 2016
1784 2021
1784 2068
1784 2100
1784 2109
1784 2135
1784 2151
1784 2163
1784 2201
1784 2202
1784 2294
1784 2311
1784 2358
1784 2370
1784 2386
1784 2421
1784 2422
1784 2458
1784 2460
1784 2523
1784 2530
1784 2551
1784 2570
1784 2574
1784 2589
1784 2593
1784 2594
1784 2608
1784 2615
1784 2617
1784 2661
1784 2671
1785 1943
1785 2122
1785 2469
1786 2058
1786 2182
1786 2231
1786 2496
1786 2548
1786 2635
1787 1796
1787 1870
1787 1876
1787 1904
1787 1933
1787 1934
1787 1979
1787 2027
1787 2071
1787 2179
1787 2261
1787 2267
1787 2299
1787 2337
1787 2361
1787 2367
1787 2476
1787 2490
1787 2500
1787 2577
1787 2614
1787 2638
1788 1803
1788 1834
1788 1845
1788 1891
1788 1904
1788 1923
1788 1933
1788 2010
1788 2039
1788 2142
1788 2155
1788 2188
1788 2239
1788 2294
1788 2358
1788 2370
1788 2379
1788 2413
1788 2446
1788 2528
1789 1923
1789 2048
1789 2061
1789 2091
1789 2092
1789 2138
1789 2175
1789 2177
1789 2188
1789 2231
1789 2341
1789 2437
1789 2553
1789 2598
1790 1813
1790 1822
1790 1938
1790 2007
1790 2068
1790 2162
1790 2200
1790 2212
1790 2274
1790 2360
1790 2398
1791 1823
1791 1906
1791 1934
1791 2084
1791 2085
1791 2157
1791 2185
1791 2350
1791 2370
1791 2404
1791 2440
1791 2510
1791 2568
1791 2652
1791 2672
1792 1873
1792 2087
1792 2111
1792 2139
1792 2194
1792 2292
1792 2293
1792 2350
1792 2541
1792 2652
1793 1998
1794 1947
1794 1954
1794 1984
1794 2033
1794 2048
1794 2051
1794 2076
1794 2101
1794 2104
1794 2215
1794 2385
1794 2387
1794 2399
1795 1837
1795 1869
1795 1883
1795 1890
1795 1893
1795 1941
1795 1957
1795 1979
1795 1994
1795 1998
1795 2007
1795 2010
1795 2016
1795 2062
1795 2091
1795 2099
1795 2118
1795 2140
1795 2148
1795 2151
1795 2164
1795 2179
1795 2180
1795 2201
1795 2212
1795 2222
1795 2231
1795 2277
1795 2294
1795 2312
1795 2367
1795 2370
1795 2389
1795 2390
1795 2392
1795 2395
1795 2425
1795 2452
1795 2514
1795 2544
1795 2562
1795 2583
1795 2586
1795 2593
1795 2604
1795 2605
1795 2617
1795 2659
1795 2673
1795 2674
1796 1809
1796 1824
1796 1829
1796 1871
1796 1885
1796 1887
1796 1897
1796 1907
1796 1916
1796 1938
1796 1942
1796 1945
1796 1978
1796 1994
1796 1998
1796 2025
1796 2068
1796 2127
1796 2161
1796 2162
1796 2163
1796 2171
1796 2190
1796 2201
1796 2209
1796 2213
1796 2235
1796 2264
1796 2278
1796 2294
1796 2299
1796 2309
1796 2337
1796 2347
1796 2380
1796 2392
1796 2456
1796 2553
1796 2570
1796 2585
1796 2586
1796 2637
1797 1798
1797 1903
1797 1938
1797 1955
1797 2016
1797 2021
1797 2023
1797 2025
1797 2056
1797 2145
1797 2162
1797 2171
1797 2181
1797 2205
1797 2212
1797 2222
1797 2231
1797 2235
1797 2258
1797 2286
1797 2294
1797 2297
1797 2310
1797 2399
1797 2426
1797 2437
1797 2467
1797 2492
1797 2496
1797 2523
1797 2534
1797 2578
1797 2598
1797 2609
1797 2637
1797 2658
1797 2671
1798 1832
1798 1858
1798 1871
1798 1885
1798 1918
1798 1963
1798 1969
1798 1979
1798 1980
1798 1998
1798 2007
1798 2010
1798 2016
1798 2052
1798 2062
1798 2068
1798 2078
1798 2090
1798 2099
1798 2118
1798 2151
1798 2168
1798 2179
1798 2188
1798 2189
1798 2190
1798 2225
1798 2262
1798 2263
1798 2294
1798 2302
1798 2309
1798 2330
1798 2346
1798 2361
1798 2362
1798 2380
1798 2386
1798 2392
1798 2401
1798 2430
1798 2446
1798 2469
1798 2483
1798 2501
1798 2514
1798 2570
1798 2583
1798 2584
1798 2594
1798 2610
1798 2612
1798 2646
1798 2651
1798 2659
1798 2661
1798 2673
1799 1883
1799 1887
1799 1901
1799 1916
1799 1918
1799 1942
1799 1998
1799 2039
1799 2067
1799 2155
1799 2162
1799 2184
1799 2199
1799 2208
1799 2286
1799 2290
1799 2307
1799 2363
1799 2367
1799 2371
1799 2377
1799 2399
1799 2435
1799 2456
1799 2467
1799 2591
1799 2636
1799 2662
1799 2676
1800 2048
1800 2057
1800 2121
1800 2135
1800 2175
1800 2215
1800 2264
1800 2362
1801 1812
1801 1824
1801 1927
1801 1980
1801 2061
1801 2175
1801 2217
1801 2361
1801 2431
1801 2432
1802 1949
1802 1968
1802 2019
1802 2020
1802 2323
1802 2364
1802 2511
1803 1838
1803 2042
1803 2074
1803 2287
1803 2321
1803 2413
1803 2544
1804 1909
1804 2489
1804 2550
1804 2571
1805 1831
1805 1919
1805 2081
1805 2327
1805 2345
1805 2413
1805 2421
1805 2489
1805 2592
1805 2608
1806 1841
1806 1930
1806 2000
1806 2155
1807 2016
1807 2263
1807 2593
1808 1817
1808 1882
1808 2037
1808 2182
1808 2313
1808 2334
1809 1855
1809 1869
1809 1899
1809 2004
1809 2016
1809 2051
1809 2062
1809 2092
1809 2172
1809 2183
1809 2212
1809 2231
1809 2233
1809 2268
1809 2294
1809 2309
1809 2311
1809 2365
1809 2385
1809 2386
1809 2425
1809 2426
1809 2457
1809 2505
1809 2547
1809 2603
1809 2609
1809 2649
1809 2665
1809 2669
1810 1840
1810 1874
1810 1911
1810 1947
1810 1988
1810 2003
1810 2065
1810 2124
1810 2194
1810 2204
1810 2245
1810 2255
1810 2257
1810 2270
1810 2300
1810 2568
1810 2659
1811 1870
1811 1906
1811 1934
1811 1946
1811 1970
1811 1987
1811 2510
1812 2112
1812 2175
1813 1856
1813 2007
1813 2039
1813 2068
1813 2179
1813 2187
1813 2360
1813 2398
1813 2452
1813 2570
1813 2591
1814 1878
1814 1961
1814 1979
1814 2012
1814 2054
1814 2111
1814 2123
1814 2124
1814 2134
1814 2136
1814 2146
1814 2154
1814 2245
1814 2279
1814 2295
1814 2350
1814 2506
1814 2568
1814 2580
1815 1835
1815 1845
1815 2042
1815 2048
1815 2074
1815 2189
1815 2370
1815 2386
1815 2395
1815 2421
1815 2458
1815 2496
1815 2540
1815 2544
1815 2654
1816 2035
1816 2144
1816 2266
1816 2291
1816 2319
1816 2561
1816 2569
1817 1831
1817 1837
1817 1840
1817 1860
1817 1870
1817 1887
1817 1907
1817 1919
1817 1934
1817 1946
1817 2037
1817 2042
1817 2110
1817 2149
1817 2182
1817 2277
1817 2313
1817 2326
1817 2327
1817 2334
1817 2367
1817 2421
1817 2424
1817 2429
1817 2486
1817 2533
1817 2592
1817 2668
1818 2231
1819 1830
1819 1917
1819 1939
1819 1965
1819 1969
1819 1994
1819 1999
1819 2010
1819 2046
1819 2062
1819 2074
1819 2112
1819 2162
1819 2212
1819 2225
1819 2228
1819 2229
1819 2261
1819 2305
1819 2307
1819 2312
1819 2361
1819 2362
1819 2367
1819 2539
1819 2544
1819 2599
1819 2618
1820 2228
1820 2265
1821 1871
1821 1897
1821 1916
1821 1929
1821 2021
1821 2081
1821 2093
1821 2109
1821 2138
1821 2202
1821 2228
1821 2473
1821 2574
1821 2594
1821 2615
1822 1854
1822 1868
1822 1870
1822 1901
1822 1942
1822 1979
1822 2027
1822 2062
1822 2075
1822 2162
1822 2196
1822 2200
1822 2209
1822 2387
1822 2398
1822 2411
1822 2469
1822 2532
1822 2594
1822 2632
1822 2640
1823 1870
1823 1873
1823 1934
1823 2044
1823 2137
1823 2146
1823 2154
1823 2157
1823 2185
1823 2317
1823 2375
1823 2404
1823 2436
1823 2440
1823 2493
1823 2568
1823 2652
1824 1919
1824 1931
1824 1955
1824 1996
1824 2053
1824 2074
1824 2095
1824 2172
1824 2180
1824 2183
1824 2205
1824 2210
1824 2221
1824 2231
1824 2240
1824 2310
1824 2318
1824 2327
1824 2353
1824 2370
1824 2379
1824 2410
1824 2413
1824 2421
1824 2426
1824 2489
1824 2496
1824 2501
1824 2526
1824 2585
1824 2651
1824 2662
1825 1840
1825 1855
1825 1917
1825 1940
1825 2083
1825 2203
1825 2206
1825 2228
1825 2296
1825 2326
1825 2334
1825 2378
1825 2453
1825 2486
1825 2528
1825 2533
1825 2611
1825 2615
1825 2633
1825 2634
1826 2019
1826 2500
1827 1839
1827 1852
1827 1923
1827 1965
1827 1967
1827 2294
1827 2362
1827 2520
1827 2534
1828 1909
1829 1870
1829 1934
1829 2149
1829 2199
1829 2209
1829 2246
1829 2264
1829 2283
1829 2297
1829 2299
1829 2309
1829 2361
1829 2456
1829 2570
1829 2598
1829 2660
1830 1979
1830 2130
1830 2199
1830 2262
1830 2274
1830 2306
1830 2361
1830 2514
1830 2532
1831 1881
1831 1919
1831 1923
1831 1944
1831 1946
1831 2044
1831 2081
1831 2093
1831 2110
1831 2163
1831 2240
1831 2327
1831 2345
1831 2363
1831 2417
1831 2421
1831 2432
1831 2489
1831 2507
1831 2553
1831 2592
1831 2608
1831 2655
1831 2668
1832 1838
1832 1840
1832 1870
1832 1881
1832 1910
1832 2128
1832 2163
1832 2179
1832 2190
1832 2294
1832 2305
1832 2313
1832 2399
1832 2474
1832 2491
1832 2578
1832 2593
1832 2626
1832 2633
1832 2651
1832 2658
1833 1870
1833 1934
1833 2522
1833 2614
1833 2638
1834 1923
1834 2142
1834 2231
1834 2254
1834 2379
1834 2413
1834 2540
1834 2544
1834 2553
1834 2554
1835 1845
1835 1858
1835 2001
1835 2016
1835 2046
1835 2093
1835 2189
1835 2193
1835 2196
1835 2377
1835 2421
1835 2422
1835 2449
1835 2483
1835 2499
1835 2591
1835 2676
1836 2595
1837 1840
1837 1869
1837 1890
1837 1893
1837 1907
1837 1912
1837 1938
1837 1979
1837 2034
1837 2037
1837 2042
1837 2151
1837 2201
1837 2202
1837 2211
1837 2228
1837 2343
1837 2353
1837 2370
1837 2390
1837 2417
1837 2459
1837 2550
1837 2586
1837 2593
1837 2608
1837 2615
1837 2633
1837 2667
1838 1917
1838 2039
1838 2042
1838 2163
1838 2192
1838 2313
1838 2353
1838 2421
1838 2422
1838 2486
1838 2489
1838 2544
1838 2578
1838 2609
1838 2612
1838 2655
1838 2662
1839 2001
1839 2027
1839 2045
1839 2164
1839 2294
1839 2321
1839 2370
1839 2411
1839 2413
1839 2423
1839 2534
1840 1857
1840 1869
1840 1871
1840 1874
1840 1881
1840 1887
1840 1897
1840 1907
1840 1912
1840 1916
1840 1917
1840 1941
1840 1947
1840 1957
1840 1970
1840 1979
1840 1994
1840 2034
1840 2037
1840 2062
1840 2068
1840 2081
1840 2083
1840 2137
1840 2163
1840 2182
1840 2202
1840 2203
1840 2206
1840 2210
1840 2211
1840 2212
1840 2228
1840 2246
1840 2277
1840 2278
1840 2313
1840 2316
1840 2318
1840 2327
1840 2334
1840 2343
1840 2347
1840 2370
1840 2392
1840 2397
1840 2408
1840 2423
1840 2425
1840 2453
1840 2474
1840 2488
1840 2489
1840 2491
1840 2505
1840 2515
1840 2551
1840 2570
1840 2578
1840 2606
1840 2607
1840 2615
1840 2628
1840 2633
1840 2634
1840 2668
1840 2673
1841 1930
1841 1986
1841 2328
1841 2565
1841 2666
1842 2175
1843 1847
1843 1899
1843 1971
1843 2011
1843 2073
1843 2109
1843 2208
1843 2289
1843 2387
1843 2451
1843 2464
1843 2587
1843 2618
1843 2629
1843 2634
1844 2178
1844 2244
1844 2295
1845 1923
1845 2062
1845 2078
1845 2160
1845 2180
1845 2189
1845 2228
1845 2294
1845 2421
1845 2442
1845 2497
1845 2634
1845 2636
1845 2659
1845 2676
1846 1855
1846 1979
1846 2025
1846 2076
1846 2110
1846 2202
1846 2221
1846 2240
1846 2286
1846 2365
1846 2444
1846 2576
1846 2593
1846 2623
1846 2634
1846 2661
1846 2662
1846 2677
1847 1903
1847 2006
1847 2016
1847 2190
1847 2212
1847 2294
1847 2302
1847 2307
1847 2309
1847 2365
1847 2501
1847 2536
1847 2661
1848 1934
1848 2005
1848 2115
1848 2146
1848 2150
1848 2154
1848 2219
1848 2295
1848 2300
1848 2350
1848 2405
1848 2568
1848 2621
1848 2652
1848 2672
1849 2078
1849 2214
1849 2321
1849 2512
1849 2586
1850 1854
1850 1903
1850 1967
1850 2027
1850 2101
1850 2161
1850 2163
1850 2197
1850 2354
1850 2377
1850 2387
1850 2389
1850 2460
1850 2520
1850 2530
1850 2589
1850 2637
1850 2670
1851 1989
1851 2250
1851 2282
1851 2362
1851 2453
1852 1883
1852 1931
1852 1938
1852 1939
1852 1947
1852 1951
1852 1953
1852 1965
1852 1967
1852 1979
1852 2002
1852 2007
1852 2046
1852 2062
1852 2096
1852 2112
1852 2201
1852 2287
1852 2362
1852 2387
1852 2410
1852 2449
1852 2464
1852 2501
1852 2524
1852 2530
1852 2586
1852 2588
1852 2608
1852 2615
1852 2616
1852 2629
1852 2659
1852 2661
1852 2671
1854 1868
1854 1894
1854 1901
1854 1965
1854 2075
1854 2160
1854 2199
1854 2274
1854 2352
1854 2376
1854 2552
1854 2613
1854 2636
1854 2676
1855 1869
1855 1885
1855 1897
1855 1916
1855 1941
1855 2062
1855 2083
1855 2118
1855 2140
1855 2182
1855 2201
1855 2228
1855 2264
1855 2294
1855 2334
1855 2392
1855 2425
1855 2430
1855 2453
1855 2515
1855 2521
1855 2570
1855 2615
1855 2623
1855 2628
1855 2633
1855 2634
1855 2651
1855 2661
1855 2671
1855 2673
1856 1927
1856 1953
1856 2099
1856 2367
1856 2624
1857 1914
1857 1979
1857 2182
1857 2228
1857 2332
1857 2430
1857 2452
1857 2468
1857 2469
1857 2586
1857 2608
1857 2623
1858 1894
1858 1895
1858 1901
1858 1924
1858 1937
1858 2010
1858 2046
1858 2062
1858 2074
1858 2186
1858 2199
1858 2232
1858 2234
1858 2312
1858 2346
1858 2362
1858 2386
1858 2539
1858 2596
1858 2674
1860 1915
1860 1931
1860 1964
1860 2037
1860 2042
1860 2074
1860 2097
1860 2110
1860 2172
1860 2180
1860 2182
1860 2221
1860 2311
1860 2423
1860 2437
1860 2544
1860 2553
1860 2563
1860 2626
1860 2628
1860 2643
1861 1870
1861 2243
1862 1870
1862 1904
1862 1933
1862 1934
1862 1964
1862 1979
1862 2027
1862 2071
1862 2090
1862 2099
1862 2137
1862 2143
1862 2149
1862 2243
1862 2261
1862 2262
1862 2282
1862 2290
1862 2307
1862 2367
1862 2479
1862 2481
1862 2490
1862 2500
1862 2522
1862 2638
1862 2657
1862 2659
1863 1868
1863 1870
1863 1876
1863 1923
1863 1933
1863 1934
1863 1970
1863 1978
1863 2044
1863 2071
1863 2073
1863 2084
1863 2137
1863 2149
1863 2290
1863 2297
1863 2299
1863 2309
1863 2361
1863 2367
1863 2424
1863 2426
1863 2456
1863 2479
1863 2490
1863 2500
1863 2502
1863 2540
1863 2614
1864 1914
1864 1969
1864 1979
1864 2138
1864 2201
1864 2370
1864 2570
1864 2593
1864 2604
1865 2040
1865 2517
1865 2600
1866 1874
1866 1930
1866 2156
1866 2204
1866 2295
1866 2393
1866 2510
1866 2614
1866 2652
1867 2200
1867 2432
1867 2575
1867 2663
1868 1901
1868 1934
1868 2038
1868 2073
1868 2119
1868 2179
1868 2199
1868 2321
1868 2329
1868 2398
1868 2479
1868 2481
1868 2518
1868 2526
1868 2649
1868 2651
1869 1871
1869 1893
1869 1897
1869 1915
1869 1941
1869 2062
1869 2140
1869 2190
1869 2222
1869 2228
1869 2294
1869 2312
1869 2347
1869 2390
1869 2392
1869 2425
1869 2430
1869 2453
1869 2521
1869 2570
1869 2633
1869 2660
1869 2665
1870 1871
1870 1876
1870 1902
1870 1910
1870 1916
1870 1923
1870 1934
1870 1938
1870 1947
1870 1952
1870 1958
1870 1963
1870 1967
1870 1978
1870 1979
1870 2010
1870 2027
1870 2030
1870 2036
1870 2050
1870 2053
1870 2086
1870 2099
1870 2101
1870 2111
1870 2114
1870 2119
1870 2128
1870 2152
1870 2155
1870 2180
1870 2186
1870 2188
1870 2234
1870 2235
1870 2243
1870 2251
1870 2252
1870 2274
1870 2290
1870 2294
1870 2297
1870 2299
1870 2309
1870 2316
1870 2324
1870 2329
1870 2352
1870 2383
1870 2387
1870 2410
1870 2434
1870 2456
1870 2475
1870 2498
1870 2500
1870 2502
1870 2509
1870 2512
1870 2515
1870 2526
1870 2532
1870 2538
1870 2578
1870 2584
1870 2586
1870 2588
1870 2626
1870 2649
1870 2655
1870 2665
1870 2672
1870 2676
1871 1876
1871 1887
1871 1897
1871 1902
1871 1912
1871 1916
1871 1917
1871 1923
1871 1938
1871 1941
1871 1950
1871 1967
1871 1978
1871 1994
1871 2064
1871 2068
1871 2079
1871 2080
1871 2135
1871 2171
1871 2189
1871 2201
1871 2211
1871 2222
1871 2228
1871 2278
1871 2294
1871 2316
1871 2326
1871 2347
1871 2365
1871 2392
1871 2453
1871 2456
1871 2528
1871 2570
1871 2575
1871 2578
1871 2583
1871 2586
1871 2607
1871 2608
1871 2623
1871 2633
1872 2361
1872 2365
1872 2604
1873 1992
1873 2124
1873 2150
1873 2207
1873 2393
1874 1930
1874 1985
1874 2003
1874 2015
1874 2084
1874 2136
1874 2139
1874 2150
1874 2154
1874 2157
1874 2167
1874 2204
1874 2219
1874 2255
1874 2270
1874 2293
1874 2304
1874 2328
1874 2393
1874 2396
1874 2428
1874 2438
1874 2484
1874 2568
1874 2580
1874 2602
1875 1947
1875 1953
1875 1979
1875 2002
1875 2007
1875 2027
1875 2096
1875 2501
1875 2523
1875 2547
1875 2616
1875 2629
1875 2659
1875 2661
1875 2671
1876 1902
1876 1916
1876 1954
1876 1978
1876 1994
1876 2036
1876 2073
1876 2079
1876 2091
1876 2161
1876 2179
1876 2251
1876 2267
1876 2359
1876 2380
1876 2385
1876 2479
1876 2578
1876 2593
1877 2003
1877 2136
1877 2255
1877 2257
1877 2516
1878 1979
1878 1995
1878 2012
1878 2123
1878 2279
1878 2295
1878 2506
1878 2621
1878 2656
1878 2666
1879 2274
1879 2406
1880 2393
1881 1912
1881 1916
1881 1918
1881 1919
1881 1970
1881 2041
1881 2163
1881 2192
1881 2211
1881 2246
1881 2310
1881 2311
1881 2327
1881 2343
1881 2392
1881 2411
1881 2421
1881 2423
1881 2442
1881 2453
1881 2474
1881 2486
1881 2491
1881 2509
1881 2515
1881 2570
1881 2592
1881 2606
1881 2608
1881 2633
1882 1937
1882 2004
1882 2090
1882 2305
1882 2386
1883 1906
1883 1916
1883 1927
1883 1934
1883 1938
1883 1941
1883 1954
1883 1961
1883 1963
1883 1967
1883 1979
1883 1983
1883 2025
1883 2037
1883 2047
1883 2050
1883 2073
1883 2083
1883 2091
1883 2096
1883 2101
1883 2107
1883 2137
1883 2151
1883 2161
1883 2175
1883 2182
1883 2184
1883 2189
1883 2190
1883 2201
1883 2269
1883 2297
1883 2312
1883 2342
1883 2358
1883 2377
1883 2380
1883 2389
1883 2390
1883 2399
1883 2434
1883 2435
1883 2456
1883 2464
1883 2501
1883 2526
1883 2544
1883 2551
1883 2553
1883 2570
1883 2574
1883 2577
1883 2588
1883 2603
1883 2614
1883 2659
1883 2660
1883 2671
1883 2673
1883 2676
1884 2150
1884 2157
1884 2270
1884 2292
1884 2565
1885 1887
1885 1940
1885 2010
1885 2188
1885 2302
1885 2320
1885 2358
1885 2370
1885 2425
1885 2427
1885 2453
1885 2482
1885 2483
1885 2495
1885 2517
1885 2551
1885 2570
1885 2593
1885 2598
1885 2616
1885 2646
1885 2659
1885 2660
1885 2661
1885 2677
1886 2062
1886 2196
1886 2480
1886 2604
1887 1897
1887 1916
1887 1940
1887 1954
1887 1994
1887 2068
1887 2135
1887 2164
1887 2294
1887 2326
1887 2347
1887 2377
1887 2392
1887 2453
1887 2467
1887 2570
1887 2586
1887 2599
1887 2623
1887 2628
1887 2646
1887 2660
1888 1903
1888 1952
1888 1976
1888 2127
1888 2351
1888 2376
1888 2406
1888 2460
1888 2586
1888 2648
1889 2275
1890 1958
1890 2016
1890 2070
1890 2151
1890 2201
1890 2212
1890 2294
1890 2305
1890 2367
1890 2370
1890 2390
1890 2494
1890 2593
1891 1923
1891 2155
1891 2160
1891 2267
1891 2578
1893 1916
1893 1941
1893 1979
1893 2016
1893 2062
1893 2118
1893 2140
1893 2151
1893 2162
1893 2190
1893 2201
1893 2232
1893 2294
1893 2367
1893 2390
1893 2425
1893 2430
1893 2521
1893 2570
1893 2588
1893 2593
1894 2099
1894 2199
1894 2501
1894 2659
1895 1927
1895 1947
1895 2002
1895 2007
1895 2014
1895 2027
1895 2039
1895 2101
1895 2104
1895 2155
1895 2188
1895 2208
1895 2239
1895 2240
1895 2294
1895 2387
1895 2399
1895 2476
1895 2520
1895 2523
1895 2524
1895 2657
1895 2670
1895 2671
1896 2185
1896 2271
1896 2333
1896 2553
1897 1908
1897 1912
1897 1915
1897 1916
1897 1917
1897 1939
1897 1941
1897 1979
1897 1983
1897 1994
1897 1999
1897 2036
1897 2046
1897 2062
1897 2083
1897 2118
1897 2151
1897 2164
1897 2175
1897 2182
1897 2203
1897 2211
1897 2212
1897 2228
1897 2309
1897 2312
1897 2316
1897 2326
1897 2334
1897 2347
1897 2360
1897 2392
1897 2395
1897 2401
1897 2425
1897 2432
1897 2435
1897 2438
1897 2453
1897 2513
1897 2533
1897 2549
1897 2551
1897 2570
1897 2586
1897 2599
1897 2607
1897 2623
1897 2628
1897 2633
1897 2636
1897 2673
1898 1920
1898 1936
1898 1959
1898 1980
1898 2016
1898 2046
1898 2260
1898 2263
1898 2286
1898 2302
1898 2365
1898 2452
1898 2478
1898 2483
1898 2556
1898 2570
1898 2623
1898 2641
1899 2212
1899 2233
1899 2294
1899 2302
1899 2309
1899 2365
1899 2534
1899 2536
1900 2530
1900 2670
1901 1952
1901 2099
1901 2104
1901 2179
1901 2188
1901 2199
1901 2329
1901 2363
1901 2476
1901 2572
1901 2586
1901 2591
1901 2640
1901 2671
1902 1916
1902 1938
1902 1978
1902 2039
1902 2184
1902 2251
1902 2299
1902 2399
1902 2452
1902 2456
1902 2593
1903 2016
1903 2048
1903 2138
1903 2151
1903 2184
1903 2197
1903 2233
1903 2235
1903 2294
1903 2297
1903 2305
1903 2351
1903 2365
1903 2370
1903 2457
1903 2534
1903 2574
1903 2593
1903 2598
1903 2609
1903 2637
1903 2658
1904 1916
1904 1933
1904 1934
1904 2050
1904 2071
1904 2073
1904 2099
1904 2118
1904 2119
1904 2149
1904 2179
1904 2243
1904 2261
1904 2282
1904 2367
1904 2490
1904 2586
1904 2638
1904 2651
1905 1918
1905 1938
1905 2079
1905 2137
1905 2171
1905 2324
1905 2370
1905 2467
1905 2578
1905 2623
1906 1987
1906 2013
1906 2054
1906 2087
1906 2134
1906 2331
1906 2428
1906 2510
1907 2037
1907 2228
1907 2334
1907 2453
1907 2528
1907 2606
1907 2633
1908 1916
1908 1979
1908 2046
1908 2062
1908 2118
1908 2278
1908 2392
1908 2401
1908 2533
1908 2574
1908 2586
1908 2623
1908 2659
1909 2004
1909 2086
1909 2106
1909 2328
1909 2342
1909 2375
1909 2432
1909 2435
1909 2531
1909 2570
1909 2571
1909 2603
1909 2647
1909 2652
1909 2663
1910 1946
1910 2038
1910 2053
1910 2112
1910 2243
1910 2370
1910 2421
1911 1979
1911 2085
1911 2124
1911 2170
1911 2185
1911 2204
1911 2207
1911 2232
1911 2355
1911 2484
1911 2593
1911 2659
1912 1915
1912 1916
1912 1917
1912 1928
1912 1941
1912 1994
1912 2039
1912 2083
1912 2112
1912 2126
1912 2163
1912 2171
1912 2205
1912 2206
1912 2210
1912 2211
1912 2228
1912 2277
1912 2343
1912 2347
1912 2370
1912 2392
1912 2401
1912 2411
1912 2417
1912 2453
1912 2491
1912 2507
1912 2509
1912 2515
1912 2519
1912 2536
1912 2544
1912 2551
1912 2570
1912 2609
1912 2615
1912 2628
1912 2633
1912 2668
1913 1914
1913 1969
1913 1979
1913 2100
1914 1945
1914 1979
1914 2021
1914 2151
1914 2452
1914 2483
1914 2532
1914 2659
1914 2677
1915 1916
1915 1931
1915 1941
1915 1950
1915 2079
1915 2083
1915 2148
1915 2395
1915 2401
1915 2423
1915 2425
1915 2453
1915 2482
1915 2556
1915 2561
1915 2569
1915 2570
1915 2609
1916 1929
1916 1938
1916 1941
1916 1965
1916 1967
1916 1978
1916 1979
1916 1983
1916 1994
1916 1998
1916 2016
1916 2023
1916 2037
1916 2062
1916 2064
1916 2066
1916 2068
1916 2079
1916 2083
1916 2091
1916 2134
1916 2135
1916 2137
1916 2140
1916 2144
1916 2151
1916 2161
1916 2182
1916 2189
1916 2190
1916 2201
1916 2206
1916 2211
1916 2212
1916 2228
1916 2278
1916 2283
1916 2294
1916 2296
1916 2309
1916 2316
1916 2326
1916 2334
1916 2342
1916 2346
1916 2347
1916 2358
1916 2385
1916 2392
1916 2409
1916 2425
1916 2432
1916 2435
1916 2453
1916 2456
1916 2474
1916 2491
1916 2501
1916 2528
1916 2551
1916 2570
1916 2574
1916 2575
1916 2583
1916 2584
1916 2586
1916 2593
1916 2595
1916 2607
1916 2616
1916 2623
1916 2628
1916 2633
1916 2634
1916 2646
1916 2661
1916 2673
1917 1928
1917 2045
1917 2128
1917 2163
1917 2180
1917 2210
1917 2228
1917 2277
1917 2313
1917 2326
1917 2343
1917 2358
1917 2395
1917 2403
1917 2410
1917 2417
1917 2429
1917 2453
1917 2460
1917 2470
1917 2486
1917 2489
1917 2507
1917 2509
1917 2528
1917 2553
1917 2578
1917 2607
1917 2618
1917 2633
1917 2634
1918 1947
1918 1967
1918 1998
1918 2023
1918 2025
1918 2068
1918 2137
1918 2171
1918 2193
1918 2232
1918 2251
1918 2269
1918 2342
1918 2347
1918 2387
1918 2437
1918 2471
1918 2492
1918 2524
1918 2539
1918 2578
1918 2584
1918 2651
1919 1934
1919 1946
1919 1993
1919 2042
1919 2081
1919 2093
1919 2110
1919 2182
1919 2240
1919 2327
1919 2421
1919 2489
1919 2515
1919 2585
1919 2592
1919 2608
1920 1931
1920 1979
1920 1980
1920 2035
1920 2046
1920 2062
1920 2177
1920 2180
1920 2183
1920 2184
1920 2260
1920 2263
1920 2266
1920 2282
1920 2469
1920 2483
1920 2553
1920 2608
1920 2622
1920 2629
1921 1923
1921 1944
1921 2223
1921 2294
1921 2297
1921 2363
1921 2394
1922 2182
1922 2621
1922 2656
1923 1942
1923 1954
1923 1958
1923 1963
1923 1979
1923 2001
1923 2010
1923 2039
1923 2073
1923 2074
1923 2100
1923 2101
1923 2119
1923 2128
1923 2142
1923 2155
1923 2160
1923 2172
1923 2180
1923 2192
1923 2209
1923 2251
1923 2262
1923 2294
1923 2312
1923 2346
1923 2359
1923 2362
1923 2363
1923 2379
1923 2380
1923 2389
1923 2390
1923 2399
1923 2413
1923 2421
1923 2437
1923 2467
1923 2475
1923 2479
1923 2514
1923 2526
1923 2532
1923 2534
1923 2539
1923 2540
1923 2553
1923 2554
1923 2560
1923 2570
1923 2578
1923 2588
1923 2607
1923 2631
1923 2636
1923 2651
1923 2655
1924 2232
1924 2234
1924 2660
1925 1933
1925 1970
1925 2149
1925 2424
1926 1962
1926 2010
1926 2025
1926 2084
1926 2128
1926 2139
1926 2157
1926 2318
1926 2510
1926 2540
1926 2605
1927 1980
1927 1983
1927 2107
1927 2307
1927 2342
1927 2431
1927 2434
1927 2435
1927 2544
1927 2563
1927 2577
1928 2228
1929 1957
1929 2034
1929 2050
1929 2081
1929 2093
1929 2109
1929 2138
1929 2202
1929 2206
1929 2210
1929 2213
1929 2615
1929 2667
1930 1985
1930 2003
1930 2005
1930 2015
1930 2084
1930 2109
1930 2136
1930 2139
1930 2150
1930 2157
1930 2167
1930 2255
1930 2327
1930 2349
1930 2540
1930 2565
1930 2567
1930 2602
1931 1945
1931 1979
1931 2004
1931 2016
1931 2024
1931 2027
1931 2044
1931 2062
1931 2074
1931 2092
1931 2112
1931 2119
1931 2145
1931 2151
1931 2172
1931 2175
1931 2177
1931 2182
1931 2201
1931 2203
1931 2221
1931 2231
1931 2268
1931 2304
1931 2310
1931 2327
1931 2333
1931 2353
1931 2370
1931 2410
1931 2413
1931 2423
1931 2432
1931 2444
1931 2474
1931 2491
1931 2496
1931 2501
1931 2520
1931 2526
1931 2544
1931 2547
1931 2553
1931 2588
1931 2593
1931 2603
1931 2608
1931 2612
1931 2616
1931 2629
1931 2633
1931 2635
1931 2647
1931 2655
1931 2657
1931 2673
1932 2072
1932 2194
1932 2350
1932 2541
1933 1934
1933 1970
1933 2000
1933 2050
1933 2071
1933 2090
1933 2091
1933 2099
1933 2119
1933 2143
1933 2149
1933 2243
1933 2261
1933 2282
1933 2288
1933 2329
1933 2367
1933 2422
1933 2424
1933 2429
1933 2479
1933 2490
1933 2500
1933 2544
1933 2584
1933 2614
1933 2651
1934 1946
1934 1953
1934 1970
1934 2000
1934 2015
1934 2047
1934 2050
1934 2053
1934 2071
1934 2074
1934 2086
1934 2087
1934 2090
1934 2099
1934 2101
1934 2115
1934 2128
1934 2149
1934 2155
1934 2157
1934 2180
1934 2196
1934 2218
1934 2243
1934 2249
1934 2250
1934 2252
1934 2261
1934 2282
1934 2288
1934 2295
1934 2297
1934 2309
1934 2329
1934 2362
1934 2367
1934 2396
1934 2399
1934 2410
1934 2421
1934 2424
1934 2428
1934 2429
1934 2434
1934 2479
1934 2481
1934 2490
1934 2500
1934 2522
1934 2526
1934 2534
1934 2577
1934 2582
1934 2584
1934 2614
1934 2624
1934 2638
1934 2652
1934 2654
1934 2655
1934 2668
1934 2672
1934 2676
1935 2024
1935 2300
1935 2313
1935 2335
1935 2617
1936 1979
1936 2174
1936 2228
1936 2608
1936 2623
1937 2010
1937 2016
1937 2046
1937 2214
1937 2305
1937 2312
1937 2346
1937 2362
1937 2539
1937 2596
1937 2599
1937 2634
1937 2638
1938 1941
1938 1978
1938 1979
1938 1983
1938 2016
1938 2064
1938 2068
1938 2079
1938 2080
1938 2083
1938 2137
1938 2171
1938 2212
1938 2277
1938 2316
1938 2318
1938 2342
1938 2347
1938 2387
1938 2398
1938 2434
1938 2435
1938 2456
1938 2549
1938 2570
1938 2584
1938 2586
1939 1941
1939 1965
1939 2062
1939 2162
1939 2261
1939 2301
1939 2307
1939 2365
1939 2411
1939 2425
1939 2501
1939 2546
1939 2570
1939 2599
1940 2265
1940 2296
1940 2326
1940 2533
1940 2566
1940 2611
1941 1979
1941 1983
1941 1994
1941 2062
1941 2068
1941 2078
1941 2083
1941 2118
1941 2137
1941 2201
1941 2212
1941 2228
1941 2294
1941 2312
1941 2334
1941 2342
1941 2347
1941 2392
1941 2401
1941 2425
1941 2430
1941 2432
1941 2434
1941 2435
1941 2438
1941 2453
1941 2501
1941 2533
1941 2570
1941 2574
1941 2586
1941 2607
1941 2623
1941 2633
1941 2673
1942 1998
1942 2016
1942 2027
1942 2050
1942 2078
1942 2151
1942 2155
1942 2179
1942 2188
1942 2190
1942 2299
1942 2311
1942 2332
1942 2387
1942 2570
1942 2578
1942 2591
1942 2631
1942 2672
1942 2676
1944 1958
1944 1998
1944 2142
1944 2297
1944 2371
1944 2538
1944 2553
1944 2631
1945 1947
1945 1979
1945 1998
1945 2016
1945 2021
1945 2051
1945 2175
1945 2177
1945 2184
1945 2200
1945 2201
1945 2208
1945 2235
1945 2237
1945 2263
1945 2267
1945 2299
1945 2321
1945 2358
1945 2432
1945 2456
1945 2530
1945 2532
1945 2593
1945 2594
1945 2608
1945 2637
1945 2658
1945 2673
1946 1970
1946 2044
1946 2071
1946 2111
1946 2146
1946 2149
1946 2243
1946 2424
1946 2429
1946 2490
1946 2500
1946 2614
1946 2668
1947 1954
1947 1958
1947 1963
1947 1978
1947 1979
1947 2007
1947 2183
1947 2235
1947 2269
1947 2310
1947 2387
1947 2410
1947 2423
1947 2437
1947 2444
1947 2471
1947 2492
1947 2523
1947 2524
1947 2530
1947 2547
1947 2616
1947 2629
1947 2658
1948 2054
1948 2146
1948 2405
1949 1968
1949 2015
1949 2020
1949 2053
1949 2219
1949 2399
1949 2511
1949 2568
1950 2045
1950 2189
1950 2326
1950 2453
1950 2561
1950 2677
1951 1982
1951 2200
1951 2303
1951 2370
1951 2616
1952 1976
1952 2215
1952 2361
1952 2441
1952 2497
1953 1979
1953 2060
1953 2458
1953 2538
1953 2636
1954 1963
1954 1971
1954 1979
1954 1984
1954 2051
1954 2079
1954 2104
1954 2119
1954 2175
1954 2177
1954 2188
1954 2201
1954 2211
1954 2231
1954 2269
1954 2347
1954 2363
1954 2380
1954 2387
1954 2437
1954 2452
1954 2456
1954 2460
1954 2467
1954 2489
1954 2532
1954 2583
1954 2620
1954 2631
1954 2634
1954 2660
1955 2042
1955 2153
1955 2310
1955 2341
1955 2370
1955 2386
1955 2395
1955 2474
1955 2486
1955 2540
1955 2561
1956 2015
1956 2085
1956 2218
1957 2093
1957 2109
1957 2138
1957 2370
1957 2432
1957 2574
1957 2615
1958 2137
1958 2233
1958 2294
1958 2327
1958 2370
1958 2429
1958 2502
1958 2553
1958 2585
1958 2593
1958 2631
1959 2179
1959 2499
1959 2501
1959 2641
1959 2643
1960 2495
1961 2297
1962 2054
1962 2123
1962 2124
1962 2194
1962 2207
1962 2248
1962 2256
1962 2270
1962 2276
1962 2380
1962 2659
1963 1967
1963 1971
1963 1979
1963 1984
1963 1994
1963 2025
1963 2045
1963 2104
1963 2137
1963 2175
1963 2177
1963 2201
1963 2294
1963 2380
1963 2387
1963 2388
1963 2437
1963 2452
1963 2489
1963 2532
1963 2539
1963 2631
1963 2634
1963 2660
1963 2673
1964 1999
1964 2090
1964 2101
1964 2172
1964 2205
1964 2254
1964 2262
1964 2282
1964 2335
1964 2361
1964 2429
1964 2544
1964 2560
1964 2606
1964 2607
1964 2614
1964 2643
1964 2644
1965 1976
1965 2002
1965 2004
1965 2045
1965 2062
1965 2228
1965 2309
1965 2370
1965 2454
1965 2492
1965 2588
1965 2599
1965 2636
1965 2673
1966 2563
1967 1979
1967 1998
1967 2016
1967 2021
1967 2025
1967 2064
1967 2068
1967 2101
1967 2104
1967 2137
1967 2161
1967 2171
1967 2246
1967 2264
1967 2312
1967 2316
1967 2358
1967 2362
1967 2365
1967 2387
1967 2409
1967 2454
1967 2467
1967 2469
1967 2471
1967 2512
1967 2523
1967 2551
1967 2574
1967 2593
1967 2645
1967 2673
1968 2020
1968 2323
1968 2364
1969 1979
1969 2140
1969 2151
1969 2199
1969 2212
1969 2246
1969 2309
1969 2367
1969 2390
1969 2501
1969 2596
1969 2673
1970 1985
1970 2045
1970 2111
1970 2112
1970 2163
1970 2228
1970 2249
1970 2297
1970 2362
1970 2421
1970 2424
1970 2474
1970 2490
1970 2500
1970 2561
1970 2633
1970 2668
1971 2011
1971 2073
1971 2104
1971 2175
1971 2240
1971 2246
1971 2289
1971 2362
1971 2387
1971 2451
1971 2464
1971 2514
1971 2551
1971 2587
1971 2618
1971 2635
1971 2677
1973 2062
1973 2068
1973 2425
1973 2570
1973 2633
1974 2659
1975 2005
1975 2017
1975 2085
1975 2150
1975 2154
1975 2242
1975 2270
1975 2510
1976 2007
1976 2376
1976 2460
1977 2011
1977 2289
1977 2375
1978 2290
1978 2294
1978 2299
1978 2387
1978 2456
1978 2502
1978 2578
1978 2588
1979 1980
1979 1983
1979 1984
1979 2012
1979 2016
1979 2021
1979 2027
1979 2036
1979 2037
1979 2060
1979 2078
1979 2092
1979 2095
1979 2097
1979 2104
1979 2112
1979 2114
1979 2118
1979 2126
1979 2131
1979 2146
1979 2151
1979 2162
1979 2175
1979 2177
1979 2179
1979 2182
1979 2184
1979 2199
1979 2201
1979 2208
1979 2212
1979 2221
1979 2225
1979 2231
1979 2234
1979 2236
1979 2242
1979 2245
1979 2254
1979 2262
1979 2263
1979 2264
1979 2269
1979 2282
1979 2294
1979 2297
1979 2301
1979 2309
1979 2320
1979 2321
1979 2346
1979 2358
1979 2362
1979 2370
1979 2377
1979 2387
1979 2390
1979 2395
1979 2399
1979 2401
1979 2410
1979 2417
1979 2425
1979 2428
1979 2435
1979 2437
1979 2444
1979 2452
1979 2454
1979 2464
1979 2476
1979 2483
1979 2501
1979 2506
1979 2512
1979 2523
1979 2532
1979 2539
1979 2547
1979 2550
1979 2551
1979 2570
1979 2588
1979 2589
1979 2593
1979 2594
1979 2597
1979 2604
1979 2614
1979 2616
1979 2629
1979 2634
1979 2637
1979 2638
1979 2659
1979 2660
1979 2661
1979 2673
1980 2025
1980 2027
1980 2046
1980 2075
1980 2137
1980 2175
1980 2179
1980 2225
1980 2227
1980 2246
1980 2292
1980 2307
1980 2374
1980 2392
1980 2416
1980 2445
1980 2469
1980 2501
1980 2583
1980 2586
1980 2618
1980 2623
1980 2628
1980 2636
1980 2641
1980 2660
1980 2673
1982 2048
1982 2104
1982 2235
1982 2303
1982 2387
1983 2050
1983 2083
1983 2137
1983 2177
1983 2189
1983 2201
1983 2312
1983 2342
1983 2378
1983 2385
1983 2434
1983 2435
1983 2456
1983 2501
1983 2539
1983 2551
1983 2570
1983 2574
1983 2636
1983 2659
1983 2660
1983 2673
1983 2677
1984 2048
1984 2051
1984 2076
1984 2091
1984 2101
1984 2104
1984 2137
1984 2175
1984 2215
1984 2231
1984 2267
1984 2294
1984 2380
1984 2387
1984 2399
1984 2409
1984 2452
1984 2532
1984 2598
1984 2671
1985 2015
1985 2109
1985 2139
1985 2150
1985 2157
1985 2255
1985 2297
1985 2304
1985 2580
1985 2602
1986 1988
1986 2015
1986 2115
1986 2123
1986 2136
1986 2185
1986 2270
1986 2349
1986 2350
1986 2447
1986 2666
1987 2013
1987 2015
1987 2510
1987 2558
1988 2125
1988 2157
1988 2185
1988 2219
1988 2300
1989 2180
1989 2228
1989 2453
1990 2160
1992 1995
1992 2139
1992 2185
1992 2393
1992 2666
1993 2081
1993 2363
1993 2421
1994 2010
1994 2023
1994 2046
1994 2062
1994 2066
1994 2080
1994 2083
1994 2100
1994 2118
1994 2140
1994 2187
1994 2196
1994 2211
1994 2212
1994 2228
1994 2278
1994 2294
1994 2301
1994 2312
1994 2347
1994 2360
1994 2361
1994 2392
1994 2398
1994 2432
1994 2482
1994 2528
1994 2533
1994 2539
1994 2549
1994 2570
1994 2583
1994 2586
1994 2607
1994 2623
1994 2628
1994 2634
1994 2665
1995 2043
1995 2136
1995 2157
1995 2252
1995 2257
1995 2297
1995 2666
1996 2205
1996 2221
1996 2310
1996 2318
1997 2528
1998 2001
1998 2016
1998 2068
1998 2119
1998 2134
1998 2151
1998 2155
1998 2162
1998 2179
1998 2190
1998 2208
1998 2264
1998 2267
1998 2294
1998 2297
1998 2299
1998 2307
1998 2361
1998 2389
1998 2399
1998 2437
1998 2467
1998 2471
1998 2492
1998 2524
1998 2588
1998 2631
1998 2658
1998 2676
1999 2042
1999 2228
1999 2334
1999 2453
1999 2607
2000 2027
2000 2107
2000 2189
2000 2196
2000 2577
2001 2039
2001 2050
2001 2208
2001 2236
2001 2370
2001 2437
2001 2442
2001 2475
2001 2588
2002 2007
2002 2464
2002 2524
2002 2613
2002 2636
2002 2670
2003 2005
2003 2015
2003 2017
2003 2065
2003 2069
2003 2081
2003 2136
2003 2167
2003 2204
2003 2219
2003 2255
2003 2297
2003 2328
2003 2331
2003 2349
2003 2580
2004 2025
2004 2097
2004 2103
2004 2109
2004 2370
2004 2427
2004 2483
2004 2603
2004 2642
2004 2647
2004 2649
2004 2654
2005 2015
2005 2017
2005 2065
2005 2136
2005 2154
2005 2157
2005 2170
2005 2179
2005 2204
2005 2207
2005 2216
2005 2218
2005 2242
2005 2255
2005 2270
2005 2271
2005 2292
2005 2295
2005 2297
2005 2300
2005 2328
2005 2339
2005 2349
2005 2373
2005 2396
2005 2405
2005 2407
2005 2419
2005 2428
2005 2445
2005 2565
2005 2580
2005 2585
2005 2624
2005 2652
2006 2075
2006 2332
2006 2623
2007 2046
2007 2050
2007 2062
2007 2100
2007 2104
2007 2179
2007 2183
2007 2202
2007 2241
2007 2258
2007 2274
2007 2330
2007 2334
2007 2360
2007 2367
2007 2376
2007 2385
2007 2387
2007 2392
2007 2398
2007 2402
2007 2456
2007 2464
2007 2469
2007 2505
2007 2514
2007 2523
2007 2524
2007 2583
2007 2628
2007 2670
2007 2671
2008 2053
2008 2233
2008 2386
2008 2556
2008 2561
2008 2671
2010 2046
2010 2074
2010 2084
2010 2112
2010 2146
2010 2179
2010 2199
2010 2212
2010 2234
2010 2262
2010 2294
2010 2312
2010 2346
2010 2361
2010 2362
2010 2367
2010 2380
2010 2389
2010 2469
2010 2501
2010 2539
2010 2544
2010 2551
2010 2618
2010 2636
2010 2659
2010 2674
2011 2037
2011 2072
2011 2073
2011 2095
2011 2104
2011 2113
2011 2163
2011 2221
2011 2240
2011 2289
2011 2310
2011 2375
2011 2387
2011 2419
2011 2422
2011 2450
2011 2451
2011 2464
2011 2495
2011 2586
2011 2587
2011 2618
2011 2626
2011 2647
2011 2655
2011 2665
2012 2047
2012 2111
2012 2146
2012 2245
2012 2428
2012 2506
2012 2597
2014 2197
2014 2208
2014 2239
2014 2294
2014 2523
2014 2591
2014 2616
2014 2676
2015 2017
2015 2030
2015 2087
2015 2109
2015 2136
2015 2139
2015 2154
2015 2157
2015 2167
2015 2213
2015 2219
2015 2230
2015 2238
2015 2255
2015 2270
2015 2271
2015 2300
2015 2304
2015 2327
2015 2349
2015 2396
2015 2447
2015 2473
2015 2510
2015 2516
2015 2565
2015 2567
2015 2568
2015 2580
2015 2585
2015 2592
2015 2602
2015 2666
2016 2021
2016 2025
2016 2079
2016 2093
2016 2135
2016 2138
2016 2147
2016 2151
2016 2177
2016 2189
2016 2190
2016 2201
2016 2208
2016 2212
2016 2232
2016 2246
2016 2263
2016 2264
2016 2294
2016 2305
2016 2358
2016 2387
2016 2452
2016 2457
2016 2464
2016 2467
2016 2469
2016 2478
2016 2501
2016 2550
2016 2570
2016 2574
2016 2591
2016 2593
2016 2608
2016 2615
2016 2658
2016 2665
2016 2673
2017 2124
2017 2137
2017 2219
2017 2251
2017 2255
2017 2270
2017 2295
2017 2297
2017 2350
2017 2419
2017 2600
2017 2652
2017 2666
2018 2119
2018 2180
2018 2287
2018 2496
2018 2593
2019 2020
2019 2182
2019 2511
2019 2659
2020 2323
2020 2364
2020 2511
2021 2323
2021 2551
2021 2574
2021 2645
2021 2671
2023 2025
2023 2171
2023 2302
2023 2471
2023 2578
2023 2598
2023 2671
2023 2677
2024 2097
2024 2102
2024 2271
2024 2318
2024 2333
2024 2386
2024 2491
2024 2496
2024 2612
2024 2629
2025 2076
2025 2110
2025 2116
2025 2126
2025 2135
2025 2137
2025 2140
2025 2174
2025 2221
2025 2246
2025 2275
2025 2286
2025 2305
2025 2312
2025 2342
2025 2386
2025 2464
2025 2471
2025 2492
2025 2501
2025 2570
2025 2574
2025 2578
2025 2588
2025 2598
2025 2606
2025 2608
2025 2618
2025 2637
2025 2659
2025 2660
2025 2662
2025 2673
2026 2210
2026 2358
2026 2475
2026 2585
2027 2049
2027 2090
2027 2162
2027 2163
2027 2197
2027 2232
2027 2254
2027 2282
2027 2354
2027 2376
2027 2413
2027 2423
2027 2437
2027 2460
2027 2469
2027 2514
2027 2530
2027 2562
2027 2583
2027 2589
2027 2596
2027 2670
2030 2040
2030 2394
2030 2665
2031 2145
2031 2171
2031 2205
2031 2211
2031 2277
2031 2427
2031 2429
2031 2470
2031 2489
2031 2578
2031 2606
2033 2048
2033 2051
2033 2101
2033 2387
2034 2202
2034 2213
2034 2228
2034 2278
2034 2318
2034 2507
2034 2666
2034 2667
2035 2144
2035 2215
2035 2266
2035 2319
2035 2483
2035 2569
2036 2068
2036 2091
2036 2539
2036 2588
2036 2593
2036 2633
2037 2042
2037 2159
2037 2172
2037 2175
2037 2182
2037 2188
2037 2326
2037 2334
2037 2370
2037 2378
2037 2408
2037 2425
2037 2544
2037 2626
2037 2633
2037 2634
2037 2647
2037 2665
2038 2041
2038 2073
2038 2137
2038 2149
2038 2162
2038 2171
2038 2277
2038 2318
2038 2359
2038 2429
2038 2470
2038 2479
2038 2570
2038 2651
2039 2042
2039 2051
2039 2053
2039 2081
2039 2082
2039 2101
2039 2112
2039 2119
2039 2161
2039 2190
2039 2209
2039 2213
2039 2221
2039 2324
2039 2347
2039 2353
2039 2376
2039 2399
2039 2402
2039 2413
2039 2426
2039 2442
2039 2452
2039 2479
2039 2486
2039 2513
2039 2588
2039 2616
2039 2626
2039 2644
2039 2662
2039 2670
2040 2228
2040 2517
2040 2600
2041 2144
2041 2324
2041 2446
2041 2515
2041 2585
2042 2107
2042 2152
2042 2192
2042 2310
2042 2327
2042 2353
2042 2410
2042 2421
2042 2422
2042 2426
2042 2486
2042 2496
2042 2509
2042 2526
2042 2544
2042 2585
2042 2644
2042 2649
2042 2655
2042 2662
2043 2139
2043 2228
2043 2271
2043 2300
2043 2428
2043 2597
2044 2183
2044 2353
2044 2410
2044 2413
2044 2526
2044 2544
2044 2553
2044 2556
2044 2649
2044 2655
2045 2083
2045 2101
2045 2127
2045 2203
2045 2206
2045 2336
2045 2425
2045 2514
2045 2634
2046 2062
2046 2066
2046 2080
2046 2177
2046 2228
2046 2274
2046 2312
2046 2346
2046 2362
2046 2392
2046 2398
2046 2441
2046 2460
2046 2499
2046 2524
2046 2539
2046 2544
2046 2549
2046 2556
2046 2570
2046 2586
2046 2623
2046 2628
2046 2641
2046 2674
2047 2245
2047 2249
2047 2252
2048 2050
2048 2051
2048 2135
2048 2175
2048 2189
2048 2215
2048 2231
2048 2269
2048 2299
2048 2352
2048 2363
2048 2385
2048 2386
2048 2387
2048 2399
2048 2423
2048 2456
2048 2479
2048 2532
2049 2514
2050 2091
2050 2098
2050 2100
2050 2101
2050 2161
2050 2189
2050 2251
2050 2258
2050 2266
2050 2303
2050 2312
2050 2330
2050 2385
2050 2435
2050 2467
2050 2475
2050 2539
2050 2660
2050 2671
2050 2676
2051 2079
2051 2104
2051 2144
2051 2161
2051 2175
2051 2189
2051 2201
2051 2215
2051 2233
2051 2239
2051 2311
2051 2352
2051 2363
2051 2385
2051 2387
2051 2399
2051 2456
2051 2520
2051 2547
2051 2570
2051 2583
2051 2617
2051 2645
2051 2671
2052 2078
2052 2168
2052 2186
2052 2199
2052 2234
2052 2264
2052 2532
2053 2095
2053 2172
2053 2180
2053 2183
2053 2234
2053 2241
2053 2243
2053 2290
2053 2329
2053 2353
2053 2382
2053 2399
2053 2421
2053 2474
2053 2479
2053 2489
2053 2502
2053 2556
2053 2582
2053 2603
2053 2626
2053 2651
2054 2139
2054 2242
2054 2405
2054 2428
2054 2578
2055 2583
2056 2272
2057 2403
2058 2262
2058 2659
2059 2112
2059 2297
2059 2539
2060 2112
2060 2162
2060 2201
2060 2269
2060 2410
2060 2449
2060 2458
2060 2547
2060 2609
2060 2629
2060 2634
2061 2544
2061 2563
2061 2677
2062 2066
2062 2118
2062 2140
2062 2177
2062 2201
2062 2212
2062 2225
2062 2261
2062 2278
2062 2294
2062 2307
2062 2309
2062 2360
2062 2361
2062 2367
2062 2369
2062 2392
2062 2398
2062 2401
2062 2425
2062 2430
2062 2454
2062 2460
2062 2469
2062 2490
2062 2500
2062 2501
2062 2533
2062 2542
2062 2570
2062 2583
2062 2586
2062 2610
2062 2611
2062 2623
2062 2628
2062 2633
2062 2634
2062 2636
2062 2638
2062 2661
2062 2673
2062 2675
2063 2141
2064 2101
2064 2251
2064 2313
2064 2387
2064 2399
2064 2409
2064 2471
2065 2132
2065 2136
2065 2154
2065 2157
2065 2219
2065 2255
2065 2270
2065 2331
2065 2396
2065 2600
2066 2080
2066 2187
2066 2211
2066 2228
2066 2392
2066 2398
2066 2441
2066 2528
2066 2549
2066 2586
2066 2628
2067 2092
2067 2330
2067 2616
2067 2676
2068 2080
2068 2126
2068 2135
2068 2162
2068 2188
2068 2189
2068 2225
2068 2228
2068 2258
2068 2263
2068 2283
2068 2294
2068 2316
2068 2330
2068 2367
2068 2370
2068 2392
2068 2398
2068 2437
2068 2456
2068 2469
2068 2477
2068 2515
2068 2570
2068 2615
2068 2623
2068 2633
2068 2646
2069 2123
2069 2156
2069 2178
2069 2419
2070 2201
2070 2361
2070 2593
2071 2099
2071 2149
2071 2243
2071 2288
2071 2329
2071 2367
2071 2424
2071 2490
2071 2500
2071 2614
2071 2668
2072 2157
2072 2375
2073 2119
2073 2128
2073 2152
2073 2282
2073 2289
2073 2329
2073 2359
2073 2387
2073 2410
2073 2464
2073 2479
2073 2481
2073 2526
2073 2587
2073 2631
2073 2638
2073 2651
2073 2655
2073 2672
2074 2095
2074 2112
2074 2128
2074 2140
2074 2163
2074 2172
2074 2180
2074 2297
2074 2312
2074 2346
2074 2362
2074 2377
2074 2410
2074 2413
2074 2474
2074 2526
2074 2539
2074 2544
2074 2553
2074 2554
2074 2618
2075 2164
2075 2332
2075 2469
2075 2608
2076 2101
2076 2110
2076 2141
2076 2221
2076 2286
2076 2520
2076 2662
2078 2099
2078 2225
2078 2234
2078 2277
2078 2380
2078 2512
2078 2578
2078 2583
2078 2586
2078 2651
2078 2659
2079 2135
2079 2144
2079 2189
2079 2264
2079 2290
2079 2316
2079 2324
2079 2347
2079 2380
2079 2387
2079 2392
2079 2467
2079 2549
2079 2631
2079 2634
2080 2155
2080 2171
2080 2189
2080 2277
2080 2283
2080 2302
2080 2441
2080 2488
2080 2528
2080 2549
2080 2586
2080 2593
2080 2628
2080 2677
2081 2109
2081 2138
2081 2328
2081 2421
2081 2592
2082 2274
2082 2367
2082 2377
2082 2402
2082 2406
2082 2492
2082 2494
2082 2497
2082 2562
2082 2572
2082 2586
2082 2659
2082 2670
2083 2137
2083 2201
2083 2206
2083 2210
2083 2211
2083 2228
2083 2266
2083 2316
2083 2347
2083 2356
2083 2358
2083 2392
2083 2453
2083 2528
2083 2561
2083 2570
2083 2574
2083 2607
2083 2633
2083 2634
2084 2152
2084 2157
2084 2218
2084 2238
2084 2297
2084 2300
2084 2331
2084 2375
2084 2396
2084 2419
2084 2428
2084 2526
2084 2567
2084 2618
2084 2624
2084 2649
2085 2124
2085 2207
2085 2218
2085 2355
2085 2510
2085 2659
2086 2137
2086 2342
2086 2471
2086 2531
2087 2115
2087 2150
2087 2242
2087 2541
2087 2638
2087 2672
2088 2156
2088 2178
2088 2293
2088 2355
2088 2415
2088 2484
2089 2224
2089 2339
2089 2666
2090 2099
2090 2179
2090 2225
2090 2261
2090 2282
2090 2305
2090 2361
2090 2367
2090 2574
2090 2583
2091 2119
2091 2212
2091 2215
2091 2251
2091 2262
2091 2294
2091 2299
2091 2303
2091 2359
2091 2380
2091 2547
2091 2636
2091 2667
2092 2102
2092 2163
2092 2184
2092 2233
2092 2311
2092 2385
2092 2427
2092 2443
2092 2456
2092 2505
2092 2547
2092 2606
2092 2609
2092 2617
2092 2626
2092 2629
2092 2662
2092 2669
2092 2671
2093 2109
2093 2202
2093 2271
2093 2327
2093 2377
2093 2421
2093 2473
2093 2553
2093 2561
2093 2615
2095 2124
2095 2137
2095 2183
2095 2205
2095 2310
2095 2361
2095 2496
2096 2099
2096 2101
2096 2389
2096 2456
2096 2632
2096 2650
2096 2674
2097 2180
2097 2337
2097 2368
2097 2378
2097 2417
2097 2460
2097 2627
2097 2634
2098 2475
2099 2143
2099 2149
2099 2179
2099 2199
2099 2262
2099 2282
2099 2288
2099 2361
2099 2367
2099 2380
2099 2479
2099 2481
2099 2490
2099 2500
2099 2501
2099 2591
2099 2614
2099 2673
2100 2274
2100 2390
2100 2398
2100 2441
2100 2460
2100 2488
2100 2549
2100 2583
2100 2584
2100 2586
2100 2623
2101 2104
2101 2137
2101 2139
2101 2197
2101 2251
2101 2294
2101 2312
2101 2333
2101 2347
2101 2380
2101 2387
2101 2389
2101 2434
2101 2471
2101 2526
2101 2532
2101 2660
2101 2677
2102 2109
2102 2311
2102 2516
2104 2199
2104 2235
2104 2385
2104 2387
2104 2399
2104 2523
2104 2671
2105 2278
2105 2461
2106 2562
2106 2571
2107 2329
2107 2361
2107 2434
2107 2435
2107 2497
2107 2577
2107 2651
2109 2138
2109 2163
2109 2175
2109 2190
2109 2202
2109 2335
2109 2370
2109 2451
2109 2473
2109 2501
2109 2561
2109 2574
2109 2585
2109 2615
2109 2616
2109 2647
2110 2172
2110 2228
2110 2277
2110 2370
2110 2432
2110 2515
2110 2608
2110 2615
2110 2620
2111 2242
2111 2245
2111 2297
2111 2396
2111 2428
2111 2439
2111 2506
2111 2568
2111 2597
2112 2163
2112 2182
2112 2183
2112 2243
2112 2268
2112 2287
2112 2312
2112 2313
2112 2346
2112 2362
2112 2410
2112 2411
2112 2429
2112 2444
2112 2449
2112 2474
2112 2491
2112 2516
2112 2539
2112 2540
2112 2544
2112 2547
2112 2603
2112 2609
2112 2618
2112 2622
2112 2629
2112 2661
2113 2274
2113 2360
2114 2673
2115 2194
2115 2242
2115 2295
2115 2328
2115 2339
2115 2350
2115 2370
2115 2405
2115 2516
2115 2565
2115 2597
2115 2672
2116 2275
2116 2574
2116 2578
2118 2140
2118 2164
2118 2179
2118 2296
2118 2299
2118 2392
2118 2430
2118 2441
2118 2469
2118 2586
2118 2623
2118 2628
2118 2673
2119 2137
2119 2179
2119 2180
2119 2187
2119 2208
2119 2212
2119 2251
2119 2277
2119 2294
2119 2309
2119 2329
2119 2359
2119 2389
2119 2399
2119 2479
2119 2534
2119 2544
2119 2631
2119 2651
2120 2216
2120 2325
2120 2438
2123 2256
2123 2516
2124 2134
2124 2157
2124 2185
2124 2204
2124 2207
2124 2248
2124 2256
2124 2305
2124 2394
2124 2510
2124 2536
2124 2568
2124 2582
2124 2612
2124 2652
2124 2659
2125 2166
2125 2182
2125 2219
2125 2242
2125 2340
2125 2418
2125 2568
2126 2182
2126 2188
2126 2202
2126 2228
2126 2313
2126 2334
2126 2432
2126 2473
2126 2553
2126 2559
2126 2561
2126 2615
2126 2635
2126 2667
2127 2294
2127 2309
2127 2380
2127 2386
2128 2137
2128 2180
2128 2221
2128 2359
2128 2380
2128 2410
2128 2413
2128 2479
2128 2526
2128 2540
2128 2626
2128 2649
2129 2349
2129 2447
2129 2666
2131 2261
2131 2501
2131 2524
2132 2219
2132 2331
2132 2373
2132 2600
2133 2292
2133 2565
2134 2179
2134 2192
2134 2309
2134 2318
2135 2151
2135 2189
2135 2215
2135 2222
2135 2263
2135 2283
2135 2316
2135 2347
2135 2358
2135 2360
2135 2361
2135 2387
2135 2425
2135 2446
2135 2488
2135 2570
2135 2578
2135 2584
2135 2593
2135 2634
2135 2677
2136 2154
2136 2167
2136 2230
2136 2255
2136 2331
2136 2350
2136 2510
2136 2666
2137 2171
2137 2251
2137 2269
2137 2297
2137 2311
2137 2335
2137 2342
2137 2399
2137 2413
2137 2434
2137 2435
2137 2444
2137 2460
2137 2471
2137 2492
2137 2512
2137 2531
2137 2544
2137 2570
2137 2571
2137 2574
2137 2578
2137 2618
2137 2660
2137 2673
2138 2212
2138 2228
2138 2341
2138 2370
2138 2410
2138 2490
2138 2520
2138 2615
2138 2629
2139 2150
2139 2192
2139 2293
2139 2304
2139 2318
2139 2405
2139 2438
2139 2602
2139 2620
2140 2164
2140 2177
2140 2212
2140 2261
2140 2294
2140 2361
2140 2367
2140 2425
2140 2430
2140 2468
2140 2483
2140 2570
2141 2181
2141 2380
2141 2469
2142 2152
2142 2179
2142 2188
2142 2192
2142 2208
2142 2209
2142 2239
2142 2267
2142 2327
2142 2427
2142 2544
2142 2554
2142 2631
2143 2282
2143 2298
2143 2490
2144 2215
2144 2264
2144 2316
2144 2363
2144 2385
2144 2639
2145 2162
2145 2205
2145 2221
2145 2313
2145 2362
2145 2386
2145 2544
2145 2606
2145 2609
2145 2662
2146 2150
2146 2199
2146 2245
2146 2262
2146 2405
2146 2428
2146 2440
2146 2597
2146 2659
2147 2172
2147 2210
2147 2241
2147 2377
2147 2397
2147 2443
2147 2561
2149 2243
2149 2288
2149 2297
2149 2321
2149 2429
2149 2490
2149 2500
2149 2614
2149 2649
2149 2668
2150 2157
2150 2252
2150 2328
2150 2329
2150 2331
2150 2350
2150 2420
2150 2493
2150 2541
2150 2597
2150 2652
2151 2189
2151 2190
2151 2201
2151 2212
2151 2215
2151 2258
2151 2263
2151 2330
2151 2352
2151 2358
2151 2360
2151 2370
2151 2386
2151 2390
2151 2425
2151 2446
2151 2456
2151 2467
2151 2532
2151 2539
2151 2551
2151 2570
2151 2574
2151 2593
2151 2609
2151 2623
2151 2634
2151 2659
2151 2660
2151 2661
2151 2677
2152 2479
2154 2185
2154 2297
2154 2300
2154 2419
2154 2428
2154 2652
2154 2672
2155 2264
2155 2267
2155 2286
2155 2299
2155 2307
2155 2312
2155 2380
2155 2399
2155 2435
2155 2520
2155 2636
2155 2676
2156 2178
2156 2545
2156 2621
2157 2195
2157 2204
2157 2242
2157 2292
2157 2297
2157 2300
2157 2331
2157 2349
2157 2350
2157 2375
2157 2396
2157 2405
2157 2419
2157 2428
2157 2450
2157 2495
2157 2516
2157 2540
2157 2568
2157 2580
2157 2601
2159 2172
2160 2274
2160 2449
2160 2577
2161 2359
2161 2435
2161 2570
2161 2574
2161 2671
2162 2164
2162 2200
2162 2232
2162 2251
2162 2307
2162 2362
2162 2398
2162 2454
2162 2456
2162 2457
2162 2469
2162 2593
2162 2598
2162 2599
2162 2606
2162 2659
2162 2671
2163 2183
2163 2205
2163 2211
2163 2277
2163 2285
2163 2310
2163 2335
2163 2343
2163 2353
2163 2361
2163 2370
2163 2392
2163 2397
2163 2410
2163 2421
2163 2423
2163 2427
2163 2453
2163 2474
2163 2491
2163 2515
2163 2540
2163 2547
2163 2553
2163 2570
2163 2580
2163 2614
2163 2633
2163 2668
2164 2321
2164 2335
2164 2361
2164 2367
2164 2370
2164 2392
2164 2452
2164 2469
2164 2478
2164 2512
2164 2623
2165 2516
2165 2555
2166 2405
2166 2428
2167 2331
2168 2231
2168 2504
2168 2660
2169 2600
2170 2179
2170 2207
2170 2249
2170 2292
2170 2293
2170 2355
2170 2374
2170 2445
2170 2565
2171 2228
2171 2277
2171 2283
2171 2327
2171 2392
2171 2452
2171 2467
2171 2471
2171 2488
2171 2492
2171 2501
2171 2578
2171 2584
2171 2607
2171 2651
2171 2671
2172 2183
2172 2202
2172 2221
2172 2231
2172 2235
2172 2302
2172 2310
2172 2311
2172 2335
2172 2353
2172 2365
2172 2512
2172 2536
2172 2544
2172 2553
2172 2563
2172 2607
2172 2612
2172 2626
2172 2629
2172 2635
2172 2643
2174 2395
2174 2428
2174 2501
2174 2530
2174 2550
2175 2177
2175 2182
2175 2217
2175 2231
2175 2264
2175 2330
2175 2358
2175 2362
2175 2387
2175 2395
2175 2425
2175 2432
2175 2501
2175 2551
2175 2553
2175 2570
2175 2593
2175 2598
2175 2615
2175 2635
2175 2647
2175 2666
2176 2334
2176 2453
2177 2190
2177 2200
2177 2201
2177 2228
2177 2231
2177 2347
2177 2398
2177 2437
2177 2452
2177 2467
2177 2501
2177 2532
2177 2598
2177 2608
2177 2647
2177 2659
2177 2673
2177 2675
2178 2244
2179 2184
2179 2199
2179 2205
2179 2212
2179 2225
2179 2262
2179 2267
2179 2282
2179 2292
2179 2294
2179 2346
2179 2374
2179 2380
2179 2386
2179 2390
2179 2398
2179 2426
2179 2445
2179 2466
2179 2481
2179 2561
2179 2565
2179 2570
2179 2591
2179 2631
2179 2659
2180 2183
2180 2213
2180 2221
2180 2287
2180 2297
2180 2310
2180 2361
2180 2413
2180 2496
2180 2614
2180 2626
2180 2655
2180 2669
2181 2501
2181 2657
2181 2673
2182 2203
2182 2241
2182 2243
2182 2251
2182 2268
2182 2313
2182 2368
2182 2370
2182 2378
2182 2398
2182 2425
2182 2435
2182 2444
2182 2453
2182 2475
2182 2491
2182 2501
2182 2544
2182 2548
2182 2551
2182 2570
2182 2585
2182 2602
2182 2603
2182 2617
2182 2629
2182 2633
2182 2634
2182 2635
2182 2647
2182 2659
2182 2673
2183 2310
2183 2370
2183 2413
2183 2474
2183 2556
2183 2626
2183 2629
2183 2662
2184 2231
2184 2254
2184 2263
2184 2282
2184 2299
2184 2353
2184 2370
2184 2399
2184 2467
2184 2481
2184 2483
2184 2547
2184 2591
2185 2207
2185 2216
2185 2218
2185 2270
2185 2300
2185 2339
2185 2349
2185 2370
2185 2419
2185 2580
2185 2652
2186 2234
2186 2266
2186 2674
2187 2548
2187 2651
2188 2199
2188 2209
2188 2262
2188 2282
2188 2294
2188 2299
2188 2330
2188 2380
2188 2385
2188 2389
2188 2467
2188 2494
2188 2497
2188 2584
2188 2634
2188 2636
2188 2646
2188 2671
2189 2190
2189 2201
2189 2215
2189 2222
2189 2246
2189 2258
2189 2283
2189 2294
2189 2303
2189 2316
2189 2330
2189 2347
2189 2360
2189 2363
2189 2380
2189 2385
2189 2421
2189 2435
2189 2456
2189 2483
2189 2488
2189 2570
2189 2583
2189 2584
2189 2593
2189 2634
2189 2646
2189 2677
2190 2201
2190 2212
2190 2231
2190 2330
2190 2361
2190 2369
2190 2390
2190 2399
2190 2437
2190 2467
2190 2598
2191 2228
2192 2205
2192 2293
2192 2318
2192 2353
2192 2379
2192 2413
2192 2486
2192 2496
2192 2540
2192 2553
2192 2554
2192 2556
2192 2612
2192 2649
2193 2533
2194 2257
2194 2270
2194 2328
2194 2350
2194 2510
2194 2541
2194 2568
2194 2672
2195 2350
2195 2601
2196 2522
2196 2586
2196 2604
2197 2354
2197 2377
2197 2389
2197 2460
2197 2501
2197 2520
2197 2530
2197 2534
2197 2589
2197 2637
2197 2671
2198 2651
2199 2268
2199 2329
2199 2389
2199 2512
2199 2514
2199 2572
2199 2586
2199 2588
2199 2591
2199 2640
2199 2651
2199 2659
2199 2671
2199 2676
2200 2212
2200 2262
2200 2282
2200 2307
2200 2398
2200 2432
2200 2454
2200 2532
2200 2594
2200 2636
2200 2659
2201 2202
2201 2212
2201 2231
2201 2258
2201 2261
2201 2294
2201 2309
2201 2312
2201 2320
2201 2347
2201 2370
2201 2377
2201 2385
2201 2390
2201 2395
2201 2435
2201 2458
2201 2464
2201 2469
2201 2470
2201 2486
2201 2501
2201 2512
2201 2520
2201 2551
2201 2586
2201 2588
2201 2593
2201 2595
2201 2598
2201 2604
2201 2629
2201 2660
2201 2673
2202 2213
2202 2228
2202 2235
2202 2309
2202 2313
2202 2327
2202 2338
2202 2370
2202 2417
2202 2421
2202 2432
2202 2451
2202 2458
2202 2559
2202 2615
2202 2637
2202 2667
2203 2266
2203 2334
2203 2370
2203 2444
2203 2453
2203 2570
2203 2603
2203 2615
2203 2629
2203 2633
2203 2634
2203 2635
2204 2270
2204 2375
2204 2393
2204 2419
2204 2585
2204 2652
2205 2211
2205 2221
2205 2228
2205 2231
2205 2294
2205 2318
2205 2386
2205 2429
2205 2453
2205 2457
2205 2486
2205 2489
2205 2491
2205 2496
2205 2536
2205 2561
2205 2606
2206 2211
2206 2228
2206 2356
2206 2392
2206 2453
2206 2561
2206 2615
2206 2633
2206 2634
2207 2248
2207 2355
2207 2486
2207 2582
2207 2612
2207 2659
2208 2239
2208 2294
2208 2299
2208 2361
2208 2520
2208 2523
2208 2586
2208 2591
2208 2630
2208 2651
2208 2671
2208 2676
2209 2294
2209 2299
2209 2361
2209 2367
2209 2376
2209 2389
2209 2399
2209 2426
2209 2449
2209 2467
2209 2494
2209 2497
2209 2512
2209 2631
2209 2671
2210 2241
2210 2324
2210 2358
2210 2395
2210 2397
2210 2413
2210 2432
2210 2474
2210 2491
2210 2507
2210 2515
2210 2561
2210 2608
2210 2665
2211 2228
2211 2278
2211 2361
2211 2392
2211 2429
2211 2453
2211 2474
2211 2489
2211 2528
2211 2606
2211 2633
2211 2634
2212 2228
2212 2274
2212 2294
2212 2309
2212 2312
2212 2347
2212 2362
2212 2365
2212 2367
2212 2370
2212 2390
2212 2392
2212 2512
2212 2536
2212 2584
2212 2586
2212 2593
2212 2605
2212 2636
2212 2651
2212 2659
2213 2228
2213 2252
2213 2269
2213 2277
2213 2303
2213 2313
2213 2343
2213 2399
2213 2422
2213 2559
2213 2667
2214 2229
2214 2305
2214 2478
2214 2480
2215 2222
2215 2258
2215 2330
2215 2341
2215 2363
2215 2385
2215 2437
2215 2456
2215 2583
2215 2634
2215 2677
2216 2270
2216 2349
2216 2438
2218 2219
2218 2373
2218 2396
2218 2568
2218 2652
2219 2295
2219 2297
2219 2331
2219 2373
2219 2396
2219 2428
2219 2484
2219 2568
2219 2600
2220 2242
2220 2484
2221 2282
2221 2286
2221 2310
2221 2311
2221 2318
2221 2327
2221 2410
2221 2413
2221 2423
2221 2426
2221 2479
2221 2489
2221 2618
2221 2629
2221 2643
2221 2662
2221 2671
2222 2228
2222 2312
2222 2361
2222 2365
2222 2425
2222 2660
2222 2677
2223 2305
2225 2233
2225 2380
2225 2392
2225 2430
2225 2457
2225 2512
2225 2583
2225 2605
2225 2614
2225 2623
2227 2416
2227 2520
2228 2265
2228 2278
2228 2294
2228 2313
2228 2316
2228 2326
2228 2327
2228 2334
2228 2338
2228 2343
2228 2347
2228 2365
2228 2392
2228 2395
2228 2403
2228 2417
2228 2421
2228 2424
2228 2425
2228 2428
2228 2432
2228 2453
2228 2474
2228 2486
2228 2491
2228 2507
2228 2528
2228 2560
2228 2570
2228 2575
2228 2597
2228 2607
2228 2629
2228 2633
2228 2634
2228 2666
2228 2667
2230 2270
2230 2289
2230 2375
2230 2419
2230 2517
2230 2618
2231 2235
2231 2264
2231 2280
2231 2311
2231 2318
2231 2320
2231 2347
2231 2353
2231 2380
2231 2385
2231 2422
2231 2437
2231 2553
2231 2598
2231 2637
2231 2659
2231 2660
2231 2673
2232 2234
2232 2370
2232 2501
2232 2530
2232 2539
2232 2549
2232 2596
2232 2634
2233 2311
2233 2385
2233 2456
2233 2505
2233 2531
2233 2547
2233 2563
2233 2608
2233 2671
2234 2501
2234 2673
2234 2674
2235 2246
2235 2294
2235 2302
2235 2365
2235 2387
2235 2437
2235 2520
2235 2536
2235 2623
2235 2637
2235 2658
2236 2442
2237 2289
2237 2550
2238 2285
2238 2349
2238 2396
2238 2568
2238 2580
2239 2294
2239 2299
2239 2324
2239 2520
2239 2591
2239 2676
2240 2289
2240 2375
2240 2421
2240 2444
2240 2464
2240 2592
2240 2618
2241 2368
2241 2370
2241 2397
2241 2456
2241 2505
2241 2561
2241 2617
2241 2629
2241 2667
2241 2671
2242 2254
2242 2257
2242 2348
2242 2349
2242 2396
2242 2405
2242 2652
2243 2329
2243 2353
2243 2361
2243 2382
2243 2424
2243 2490
2243 2500
2243 2582
2243 2614
2244 2247
2244 2295
2244 2423
2244 2428
2244 2516
2245 2439
2245 2506
2245 2597
2246 2342
2246 2411
2246 2425
2246 2467
2246 2551
2246 2574
2246 2606
2246 2618
2246 2634
2246 2637
2246 2660
2246 2671
2248 2256
2248 2659
2249 2252
2249 2270
2249 2304
2249 2490
2250 2313
2250 2489
2251 2252
2251 2286
2251 2297
2251 2313
2251 2362
2251 2389
2251 2405
2251 2419
2251 2428
2251 2464
2251 2467
2251 2471
2251 2475
2251 2544
2251 2591
2251 2618
2251 2624
2251 2631
2251 2643
2251 2651
2251 2655
2251 2671
2252 2300
2252 2304
2252 2490
2252 2502
2252 2565
2252 2578
2253 2612
2253 2659
2254 2261
2254 2262
2254 2500
2254 2540
2254 2560
2254 2577
2254 2586
2254 2589
2254 2644
2255 2300
2255 2328
2255 2331
2255 2350
2256 2659
2257 2394
2258 2330
2258 2389
2258 2469
2258 2471
2258 2475
2258 2539
2258 2591
2258 2671
2260 2280
2261 2281
2261 2294
2261 2361
2261 2367
2261 2377
2261 2437
2261 2467
2261 2479
2261 2542
2261 2560
2261 2586
2261 2622
2261 2623
2261 2638
2261 2640
2262 2274
2262 2307
2262 2329
2262 2479
2262 2500
2262 2532
2262 2589
2262 2598
2262 2631
2262 2638
2262 2659
2263 2452
2263 2467
2263 2469
2263 2478
2263 2483
2263 2578
2263 2593
2263 2605
2263 2623
2263 2673
2264 2347
2264 2399
2264 2437
2264 2467
2264 2515
2264 2593
2264 2598
2264 2606
2264 2651
2264 2658
2264 2677
2265 2296
2265 2299
2265 2533
2265 2566
2265 2634
2266 2319
2266 2321
2266 2457
2266 2561
2266 2569
2266 2615
2266 2623
2266 2646
2266 2647
2267 2467
2267 2585
2267 2593
2268 2310
2268 2629
2269 2290
2269 2303
2269 2333
2269 2423
2269 2458
2269 2492
2269 2530
2269 2544
2269 2546
2269 2596
2269 2629
2269 2671
2270 2295
2270 2300
2270 2328
2270 2349
2270 2350
2270 2432
2270 2666
2271 2333
2271 2565
2271 2612
2272 2553
2273 2322
2274 2281
2274 2298
2274 2398
2274 2406
2274 2494
2274 2497
2274 2562
2274 2572
2274 2586
2274 2608
2274 2640
2274 2670
2275 2574
2275 2606
2275 2660
2277 2283
2277 2327
2277 2343
2277 2370
2277 2398
2277 2423
2277 2429
2277 2470
2277 2474
2277 2489
2277 2491
2277 2515
2277 2586
2277 2606
2277 2615
2277 2633
2277 2651
2277 2668
2278 2296
2278 2347
2278 2392
2278 2549
2278 2586
2278 2622
2278 2623
2279 2506
2280 2623
2280 2634
2280 2658
2281 2367
2281 2494
2281 2497
2281 2632
2281 2640
2282 2367
2282 2410
2282 2479
2282 2526
2282 2649
2282 2659
2283 2299
2283 2347
2283 2425
2283 2483
2283 2570
2283 2586
2283 2598
2284 2583
2284 2623
2284 2661
2285 2328
2285 2349
2285 2350
2285 2396
2285 2495
2285 2516
2285 2555
2285 2580
2285 2615
2285 2666
2285 2668
2286 2302
2286 2399
2286 2435
2286 2483
2286 2492
2286 2501
2286 2539
2286 2651
2286 2660
2286 2662
2286 2671
2287 2410
2287 2449
2287 2547
2287 2553
2287 2662
2288 2490
2288 2614
2289 2324
2289 2375
2289 2419
2289 2451
2289 2464
2289 2587
2289 2618
2290 2387
2290 2460
2290 2474
2290 2491
2290 2526
2290 2676
2291 2615
2292 2300
2292 2379
2292 2407
2292 2540
2292 2565
2292 2601
2292 2652
2293 2567
2293 2580
2294 2309
2294 2334
2294 2352
2294 2365
2294 2367
2294 2380
2294 2389
2294 2425
2294 2430
2294 2457
2294 2467
2294 2486
2294 2514
2294 2520
2294 2523
2294 2532
2294 2536
2294 2539
2294 2540
2294 2551
2294 2553
2294 2570
2294 2586
2294 2588
2294 2591
2294 2593
2294 2634
2294 2636
2294 2637
2294 2651
2294 2671
2294 2676
2295 2331
2295 2393
2295 2428
2295 2516
2295 2568
2295 2627
2295 2652
2295 2672
2296 2326
2296 2468
2296 2533
2296 2566
2296 2611
2296 2615
2297 2316
2297 2410
2297 2413
2297 2434
2297 2439
2297 2446
2297 2475
2297 2506
2297 2516
2297 2526
2297 2538
2297 2540
2297 2554
2297 2568
2297 2586
2297 2649
2297 2652
2297 2672
2297 2676
2298 2321
2298 2398
2298 2483
2298 2572
2298 2586
2299 2352
2299 2380
2299 2456
2299 2474
2299 2580
2299 2585
2299 2631
2299 2637
2299 2649
2299 2653
2299 2659
2299 2676
2300 2331
2300 2399
2300 2479
2300 2484
2300 2565
2300 2581
2300 2652
2301 2306
2301 2599
2302 2305
2302 2309
2302 2365
2302 2452
2302 2483
2302 2536
2302 2551
2302 2593
2302 2599
2302 2616
2302 2623
2302 2639
2302 2677
2303 2522
2303 2646
2304 2419
2304 2629
2305 2386
2305 2399
2305 2488
2305 2492
2306 2464
2307 2361
2307 2522
2307 2586
2307 2593
2307 2599
2307 2605
2307 2608
2307 2636
2309 2361
2309 2365
2309 2367
2309 2370
2309 2425
2309 2429
2309 2540
2309 2551
2309 2574
2309 2593
2309 2598
2310 2318
2310 2423
2310 2444
2310 2474
2310 2491
2310 2496
2310 2544
2310 2547
2310 2554
2310 2585
2310 2629
2311 2385
2311 2422
2311 2456
2311 2494
2311 2513
2311 2544
2311 2547
2311 2562
2311 2609
2311 2617
2311 2635
2311 2669
2311 2670
2311 2671
2312 2346
2312 2362
2312 2425
2312 2435
2312 2464
2312 2501
2312 2539
2312 2544
2312 2570
2312 2586
2312 2618
2312 2660
2312 2673
2313 2335
2313 2362
2313 2370
2313 2417
2313 2507
2313 2528
2313 2544
2313 2595
2313 2609
2313 2617
2313 2620
2315 2437
2315 2469
2315 2483
2315 2512
2316 2347
2316 2392
2316 2456
2316 2553
2316 2570
2316 2584
2316 2634
2316 2677
2317 2370
2317 2400
2318 2327
2318 2353
2318 2387
2318 2426
2318 2486
2318 2503
2318 2553
2319 2569
2320 2469
2320 2593
2320 2646
2321 2360
2321 2370
2321 2416
2321 2446
2321 2452
2321 2520
2321 2528
2321 2677
2322 2646
2323 2364
2324 2358
2324 2446
2324 2482
2324 2515
2326 2334
2326 2533
2326 2570
2326 2611
2326 2615
2326 2634
2327 2343
2327 2352
2327 2353
2327 2410
2327 2413
2327 2421
2327 2429
2327 2489
2327 2540
2327 2553
2327 2554
2327 2592
2327 2608
2327 2655
2328 2419
2328 2510
2328 2541
2328 2580
2328 2585
2328 2597
2328 2666
2328 2672
2329 2359
2329 2367
2329 2382
2329 2479
2329 2481
2329 2577
2329 2582
2329 2676
2330 2389
2330 2399
2330 2469
2330 2475
2330 2539
2330 2574
2330 2591
2330 2646
2330 2671
2331 2428
2331 2473
2331 2495
2331 2516
2331 2565
2331 2580
2331 2585
2331 2597
2331 2600
2331 2666
2332 2469
2332 2514
2332 2608
2333 2353
2333 2386
2333 2395
2333 2417
2333 2426
2333 2491
2333 2526
2333 2544
2333 2553
2333 2612
2333 2629
2333 2667
2334 2370
2334 2378
2334 2395
2334 2422
2334 2453
2334 2486
2334 2544
2334 2570
2334 2595
2334 2607
2334 2629
2334 2634
2335 2345
2335 2413
2335 2501
2335 2617
2335 2635
2335 2673
2336 2453
2336 2569
2337 2474
2337 2476
2339 2487
2339 2517
2339 2564
2339 2666
2340 2418
2340 2568
2340 2581
2341 2342
2342 2435
2342 2471
2342 2531
2342 2570
2342 2574
2342 2618
2342 2634
2342 2660
2343 2370
2343 2398
2343 2421
2343 2474
2343 2491
2343 2515
2343 2551
2343 2586
2343 2667
2343 2668
2344 2515
2345 2432
2345 2524
2345 2592
2345 2608
2345 2629
2346 2362
2346 2385
2346 2483
2346 2490
2346 2501
2346 2539
2346 2544
2346 2547
2346 2618
2346 2659
2346 2673
2347 2370
2347 2387
2347 2392
2347 2401
2347 2437
2347 2453
2347 2467
2347 2528
2347 2544
2347 2570
2347 2578
2347 2615
2347 2623
2347 2628
2347 2634
2349 2370
2349 2405
2349 2432
2349 2555
2349 2580
2349 2666
2350 2396
2350 2510
2350 2541
2350 2568
2350 2580
2350 2585
2350 2601
2350 2652
2350 2672
2352 2363
2352 2385
2352 2387
2352 2651
2352 2671
2353 2426
2353 2429
2353 2486
2353 2496
2353 2509
2353 2544
2353 2612
2353 2626
2353 2629
2353 2643
2353 2655
2354 2376
2354 2377
2354 2460
2354 2476
2354 2530
2354 2562
2354 2589
2354 2670
2355 2415
2355 2484
2355 2633
2356 2453
2356 2561
2358 2446
2358 2507
2358 2593
2358 2608
2358 2615
2358 2673
2359 2361
2359 2399
2359 2479
2359 2570
2359 2586
2359 2651
2360 2533
2360 2566
2360 2611
2360 2623
2360 2665
2361 2367
2361 2369
2361 2390
2361 2406
2361 2410
2361 2429
2361 2437
2361 2446
2361 2478
2361 2486
2361 2512
2361 2526
2361 2536
2361 2560
2361 2577
2361 2583
2361 2604
2361 2637
2361 2649
2361 2674
2361 2676
2362 2370
2362 2399
2362 2456
2362 2457
2362 2464
2362 2488
2362 2494
2362 2497
2362 2502
2362 2539
2362 2544
2362 2584
2362 2616
2362 2618
2362 2635
2362 2636
2363 2377
2363 2385
2363 2387
2363 2456
2363 2553
2363 2570
2363 2655
2363 2659
2364 2501
2365 2483
2365 2536
2365 2570
2365 2574
2365 2593
2365 2599
2365 2616
2367 2390
2367 2406
2367 2429
2367 2430
2367 2437
2367 2467
2367 2479
2367 2490
2367 2494
2367 2497
2367 2514
2367 2522
2367 2536
2367 2542
2367 2560
2367 2577
2367 2583
2367 2584
2367 2586
2367 2604
2367 2622
2367 2638
2367 2640
2367 2670
2368 2603
2369 2512
2369 2610
2369 2648
2370 2390
2370 2395
2370 2397
2370 2404
2370 2413
2370 2423
2370 2427
2370 2432
2370 2436
2370 2440
2370 2444
2370 2451
2370 2460
2370 2464
2370 2473
2370 2474
2370 2493
2370 2494
2370 2501
2370 2510
2370 2512
2370 2520
2370 2526
2370 2541
2370 2544
2370 2586
2370 2593
2370 2598
2370 2603
2370 2604
2370 2608
2370 2615
2370 2617
2370 2629
2370 2633
2370 2647
2370 2652
2370 2655
2370 2659
2370 2660
2370 2668
2370 2673
2373 2419
2373 2565
2374 2407
2374 2445
2375 2419
2375 2516
2375 2618
2376 2402
2376 2406
2376 2449
2376 2476
2376 2560
2376 2670
2377 2389
2377 2399
2377 2500
2377 2520
2377 2530
2377 2539
2377 2589
2377 2599
2377 2634
2377 2636
2379 2413
2379 2540
2379 2554
2380 2399
2380 2460
2380 2515
2380 2520
2380 2578
2380 2586
2380 2588
2380 2634
2380 2646
2380 2661
2380 2677
2382 2396
2382 2405
2382 2582
2382 2624
2385 2387
2385 2399
2385 2435
2385 2456
2385 2494
2385 2497
2385 2505
2385 2547
2385 2570
2385 2593
2385 2617
2385 2634
2385 2659
2385 2671
2386 2395
2386 2426
2386 2464
2386 2505
2386 2561
2386 2603
2386 2609
2387 2399
2387 2403
2387 2435
2387 2451
2387 2456
2387 2464
2387 2479
2387 2501
2387 2520
2387 2523
2387 2532
2387 2539
2387 2551
2387 2578
2387 2587
2387 2598
2387 2616
2387 2618
2387 2634
2387 2671
2387 2673
2387 2676
2387 2677
2388 2632
2389 2399
2389 2539
2389 2578
2389 2671
2390 2514
2390 2593
2390 2604
2390 2659
2391 2466
2392 2453
2392 2474
2392 2491
2392 2521
2392 2533
2392 2570
2392 2578
2392 2607
2392 2615
2392 2623
2392 2628
2392 2633
2392 2634
2393 2487
2393 2568
2393 2621
2395 2411
2395 2425
2395 2426
2395 2432
2395 2443
2395 2647
2396 2421
2396 2500
2396 2516
2396 2568
2396 2580
2397 2423
2397 2474
2397 2491
2397 2505
2397 2507
2397 2515
2397 2561
2397 2633
2397 2668
2398 2466
2398 2469
2398 2474
2398 2521
2398 2524
2398 2549
2398 2586
2399 2409
2399 2435
2399 2467
2399 2475
2399 2479
2399 2591
2399 2660
2399 2676
2401 2453
2401 2501
2401 2533
2401 2570
2401 2586
2401 2623
2401 2633
2401 2659
2401 2673
2402 2406
2402 2483
2402 2670
2403 2467
2403 2608
2403 2639
2404 2436
2404 2440
2404 2493
2404 2652
2405 2428
2405 2568
2405 2578
2405 2652
2405 2672
2406 2494
2406 2497
2406 2598
2406 2670
2407 2445
2408 2544
2410 2413
2410 2481
2410 2526
2410 2540
2410 2547
2410 2614
2410 2649
2410 2655
2411 2425
2411 2462
2411 2469
2411 2546
2411 2551
2411 2599
2411 2609
2413 2423
2413 2428
2413 2526
2413 2540
2413 2544
2413 2554
2413 2649
2413 2655
2415 2484
2417 2421
2417 2453
2417 2470
2417 2474
2417 2507
2417 2528
2417 2553
2417 2634
2417 2667
2418 2581
2419 2516
2419 2585
2419 2618
2420 2557
2421 2442
2421 2475
2421 2489
2421 2507
2421 2544
2421 2585
2421 2592
2421 2608
2421 2626
2421 2634
2422 2496
2422 2619
2423 2444
2423 2474
2423 2491
2423 2580
2423 2617
2423 2629
2423 2633
2423 2634
2423 2668
2424 2429
2424 2490
2424 2500
2424 2522
2424 2614
2424 2655
2424 2668
2425 2430
2425 2435
2425 2453
2425 2501
2425 2521
2425 2528
2425 2546
2425 2561
2425 2570
2425 2586
2425 2599
2425 2607
2425 2623
2425 2633
2425 2660
2425 2673
2425 2677
2426 2486
2426 2489
2426 2491
2426 2496
2426 2553
2426 2561
2426 2626
2426 2634
2426 2665
2427 2443
2427 2483
2427 2515
2427 2536
2427 2547
2427 2628
2427 2669
2428 2439
2428 2484
2428 2506
2428 2516
2428 2540
2428 2545
2428 2565
2428 2568
2428 2585
2428 2597
2428 2652
2428 2672
2429 2470
2429 2486
2429 2489
2429 2490
2429 2500
2429 2526
2429 2606
2430 2452
2430 2468
2430 2570
2430 2583
2430 2623
2432 2515
2432 2546
2432 2592
2432 2598
2432 2608
2432 2615
2432 2618
2432 2659
2433 2604
2434 2435
2434 2570
2434 2614
2434 2660
2434 2673
2435 2444
2435 2456
2435 2501
2435 2539
2435 2551
2435 2570
2435 2574
2435 2577
2435 2603
2435 2636
2435 2659
2435 2660
2435 2673
2436 2493
2437 2456
2437 2467
2437 2512
2437 2539
2437 2593
2437 2598
2437 2631
2437 2658
2438 2564
2438 2600
2438 2621
2440 2493
2440 2510
2440 2652
2441 2549
2441 2586
2443 2483
2443 2536
2444 2474
2444 2491
2444 2547
2444 2603
2444 2616
2444 2629
2444 2657
2445 2448
2446 2515
2446 2593
2449 2547
2449 2677
2450 2495
2450 2555
2451 2464
2451 2473
2451 2561
2451 2585
2451 2587
2451 2615
2451 2618
2452 2455
2452 2467
2452 2468
2452 2478
2452 2480
2452 2483
2452 2501
2452 2605
2452 2623
2452 2636
2452 2659
2452 2673
2453 2528
2453 2570
2453 2575
2453 2607
2453 2615
2453 2623
2453 2628
2453 2633
2453 2634
2453 2665
2454 2673
2455 2457
2455 2478
2456 2474
2456 2505
2456 2512
2456 2547
2456 2570
2456 2584
2456 2593
2456 2616
2456 2617
2456 2632
2456 2649
2456 2671
2456 2676
2457 2464
2457 2583
2458 2523
2458 2547
2458 2593
2458 2616
2458 2671
2460 2465
2460 2476
2460 2530
2460 2544
2460 2546
2460 2562
2460 2572
2460 2589
2460 2613
2460 2617
2460 2634
2460 2673
2460 2677
2464 2469
2464 2485
2464 2501
2464 2539
2464 2550
2464 2551
2464 2570
2464 2587
2464 2602
2464 2613
2464 2616
2464 2618
2464 2673
2465 2596
2466 2501
2466 2673
2467 2475
2467 2492
2467 2515
2467 2574
2467 2578
2467 2588
2467 2591
2467 2593
2467 2598
2467 2631
2467 2637
2467 2653
2468 2501
2468 2623
2469 2512
2469 2514
2469 2550
2469 2551
2469 2562
2469 2583
2469 2593
2469 2595
2469 2608
2469 2618
2469 2674
2470 2479
2470 2491
2470 2507
2470 2651
2471 2492
2471 2531
2471 2571
2471 2578
2471 2584
2471 2588
2471 2591
2471 2651
2471 2671
2471 2676
2473 2499
2473 2615
2474 2491
2474 2507
2474 2515
2474 2580
2474 2581
2474 2585
2474 2614
2474 2629
2474 2633
2474 2653
2474 2663
2474 2668
2475 2489
2475 2520
2476 2520
2476 2562
2476 2634
2476 2670
2479 2481
2479 2526
2479 2631
2480 2483
2480 2501
2480 2613
2481 2526
2481 2586
2481 2593
2482 2646
2483 2501
2483 2642
2483 2654
2484 2568
2486 2489
2486 2496
2486 2533
2486 2540
2486 2586
2486 2612
2487 2517
2488 2492
2488 2523
2488 2628
2488 2671
2488 2677
2489 2496
2489 2571
2489 2592
2489 2606
2489 2651
2490 2500
2490 2544
2490 2614
2490 2668
2491 2507
2491 2515
2491 2578
2491 2629
2491 2633
2491 2657
2491 2663
2491 2668
2492 2523
2492 2524
2492 2578
2492 2658
2492 2671
2494 2497
2494 2505
2494 2562
2494 2577
2494 2586
2494 2593
2494 2671
2495 2516
2495 2580
2495 2666
2496 2548
2496 2598
2496 2612
2496 2619
2496 2635
2497 2562
2497 2572
2497 2577
2497 2640
2497 2671
2497 2676
2500 2522
2500 2614
2500 2638
2500 2659
2500 2668
2501 2512
2501 2530
2501 2539
2501 2550
2501 2551
2501 2570
2501 2574
2501 2586
2501 2596
2501 2616
2501 2618
2501 2629
2501 2647
2501 2659
2501 2660
2501 2673
2502 2655
2502 2665
2503 2612
2504 2660
2505 2561
2505 2671
2506 2597
2506 2621
2507 2593
2510 2652
2512 2524
2512 2636
2513 2636
2514 2657
2515 2574
2515 2606
2515 2608
2515 2633
2515 2665
2516 2541
2516 2555
2516 2652
2516 2666
2516 2672
2517 2555
2518 2624
2520 2530
2520 2591
2520 2676
2521 2623
2521 2634
2522 2577
2522 2584
2522 2614
2522 2638
2523 2591
2523 2616
2523 2629
2523 2671
2524 2657
2526 2540
2526 2544
2526 2553
2526 2593
2526 2649
2526 2655
2526 2667
2528 2556
2528 2561
2528 2575
2528 2628
2528 2677
2530 2589
2530 2596
2530 2613
2530 2659
2530 2670
2530 2673
2531 2578
2532 2534
2532 2593
2532 2594
2532 2636
2533 2566
2533 2570
2533 2586
2533 2611
2533 2623
2533 2628
2533 2634
2534 2642
2534 2651
2539 2544
2539 2551
2539 2593
2539 2598
2539 2618
2539 2634
2539 2636
2539 2660
2539 2673
2540 2544
2540 2554
2540 2580
2540 2649
2540 2655
2540 2668
2541 2582
2541 2614
2541 2624
2541 2672
2544 2547
2544 2553
2544 2554
2544 2607
2544 2618
2544 2626
2544 2636
2544 2643
2544 2655
2545 2597
2545 2621
2546 2599
2546 2646
2547 2593
2547 2608
2547 2609
2547 2616
2547 2617
2547 2629
2547 2662
2547 2669
2547 2671
2549 2586
2549 2628
2550 2571
2551 2574
2551 2593
2551 2599
2551 2605
2551 2606
2551 2618
2551 2634
2551 2660
2553 2585
2553 2626
2553 2647
2553 2655
2554 2578
2554 2649
2554 2655
2555 2580
2556 2578
2556 2615
2556 2670
2559 2612
2559 2667
2561 2569
2561 2615
2561 2647
2561 2665
2562 2572
2562 2586
2562 2589
2562 2622
2562 2632
2562 2670
2563 2609
2563 2642
2564 2600
2564 2621
2564 2656
2564 2665
2566 2611
2566 2623
2568 2597
2569 2615
2570 2586
2570 2591
2570 2593
2570 2607
2570 2615
2570 2623
2570 2628
2570 2633
2570 2673
2572 2586
2572 2670
2574 2593
2574 2594
2574 2606
2574 2645
2574 2673
2577 2586
2577 2651
2578 2609
2578 2631
2578 2651
2578 2653
2578 2671
2580 2600
2580 2615
2580 2672
2582 2624
2583 2595
2583 2623
2584 2586
2584 2614
2584 2638
2584 2646
2584 2668
2585 2608
2585 2615
2586 2608
2586 2617
2586 2623
2586 2628
2586 2638
2586 2651
2586 2659
2586 2661
2587 2618
2588 2591
2589 2659
2589 2670
2591 2651
2591 2676
2592 2608
2593 2598
2593 2599
2593 2605
2593 2608
2593 2629
2593 2631
2593 2645
2593 2651
2593 2659
2595 2607
2596 2673
2598 2605
2598 2634
2598 2637
2600 2665
2603 2629
2605 2636
2606 2615
2606 2655
2606 2662
2607 2626
2607 2633
2607 2634
2607 2665
2608 2615
2608 2616
2608 2623
2608 2648
2608 2661
2609 2662
2609 2669
2610 2623
2610 2661
2611 2623
2612 2626
2612 2629
2612 2643
2614 2638
2614 2659
2614 2668
2615 2623
2615 2629
2615 2647
2615 2655
2615 2662
2616 2622
2616 2629
2616 2661
2616 2671
2616 2673
2617 2629
2617 2634
2618 2660
2621 2666
2623 2628
2623 2637
2623 2658
2623 2661
2623 2675
2623 2677
2626 2643
2626 2662
2626 2668
2628 2633
2629 2633
2629 2635
2629 2657
2629 2670
2631 2653
2632 2640
2633 2637
2633 2668
2633 2673
2634 2637
2634 2639
2634 2665
2634 2671
2636 2671
2636 2674
2637 2658
2638 2659
2642 2665
2649 2655
2651 2671
2651 2676
2652 2672
2659 2660
2659 2673
2660 2671
2660 2673
2660 2677
2671 2673
2673 2677
