%%MatrixMarket matrix coordinate pattern symmetric
2250 2250 84383
1 1108
1 1372
2 1163
2 1714
2 1751
3 112
3 811
3 2130
4 23
4 25
4 38
4 41
4 65
4 75
4 84
4 86
4 94
4 114
4 142
4 173
4 176
4 186
4 203
4 213
4 220
4 244
4 249
4 257
4 267
4 296
4 310
4 320
4 324
4 350
4 372
4 381
4 386
4 395
4 419
4 443
4 478
4 485
4 486
4 488
4 569
4 576
4 586
4 587
4 599
4 607
4 610
4 612
4 622
4 656
4 712
4 780
4 806
4 844
4 846
4 847
4 848
4 861
4 874
4 893
4 906
4 915
4 919
4 922
4 938
4 969
4 1017
4 1029
4 1030
4 1043
4 1054
4 1066
4 1073
4 1079
4 1158
4 1189
4 1240
4 1273
4 1307
4 1311
4 1316
4 1334
4 1354
4 1355
4 1375
4 1376
4 1410
4 1429
4 1436
4 1444
4 1460
4 1474
4 1483
4 1524
4 1532
4 1546
4 1569
4 1570
4 1577
4 1581
4 1593
4 1612
4 1645
4 1651
4 1657
4 1662
4 1679
4 1695
4 1711
4 1753
4 1761
4 1767
4 1772
4 1785
4 1797
4 1805
4 1809
4 1818
4 1824
4 1837
4 1848
4 1855
4 1866
4 1883
4 1889
4 1896
4 1902
4 1904
4 1920
4 1936
4 1959
4 1962
4 1968
4 1985
4 1993
4 1995
4 2037
4 2043
4 2072
4 2091
4 2100
4 2103
4 2119
4 2133
4 2171
4 2175
4 2181
4 2190
4 2246
5 13
5 95
5 146
5 353
5 451
5 467
5 475
5 519
5 715
5 735
5 753
5 789
5 793
5 959
5 1093
5 1289
5 1451
5 1622
5 1648
5 1672
5 1698
5 1833
5 1841
5 1884
5 1945
5 1996
5 2014
5 2039
5 2211
6 10
6 38
6 54
6 62
6 71
6 97
6 103
6 113
6 114
6 123
6 163
6 165
6 208
6 220
6 237
6 250
6 262
6 278
6 279
6 281
6 298
6 302
6 352
6 358
6 379
6 406
6 426
6 431
6 438
6 444
6 469
6 478
6 479
6 483
6 526
6 538
6 541
6 567
6 586
6 600
6 606
6 609
6 620
6 624
6 648
6 696
6 700
6 702
6 723
6 731
6 765
6 767
6 773
6 776
6 777
6 780
6 806
6 820
6 826
6 839
6 847
6 905
6 924
6 937
6 947
6 953
6 955
6 960
6 996
6 1009
6 1029
6 1030
6 1038
6 1062
6 1086
6 1096
6 1098
6 1099
6 1103
6 1136
6 1173
6 1174
6 1230
6 1251
6 1255
6 1260
6 1265
6 1266
6 1269
6 1270
6 1285
6 1292
6 1301
6 1311
6 1312
6 1321
6 1342
6 1354
6 1358
6 1365
6 1384
6 1394
6 1401
6 1408
6 1419
6 1429
6 1447
6 1449
6 1486
6 1492
6 1513
6 1579
6 1591
6 1603
6 1609
6 1610
6 1630
6 1651
6 1656
6 1658
6 1705
6 1754
6 1775
6 1787
6 1788
6 1799
6 1802
6 1804
6 1812
6 1816
6 1818
6 1822
6 1828
6 1840
6 1859
6 1878
6 1880
6 1892
6 1903
6 1910
6 1938
6 1939
6 1963
6 1987
6 2009
6 2048
6 2051
6 2052
6 2060
6 2100
6 2103
6 2104
6 2127
6 2151
6 2157
6 2161
6 2162
6 2175
6 2177
6 2181
6 2185
6 2188
6 2200
6 2204
6 2246
7 30
7 74
7 165
7 222
7 229
7 262
7 280
7 286
7 299
7 319
7 332
7 344
7 360
7 377
7 384
7 391
7 406
7 410
7 447
7 463
7 472
7 474
7 478
7 481
7 483
7 489
7 504
7 505
7 527
7 537
7 557
7 568
7 577
7 588
7 591
7 596
7 616
7 645
7 656
7 662
7 699
7 700
7 720
7 767
7 786
7 795
7 827
7 831
7 868
7 894
7 920
7 938
7 1058
7 1084
7 1098
7 1104
7 1112
7 1117
7 1180
7 1212
7 1232
7 1236
7 1247
7 1277
7 1322
7 1385
7 1391
7 1401
7 1424
7 1434
7 1459
7 1474
7 1484
7 1485
7 1520
7 1532
7 1533
7 1587
7 1632
7 1681
7 1709
7 1715
7 1732
7 1743
7 1752
7 1753
7 1818
7 1908
7 1911
7 1980
7 1985
7 2012
7 2022
7 2043
7 2076
7 2140
7 2148
7 2174
7 2186
8 10
8 64
8 74
8 97
8 116
8 130
8 132
8 140
8 149
8 153
8 160
8 168
8 173
8 189
8 194
8 201
8 211
8 217
8 219
8 237
8 240
8 251
8 259
8 280
8 281
8 282
8 291
8 302
8 316
8 325
8 332
8 341
8 344
8 351
8 362
8 394
8 399
8 403
8 405
8 406
8 410
8 417
8 418
8 425
8 427
8 452
8 454
8 460
8 472
8 486
8 494
8 500
8 510
8 511
8 514
8 522
8 536
8 544
8 560
8 579
8 587
8 610
8 614
8 622
8 629
8 642
8 672
8 695
8 706
8 724
8 731
8 741
8 872
8 873
8 894
8 897
8 898
8 911
8 923
8 947
8 961
8 962
8 976
8 981
8 984
8 1009
8 1019
8 1024
8 1028
8 1044
8 1048
8 1056
8 1080
8 1089
8 1100
8 1104
8 1119
8 1129
8 1154
8 1155
8 1180
8 1209
8 1221
8 1222
8 1225
8 1227
8 1230
8 1235
8 1273
8 1277
8 1283
8 1294
8 1307
8 1309
8 1332
8 1335
8 1346
8 1349
8 1368
8 1372
8 1378
8 1391
8 1409
8 1421
8 1432
8 1434
8 1442
8 1473
8 1474
8 1476
8 1493
8 1498
8 1500
8 1503
8 1507
8 1537
8 1554
8 1565
8 1569
8 1628
8 1632
8 1633
8 1646
8 1651
8 1669
8 1688
8 1695
8 1739
8 1741
8 1744
8 1749
8 1759
8 1765
8 1769
8 1774
8 1783
8 1792
8 1794
8 1796
8 1803
8 1813
8 1817
8 1818
8 1835
8 1850
8 1862
8 1876
8 1885
8 1892
8 1911
8 1960
8 1974
8 1981
8 1988
8 2012
8 2029
8 2081
8 2083
8 2097
8 2103
8 2118
8 2120
8 2136
8 2138
8 2165
8 2189
8 2194
8 2195
8 2204
8 2216
8 2222
8 2231
8 2235
9 49
9 107
9 217
9 332
9 352
9 542
9 672
9 923
9 1051
9 1100
9 1382
9 1409
9 1503
9 1589
9 1613
9 1628
9 1732
9 1752
9 1796
9 1917
9 2012
9 2117
9 2148
10 25
10 26
10 34
10 38
10 48
10 62
10 71
10 77
10 97
10 117
10 128
10 133
10 165
10 186
10 208
10 211
10 221
10 229
10 237
10 252
10 257
10 259
10 276
10 278
10 279
10 281
10 282
10 291
10 305
10 308
10 320
10 352
10 379
10 381
10 403
10 406
10 407
10 418
10 429
10 431
10 438
10 479
10 505
10 510
10 514
10 526
10 545
10 553
10 567
10 575
10 582
10 587
10 594
10 600
10 603
10 647
10 684
10 696
10 702
10 706
10 709
10 712
10 737
10 771
10 773
10 777
10 778
10 794
10 802
10 806
10 811
10 812
10 839
10 873
10 905
10 938
10 954
10 976
10 992
10 1006
10 1029
10 1030
10 1046
10 1066
10 1088
10 1089
10 1090
10 1103
10 1125
10 1154
10 1155
10 1173
10 1174
10 1189
10 1205
10 1220
10 1225
10 1227
10 1249
10 1266
10 1268
10 1283
10 1285
10 1307
10 1312
10 1318
10 1335
10 1342
10 1363
10 1369
10 1393
10 1394
10 1397
10 1409
10 1429
10 1436
10 1440
10 1443
10 1463
10 1492
10 1526
10 1532
10 1534
10 1554
10 1566
10 1569
10 1584
10 1616
10 1619
10 1646
10 1647
10 1651
10 1658
10 1669
10 1678
10 1736
10 1741
10 1754
10 1772
10 1787
10 1795
10 1799
10 1802
10 1817
10 1818
10 1830
10 1853
10 1878
10 1903
10 1938
10 1939
10 1947
10 1949
10 1974
10 2008
10 2009
10 2047
10 2050
10 2051
10 2066
10 2072
10 2086
10 2089
10 2090
10 2091
10 2101
10 2104
10 2107
10 2108
10 2127
10 2134
10 2144
10 2175
10 2193
10 2204
10 2232
10 2246
11 15
11 37
11 102
11 144
11 151
11 186
11 190
11 193
11 197
11 252
11 262
11 281
11 282
11 302
11 305
11 345
11 373
11 406
11 416
11 418
11 431
11 483
11 500
11 527
11 528
11 552
11 609
11 645
11 682
11 698
11 712
11 746
11 767
11 803
11 873
11 924
11 979
11 992
11 1024
11 1031
11 1066
11 1121
11 1173
11 1174
11 1204
11 1208
11 1271
11 1293
11 1332
11 1340
11 1344
11 1369
11 1416
11 1419
11 1443
11 1459
11 1520
11 1583
11 1799
11 1800
11 1802
11 1818
11 1820
11 1858
11 1878
11 1880
11 1908
11 1934
11 1962
11 1975
11 2022
11 2104
11 2127
11 2139
11 2151
11 2191
11 2232
11 2235
12 34
12 39
12 61
12 68
12 72
12 98
12 135
12 145
12 155
12 163
12 166
12 197
12 210
12 225
12 236
12 237
12 248
12 255
12 317
12 328
12 354
12 357
12 370
12 405
12 406
12 413
12 437
12 478
12 487
12 507
12 512
12 521
12 528
12 538
12 546
12 573
12 581
12 609
12 633
12 647
12 653
12 657
12 670
12 725
12 727
12 732
12 746
12 755
12 765
12 776
12 783
12 798
12 826
12 852
12 869
12 877
12 892
12 905
12 907
12 921
12 924
12 948
12 951
12 967
12 970
12 983
12 990
12 1005
12 1006
12 1010
12 1071
12 1077
12 1086
12 1088
12 1110
12 1122
12 1124
12 1150
12 1164
12 1187
12 1218
12 1229
12 1232
12 1251
12 1256
12 1270
12 1274
12 1279
12 1284
12 1288
12 1308
12 1310
12 1321
12 1348
12 1351
12 1365
12 1394
12 1399
12 1402
12 1408
12 1429
12 1438
12 1499
12 1544
12 1562
12 1576
12 1602
12 1605
12 1609
12 1634
12 1635
12 1638
12 1639
12 1656
12 1661
12 1662
12 1675
12 1679
12 1750
12 1788
12 1799
12 1802
12 1810
12 1836
12 1840
12 1853
12 1872
12 1890
12 1898
12 1927
12 1956
12 1963
12 1969
12 1975
12 1977
12 1989
12 2006
12 2020
12 2070
12 2080
12 2083
12 2088
12 2096
12 2124
12 2125
12 2141
12 2179
12 2183
12 2228
12 2230
13 42
13 47
13 51
13 95
13 247
13 393
13 435
13 467
13 497
13 519
13 550
13 714
13 715
13 735
13 753
13 774
13 789
13 793
13 860
13 959
13 983
13 1093
13 1214
13 1252
13 1291
13 1502
13 1622
13 1784
13 1833
13 1841
13 1945
13 1996
13 2039
13 2057
13 2127
13 2149
13 2152
13 2180
13 2215
13 2237
13 2240
14 39
14 57
14 90
14 130
14 136
14 153
14 163
14 185
14 197
14 221
14 245
14 248
14 302
14 324
14 348
14 353
14 357
14 370
14 413
14 487
14 506
14 517
14 521
14 528
14 608
14 627
14 647
14 657
14 663
14 670
14 694
14 723
14 734
14 745
14 746
14 763
14 765
14 869
14 893
14 960
14 967
14 973
14 976
14 988
14 990
14 1006
14 1046
14 1071
14 1075
14 1086
14 1106
14 1133
14 1135
14 1154
14 1195
14 1229
14 1237
14 1251
14 1270
14 1284
14 1286
14 1321
14 1340
14 1359
14 1393
14 1394
14 1399
14 1402
14 1410
14 1417
14 1507
14 1526
14 1537
14 1576
14 1579
14 1584
14 1591
14 1609
14 1638
14 1669
14 1704
14 1711
14 1741
14 1773
14 1799
14 1802
14 1817
14 1830
14 1845
14 1888
14 1938
14 1964
14 1965
14 1969
14 1995
14 2018
14 2032
14 2034
14 2083
14 2120
14 2141
14 2145
14 2151
14 2194
14 2198
14 2230
14 2249
15 26
15 48
15 102
15 128
15 151
15 165
15 282
15 287
15 406
15 410
15 418
15 429
15 478
15 479
15 527
15 552
15 569
15 603
15 610
15 713
15 738
15 769
15 796
15 919
15 924
15 940
15 992
15 1000
15 1006
15 1011
15 1121
15 1125
15 1133
15 1137
15 1147
15 1161
15 1173
15 1230
15 1249
15 1260
15 1312
15 1382
15 1395
15 1426
15 1443
15 1532
15 1616
15 1640
15 1647
15 1707
15 1708
15 1709
15 1736
15 1754
15 1800
15 1818
15 1820
15 1838
15 1847
15 1858
15 1878
15 1883
15 1911
15 2009
15 2010
15 2022
15 2026
15 2050
15 2069
15 2098
15 2104
15 2120
15 2139
15 2191
15 2232
16 65
16 78
16 87
16 93
16 114
16 118
16 120
16 142
16 184
16 202
16 203
16 212
16 213
16 262
16 275
16 286
16 307
16 313
16 316
16 377
16 384
16 397
16 410
16 417
16 427
16 446
16 461
16 462
16 483
16 486
16 501
16 522
16 524
16 569
16 607
16 610
16 620
16 649
16 691
16 697
16 705
16 737
16 780
16 787
16 795
16 831
16 832
16 837
16 847
16 861
16 871
16 874
16 938
16 949
16 960
16 1015
16 1020
16 1029
16 1069
16 1084
16 1094
16 1119
16 1144
16 1153
16 1158
16 1214
16 1241
16 1242
16 1253
16 1267
16 1268
16 1290
16 1307
16 1313
16 1322
16 1334
16 1358
16 1365
16 1369
16 1370
16 1376
16 1406
16 1431
16 1445
16 1447
16 1451
16 1460
16 1488
16 1504
16 1510
16 1514
16 1518
16 1548
16 1671
16 1708
16 1714
16 1721
16 1726
16 1743
16 1768
16 1772
16 1813
16 1818
16 1824
16 1839
16 1866
16 1875
16 1881
16 1894
16 1902
16 1908
16 1909
16 1916
16 1922
16 1936
16 1942
16 1944
16 1979
16 2003
16 2052
16 2069
16 2072
16 2087
16 2121
16 2127
16 2160
16 2166
16 2174
16 2187
16 2219
16 2231
16 2234
16 2236
17 152
17 274
17 558
17 597
17 926
17 975
18 131
18 132
18 186
18 211
18 229
18 258
18 259
18 320
18 362
18 418
18 441
18 443
18 500
18 525
18 560
18 579
18 695
18 699
18 723
18 741
18 773
18 816
18 872
18 895
18 905
18 955
18 1015
18 1044
18 1075
18 1154
18 1168
18 1179
18 1265
18 1283
18 1304
18 1327
18 1356
18 1393
18 1409
18 1507
18 1540
18 1569
18 1586
18 1601
18 1651
18 1719
18 1878
18 1964
18 1965
18 1969
18 1974
18 1975
18 2032
18 2099
18 2143
18 2147
18 2165
18 2194
18 2198
18 2216
18 2231
19 237
19 280
19 282
19 394
19 410
19 441
19 514
19 741
19 787
19 810
19 867
19 872
19 954
19 1000
19 1006
19 1019
19 1035
19 1138
19 1220
19 1349
19 1458
19 1503
19 1578
19 1694
19 1741
19 1792
19 1817
19 1904
19 2208
20 104
20 205
20 242
20 274
20 283
20 558
20 643
20 735
20 926
20 975
20 1014
20 1027
20 1194
20 1232
20 1411
20 1491
20 1495
20 1509
20 1531
20 1542
20 1714
20 1805
20 1813
20 1884
20 2014
20 2223
21 75
21 85
21 104
21 112
21 152
21 200
21 224
21 228
21 242
21 249
21 272
21 274
21 292
21 297
21 326
21 330
21 344
21 382
21 473
21 519
21 595
21 601
21 640
21 652
21 691
21 704
21 854
21 894
21 900
21 908
21 914
21 923
21 928
21 965
21 978
21 1027
21 1034
21 1082
21 1089
21 1119
21 1153
21 1154
21 1190
21 1194
21 1196
21 1198
21 1247
21 1260
21 1263
21 1275
21 1287
21 1386
21 1392
21 1461
21 1491
21 1519
21 1533
21 1606
21 1668
21 1672
21 1676
21 1685
21 1687
21 1784
21 1813
21 1859
21 1875
21 1884
21 1907
21 1915
21 1917
21 1971
21 1973
21 2017
21 2054
21 2078
21 2105
21 2210
21 2223
21 2242
22 26
22 50
22 64
22 79
22 86
22 90
22 116
22 141
22 143
22 148
22 171
22 194
22 286
22 300
22 309
22 324
22 405
22 419
22 512
22 516
22 521
22 532
22 553
22 587
22 593
22 600
22 642
22 699
22 707
22 773
22 845
22 930
22 944
22 966
22 967
22 1005
22 1042
22 1053
22 1081
22 1139
22 1152
22 1160
22 1178
22 1222
22 1283
22 1351
22 1393
22 1394
22 1438
22 1454
22 1472
22 1569
22 1626
22 1651
22 1731
22 1796
22 1797
22 1818
22 1836
22 1892
22 1937
22 1950
22 1972
22 1974
22 1983
22 1994
22 2029
22 2041
22 2079
22 2094
22 2096
22 2115
22 2123
22 2141
22 2179
23 38
23 70
23 74
23 77
23 114
23 160
23 334
23 399
23 405
23 410
23 418
23 419
23 479
23 488
23 489
23 493
23 540
23 545
23 610
23 612
23 628
23 656
23 684
23 709
23 773
23 794
23 846
23 861
23 915
23 918
23 924
23 940
23 941
23 944
23 1049
23 1073
23 1147
23 1212
23 1269
23 1270
23 1276
23 1301
23 1314
23 1364
23 1369
23 1486
23 1541
23 1554
23 1596
23 1651
23 1748
23 1779
23 1795
23 1807
23 1908
23 2018
23 2046
23 2071
23 2073
23 2167
23 2175
23 2186
23 2189
24 76
24 258
24 309
24 441
24 452
24 529
24 560
24 740
24 897
24 1033
24 1053
24 1108
24 1283
24 1298
24 1327
24 1414
24 1464
24 1543
24 1710
24 1720
24 1745
24 1783
24 1910
24 1951
24 2101
25 36
25 38
25 41
25 61
25 75
25 84
25 114
25 123
25 134
25 149
25 152
25 160
25 176
25 203
25 220
25 223
25 249
25 254
25 297
25 308
25 353
25 374
25 408
25 438
25 465
25 473
25 503
25 535
25 548
25 556
25 609
25 620
25 622
25 646
25 664
25 665
25 682
25 712
25 716
25 780
25 806
25 825
25 832
25 844
25 847
25 848
25 861
25 874
25 889
25 890
25 918
25 934
25 969
25 1017
25 1029
25 1030
25 1038
25 1052
25 1097
25 1104
25 1154
25 1182
25 1189
25 1208
25 1232
25 1240
25 1255
25 1267
25 1276
25 1289
25 1298
25 1311
25 1316
25 1342
25 1355
25 1384
25 1392
25 1421
25 1431
25 1436
25 1443
25 1460
25 1473
25 1488
25 1546
25 1570
25 1574
25 1580
25 1581
25 1593
25 1654
25 1664
25 1665
25 1695
25 1703
25 1720
25 1747
25 1755
25 1756
25 1799
25 1805
25 1809
25 1837
25 1865
25 1869
25 1875
25 1883
25 1899
25 1902
25 1955
25 1959
25 1962
25 1995
25 2001
25 2008
25 2011
25 2037
25 2046
25 2052
25 2069
25 2075
25 2168
25 2171
25 2197
25 2200
25 2206
26 34
26 46
26 61
26 68
26 141
26 145
26 151
26 155
26 221
26 236
26 244
26 263
26 269
26 281
26 289
26 305
26 352
26 360
26 366
26 370
26 402
26 424
26 476
26 478
26 479
26 481
26 512
26 516
26 527
26 528
26 552
26 589
26 594
26 608
26 609
26 633
26 647
26 664
26 680
26 699
26 708
26 716
26 755
26 767
26 769
26 773
26 776
26 783
26 784
26 801
26 818
26 819
26 826
26 828
26 833
26 835
26 839
26 843
26 847
26 907
26 913
26 915
26 920
26 924
26 935
26 939
26 942
26 981
26 992
26 1005
26 1009
26 1016
26 1046
26 1061
26 1075
26 1090
26 1097
26 1103
26 1130
26 1170
26 1173
26 1178
26 1181
26 1187
26 1200
26 1204
26 1205
26 1223
26 1230
26 1231
26 1237
26 1246
26 1249
26 1262
26 1276
26 1282
26 1289
26 1298
26 1301
26 1308
26 1322
26 1333
26 1340
26 1343
26 1356
26 1365
26 1369
26 1374
26 1382
26 1383
26 1390
26 1395
26 1408
26 1419
26 1431
26 1439
26 1443
26 1448
26 1463
26 1468
26 1482
26 1507
26 1584
26 1643
26 1662
26 1679
26 1707
26 1732
26 1746
26 1748
26 1755
26 1774
26 1795
26 1799
26 1800
26 1802
26 1806
26 1810
26 1812
26 1818
26 1836
26 1845
26 1853
26 1854
26 1903
26 1916
26 1924
26 1927
26 1928
26 1931
26 1938
26 1948
26 1949
26 1975
26 1989
26 2006
26 2020
26 2022
26 2050
26 2063
26 2103
26 2104
26 2123
26 2129
26 2139
26 2145
26 2153
26 2179
26 2181
26 2183
26 2191
26 2232
26 2235
26 2246
26 2248
27 65
27 76
27 132
27 194
27 207
27 240
27 298
27 309
27 313
27 323
27 329
27 377
27 384
27 488
27 518
27 594
27 637
27 760
27 832
27 947
27 954
27 960
27 962
27 1020
27 1116
27 1131
27 1137
27 1143
27 1193
27 1228
27 1285
27 1299
27 1309
27 1322
27 1335
27 1361
27 1363
27 1375
27 1406
27 1413
27 1443
27 1460
27 1467
27 1487
27 1569
27 1670
27 1735
27 1745
27 1769
27 1874
27 1908
27 1958
27 2086
27 2089
27 2136
28 1346
29 33
29 64
29 116
29 132
29 168
29 282
29 362
29 418
29 428
29 441
29 460
29 560
29 740
29 741
29 787
29 810
29 923
29 962
29 1015
29 1081
29 1179
29 1651
29 1722
29 1769
29 1774
29 1783
29 1892
29 1920
29 1972
29 1974
29 2029
29 2047
29 2118
29 2134
30 56
30 65
30 94
30 130
30 229
30 253
30 282
30 295
30 299
30 344
30 377
30 418
30 478
30 481
30 500
30 502
30 504
30 510
30 522
30 536
30 537
30 579
30 588
30 645
30 649
30 662
30 699
30 710
30 711
30 827
30 832
30 868
30 873
30 894
30 920
30 957
30 976
30 1019
30 1029
30 1058
30 1180
30 1247
30 1277
30 1322
30 1385
30 1391
30 1401
30 1434
30 1474
30 1480
30 1488
30 1520
30 1532
30 1538
30 1554
30 1587
30 1632
30 1716
30 1743
30 1818
30 1870
30 1911
30 1920
30 1964
30 1974
30 2012
30 2076
30 2099
30 2117
30 2174
31 36
31 63
31 65
31 83
31 134
31 149
31 190
31 221
31 223
31 249
31 250
31 254
31 285
31 301
31 313
31 353
31 364
31 378
31 381
31 395
31 414
31 417
31 465
31 553
31 556
31 574
31 607
31 653
31 700
31 705
31 743
31 762
31 806
31 808
31 818
31 890
31 923
31 1008
31 1029
31 1054
31 1059
31 1062
31 1066
31 1073
31 1089
31 1111
31 1176
31 1273
31 1289
31 1311
31 1460
31 1473
31 1538
31 1546
31 1558
31 1605
31 1656
31 1673
31 1720
31 1721
31 1818
31 1828
31 1877
31 1892
31 1955
31 1962
31 1967
31 2036
31 2042
31 2064
31 2069
31 2206
31 2213
31 2236
32 47
32 233
32 271
32 272
32 359
32 365
32 371
32 387
32 411
32 481
32 492
32 495
32 509
32 566
32 570
32 598
32 638
32 640
32 654
32 704
32 721
32 822
32 875
32 884
32 950
32 986
32 1007
32 1012
32 1034
32 1148
32 1153
32 1157
32 1166
32 1188
32 1190
32 1275
32 1307
32 1315
32 1358
32 1373
32 1386
32 1423
32 1479
32 1519
32 1529
32 1539
32 1552
32 1573
32 1595
32 1614
32 1621
32 1644
32 1668
32 1784
32 1821
32 1915
32 2007
32 2045
32 2059
32 2075
32 2105
32 2130
32 2135
32 2238
33 64
33 117
33 168
33 194
33 204
33 259
33 269
33 282
33 293
33 316
33 405
33 428
33 430
33 441
33 525
33 690
33 695
33 733
33 741
33 867
33 896
33 898
33 923
33 960
33 966
33 994
33 1015
33 1046
33 1096
33 1099
33 1197
33 1238
33 1241
33 1265
33 1294
33 1308
33 1335
33 1345
33 1349
33 1393
33 1467
33 1549
33 1794
33 1822
33 1850
33 1867
33 1926
33 1990
33 2087
33 2103
33 2115
33 2118
33 2147
33 2151
33 2182
33 2216
34 38
34 61
34 62
34 145
34 165
34 176
34 198
34 227
34 236
34 250
34 278
34 300
34 305
34 317
34 333
34 350
34 352
34 379
34 402
34 424
34 430
34 431
34 478
34 521
34 528
34 567
34 609
34 621
34 627
34 633
34 665
34 696
34 713
34 744
34 765
34 769
34 776
34 777
34 778
34 787
34 801
34 825
34 839
34 865
34 877
34 893
34 905
34 907
34 924
34 929
34 935
34 979
34 992
34 1029
34 1077
34 1088
34 1103
34 1130
34 1142
34 1174
34 1231
34 1246
34 1262
34 1266
34 1270
34 1282
34 1288
34 1301
34 1351
34 1365
34 1394
34 1408
34 1410
34 1419
34 1438
34 1459
34 1468
34 1499
34 1527
34 1562
34 1566
34 1580
34 1584
34 1658
34 1701
34 1713
34 1723
34 1746
34 1748
34 1754
34 1768
34 1775
34 1799
34 1802
34 1810
34 1812
34 1818
34 1836
34 1853
34 1881
34 1893
34 1923
34 1924
34 1928
34 1938
34 1939
34 1948
34 2006
34 2009
34 2020
34 2041
34 2042
34 2051
34 2063
34 2100
34 2124
34 2169
34 2183
34 2193
34 2246
35 90
35 143
35 148
35 180
35 185
35 248
35 273
35 309
35 320
35 324
35 339
35 368
35 370
35 424
35 434
35 437
35 442
35 460
35 512
35 521
35 573
35 608
35 659
35 734
35 740
35 790
35 834
35 892
35 896
35 918
35 930
35 960
35 966
35 967
35 1015
35 1081
35 1106
35 1139
35 1152
35 1160
35 1178
35 1181
35 1205
35 1276
35 1283
35 1284
35 1336
35 1351
35 1393
35 1432
35 1438
35 1541
35 1589
35 1592
35 1626
35 1662
35 1731
35 1775
35 1783
35 1790
35 1799
35 1801
35 1818
35 1822
35 1889
35 1931
35 1932
35 1960
35 1988
35 2041
35 2046
35 2110
35 2115
35 2116
35 2141
35 2167
35 2179
36 45
36 84
36 87
36 123
36 198
36 213
36 223
36 249
36 308
36 312
36 326
36 333
36 350
36 353
36 364
36 372
36 374
36 378
36 400
36 503
36 519
36 531
36 540
36 556
36 580
36 626
36 633
36 646
36 647
36 653
36 665
36 716
36 743
36 755
36 769
36 776
36 783
36 801
36 818
36 825
36 832
36 847
36 852
36 865
36 893
36 912
36 930
36 951
36 963
36 969
36 983
36 992
36 1029
36 1030
36 1059
36 1068
36 1073
36 1077
36 1079
36 1089
36 1097
36 1111
36 1142
36 1145
36 1182
36 1200
36 1269
36 1279
36 1282
36 1288
36 1289
36 1311
36 1324
36 1340
36 1342
36 1355
36 1374
36 1384
36 1408
36 1421
36 1448
36 1460
36 1483
36 1497
36 1512
36 1544
36 1562
36 1566
36 1574
36 1580
36 1593
36 1609
36 1634
36 1635
36 1642
36 1643
36 1656
36 1665
36 1673
36 1678
36 1679
36 1701
36 1704
36 1706
36 1723
36 1799
36 1802
36 1810
36 1812
36 1846
36 1848
36 1865
36 1896
36 1902
36 1923
36 1940
36 1949
36 1959
36 1977
36 1995
36 2042
36 2095
36 2100
36 2168
36 2169
36 2175
36 2206
36 2219
36 2233
36 2248
37 65
37 70
37 74
37 114
37 157
37 262
37 281
37 286
37 313
37 374
37 377
37 384
37 418
37 425
37 460
37 479
37 500
37 522
37 526
37 552
37 612
37 656
37 736
37 795
37 954
37 979
37 1020
37 1034
37 1073
37 1132
37 1180
37 1212
37 1299
37 1322
37 1332
37 1334
37 1358
37 1364
37 1391
37 1406
37 1443
37 1460
37 1497
37 1509
37 1518
37 1554
37 1575
37 1596
37 1706
37 1837
37 1901
37 1934
37 2089
38 54
38 70
38 74
38 75
38 114
38 128
38 131
38 165
38 183
38 208
38 257
38 278
38 286
38 299
38 301
38 302
38 334
38 353
38 379
38 405
38 406
38 410
38 418
38 435
38 478
38 479
38 486
38 488
38 526
38 552
38 569
38 575
38 612
38 625
38 646
38 647
38 656
38 699
38 705
38 776
38 778
38 801
38 861
38 865
38 905
38 938
38 940
38 1006
38 1010
38 1030
38 1033
38 1046
38 1073
38 1161
38 1244
38 1262
38 1269
38 1276
38 1277
38 1312
38 1314
38 1322
38 1340
38 1346
38 1369
38 1408
38 1420
38 1486
38 1513
38 1518
38 1532
38 1593
38 1632
38 1647
38 1658
38 1706
38 1709
38 1795
38 1802
38 1805
38 1818
38 1837
38 1846
38 1863
38 1866
38 1883
38 1924
38 1936
38 2026
38 2046
38 2051
38 2063
38 2072
38 2175
38 2181
38 2182
38 2193
38 2246
39 61
39 145
39 155
39 163
39 210
39 248
39 282
39 299
39 312
39 370
39 374
39 408
39 437
39 528
39 538
39 608
39 609
39 633
39 647
39 657
39 670
39 671
39 701
39 723
39 746
39 755
39 763
39 765
39 819
39 826
39 839
39 869
39 877
39 935
39 990
39 1025
39 1070
39 1071
39 1086
39 1124
39 1164
39 1187
39 1251
39 1256
39 1270
39 1282
39 1321
39 1351
39 1387
39 1408
39 1499
39 1562
39 1576
39 1609
39 1634
39 1638
39 1662
39 1713
39 1750
39 1802
39 1840
39 1890
39 1963
39 1969
39 2020
39 2070
39 2079
39 2083
39 2088
39 2124
39 2125
39 2145
39 2183
39 2230
40 140
40 640
40 1136
41 75
41 84
41 157
41 176
41 213
41 215
41 220
41 223
41 249
41 267
41 285
41 326
41 350
41 353
41 364
41 366
41 374
41 378
41 414
41 455
41 465
41 503
41 553
41 556
41 567
41 576
41 604
41 620
41 622
41 646
41 656
41 664
41 679
41 696
41 715
41 780
41 818
41 844
41 847
41 848
41 874
41 912
41 915
41 926
41 969
41 979
41 1010
41 1021
41 1023
41 1029
41 1038
41 1052
41 1062
41 1066
41 1089
41 1158
41 1240
41 1260
41 1289
41 1311
41 1334
41 1341
41 1354
41 1430
41 1444
41 1460
41 1483
41 1504
41 1512
41 1538
41 1546
41 1567
41 1593
41 1596
41 1622
41 1642
41 1656
41 1690
41 1701
41 1706
41 1723
41 1771
41 1797
41 1804
41 1818
41 1837
41 1848
41 1853
41 1877
41 1899
41 1902
41 1923
41 1936
41 1940
41 1947
41 1962
41 1986
41 1995
41 2036
41 2046
41 2100
41 2109
41 2168
41 2171
41 2175
41 2190
41 2206
41 2245
41 2246
41 2248
42 292
42 902
42 1033
42 1078
42 1330
42 1491
42 1502
42 1564
42 1777
42 1814
42 2017
42 2075
42 2224
43 48
43 160
43 232
43 294
43 339
43 344
43 377
43 425
43 489
43 610
43 677
43 694
43 741
43 786
43 867
43 872
43 1000
43 1120
43 1249
43 1322
43 1397
43 1454
43 1475
43 1486
43 1540
43 1569
43 1596
43 1613
43 1619
43 1647
43 1669
43 1688
43 1692
43 1908
43 1920
43 2028
43 2068
43 2165
43 2186
43 2208
44 61
44 62
44 117
44 183
44 186
44 217
44 240
44 282
44 294
44 297
44 300
44 345
44 399
44 413
44 414
44 468
44 486
44 532
44 572
44 582
44 585
44 626
44 662
44 678
44 687
44 711
44 734
44 778
44 783
44 810
44 826
44 833
44 843
44 882
44 883
44 948
44 953
44 954
44 973
44 1068
44 1108
44 1132
44 1187
44 1195
44 1245
44 1258
44 1292
44 1307
44 1323
44 1329
44 1338
44 1340
44 1365
44 1369
44 1394
44 1419
44 1467
44 1474
44 1483
44 1493
44 1507
44 1544
44 1579
44 1630
44 1638
44 1662
44 1667
44 1697
44 1782
44 1802
44 1832
44 1859
44 1898
44 1912
44 1930
44 1936
44 1951
44 1968
44 2038
44 2077
44 2096
44 2099
44 2141
44 2156
44 2173
44 2193
44 2234
45 84
45 87
45 109
45 223
45 282
45 406
45 503
45 543
45 580
45 599
45 625
45 646
45 712
45 737
45 743
45 794
45 819
45 825
45 831
45 847
45 862
45 865
45 934
45 963
45 980
45 1029
45 1046
45 1068
45 1073
45 1084
45 1089
45 1113
45 1119
45 1227
45 1324
45 1384
45 1421
45 1425
45 1456
45 1458
45 1483
45 1492
45 1593
45 1643
45 1720
45 1723
45 1747
45 1865
45 1866
45 1875
45 1932
45 1984
45 1995
45 2001
45 2065
45 2066
45 2100
45 2133
45 2190
45 2195
45 2197
45 2202
45 2219
46 61
46 100
46 155
46 189
46 221
46 255
46 352
46 370
46 507
46 515
46 528
46 589
46 608
46 744
46 835
46 844
46 848
46 907
46 979
46 985
46 1016
46 1164
46 1187
46 1200
46 1231
46 1329
46 1365
46 1374
46 1419
46 1440
46 1482
46 1499
46 1510
46 1762
46 1799
46 1806
46 1836
46 1840
46 1853
46 1895
46 1924
46 2006
46 2020
46 2145
46 2183
47 95
47 104
47 126
47 200
47 218
47 260
47 271
47 272
47 292
47 304
47 335
47 359
47 361
47 363
47 371
47 393
47 411
47 492
47 508
47 550
47 551
47 566
47 570
47 598
47 612
47 638
47 654
47 661
47 721
47 753
47 774
47 782
47 812
47 856
47 870
47 950
47 958
47 965
47 986
47 1012
47 1025
47 1029
47 1030
47 1031
47 1034
47 1060
47 1082
47 1093
47 1101
47 1105
47 1157
47 1163
47 1188
47 1201
47 1240
47 1252
47 1263
47 1275
47 1306
47 1315
47 1326
47 1355
47 1362
47 1373
47 1386
47 1412
47 1423
47 1465
47 1491
47 1509
47 1519
47 1529
47 1536
47 1539
47 1542
47 1551
47 1566
47 1620
47 1621
47 1648
47 1666
47 1676
47 1684
47 1764
47 1784
47 1821
47 1833
47 1873
47 1915
47 1949
47 1973
47 2005
47 2007
47 2014
47 2045
47 2059
47 2105
47 2130
47 2164
47 2211
47 2224
47 2226
47 2237
47 2238
47 2247
48 52
48 61
48 65
48 71
48 78
48 109
48 120
48 170
48 180
48 194
48 220
48 225
48 249
48 280
48 281
48 287
48 289
48 295
48 302
48 319
48 320
48 328
48 339
48 343
48 344
48 352
48 353
48 406
48 418
48 420
48 434
48 438
48 463
48 465
48 476
48 501
48 514
48 546
48 610
48 617
48 698
48 733
48 764
48 795
48 811
48 818
48 831
48 832
48 834
48 868
48 879
48 880
48 905
48 918
48 919
48 920
48 984
48 988
48 1015
48 1035
48 1065
48 1112
48 1125
48 1132
48 1134
48 1136
48 1137
48 1169
48 1189
48 1212
48 1225
48 1226
48 1230
48 1239
48 1241
48 1249
48 1260
48 1262
48 1264
48 1304
48 1311
48 1312
48 1317
48 1321
48 1324
48 1336
48 1345
48 1372
48 1382
48 1391
48 1392
48 1395
48 1416
48 1429
48 1434
48 1436
48 1437
48 1439
48 1463
48 1469
48 1474
48 1484
48 1485
48 1532
48 1596
48 1607
48 1613
48 1616
48 1637
48 1639
48 1640
48 1647
48 1678
48 1692
48 1695
48 1705
48 1709
48 1721
48 1736
48 1744
48 1759
48 1772
48 1785
48 1790
48 1805
48 1818
48 1849
48 1850
48 1869
48 1908
48 1911
48 1917
48 1947
48 1965
48 1967
48 1985
48 2001
48 2006
48 2020
48 2028
48 2035
48 2043
48 2065
48 2085
48 2088
48 2090
48 2102
48 2108
48 2110
48 2126
48 2156
48 2165
48 2175
48 2181
48 2183
48 2186
48 2194
48 2232
49 94
49 107
49 202
49 217
49 229
49 251
49 253
49 259
49 264
49 332
49 351
49 356
49 378
49 417
49 486
49 514
49 624
49 643
49 649
49 672
49 711
49 720
49 729
49 774
49 801
49 920
49 924
49 938
49 961
49 976
49 980
49 1006
49 1009
49 1024
49 1028
49 1044
49 1056
49 1078
49 1100
49 1169
49 1225
49 1230
49 1241
49 1277
49 1304
49 1382
49 1406
49 1434
49 1498
49 1500
49 1503
49 1510
49 1575
49 1589
49 1600
49 1607
49 1613
49 1628
49 1641
49 1646
49 1694
49 1731
49 1732
49 1752
49 1813
49 1819
49 1859
49 1867
49 1871
49 1952
49 1964
49 1965
49 1981
49 2012
49 2085
49 2091
49 2107
49 2149
49 2158
49 2205
50 59
50 79
50 157
50 166
50 185
50 197
50 227
50 250
50 285
50 290
50 291
50 299
50 320
50 326
50 345
50 399
50 407
50 419
50 422
50 442
50 474
50 479
50 503
50 517
50 521
50 528
50 539
50 563
50 576
50 632
50 642
50 665
50 684
50 723
50 743
50 772
50 839
50 843
50 869
50 893
50 896
50 903
50 915
50 921
50 930
50 954
50 973
50 987
50 1006
50 1010
50 1043
50 1064
50 1070
50 1072
50 1075
50 1096
50 1106
50 1122
50 1140
50 1141
50 1154
50 1207
50 1208
50 1218
50 1222
50 1246
50 1251
50 1265
50 1270
50 1284
50 1328
50 1348
50 1387
50 1393
50 1400
50 1402
50 1410
50 1417
50 1428
50 1429
50 1438
50 1507
50 1527
50 1565
50 1591
50 1593
50 1625
50 1626
50 1635
50 1667
50 1669
50 1680
50 1699
50 1701
50 1773
50 1780
50 1794
50 1799
50 1817
50 1835
50 1929
50 1932
50 1938
50 1949
50 1950
50 1956
50 2020
50 2034
50 2037
50 2041
50 2062
50 2079
50 2083
50 2119
50 2123
50 2151
50 2168
50 2170
50 2175
50 2216
51 264
51 451
51 475
51 497
51 621
51 774
51 860
51 1093
51 1778
51 1913
51 1947
51 1996
51 2060
51 2128
52 339
52 434
52 1136
52 1137
52 1159
52 1209
52 1336
52 1547
52 1615
52 1790
53 211
53 367
53 927
53 1991
53 1994
53 2199
54 62
54 113
54 114
54 117
54 128
54 156
54 173
54 176
54 183
54 220
54 223
54 246
54 288
54 297
54 299
54 301
54 308
54 326
54 336
54 343
54 372
54 383
54 476
54 480
54 486
54 533
54 541
54 599
54 622
54 625
54 682
54 705
54 712
54 716
54 734
54 843
54 847
54 848
54 919
54 924
54 977
54 1021
54 1026
54 1029
54 1040
54 1066
54 1068
54 1105
54 1111
54 1128
54 1142
54 1191
54 1244
54 1253
54 1258
54 1262
54 1271
54 1274
54 1290
54 1292
54 1298
54 1305
54 1311
54 1329
54 1340
54 1353
54 1369
54 1388
54 1456
54 1460
54 1483
54 1504
54 1511
54 1558
54 1605
54 1626
54 1654
54 1662
54 1664
54 1665
54 1673
54 1681
54 1706
54 1730
54 1751
54 1753
54 1756
54 1802
54 1805
54 1832
54 1846
54 1860
54 1863
54 1883
54 1895
54 1916
54 1931
54 1955
54 2009
54 2036
54 2063
54 2072
54 2100
54 2155
54 2168
54 2200
54 2248
55 65
55 75
55 84
55 129
55 173
55 174
55 190
55 202
55 220
55 237
55 246
55 249
55 267
55 287
55 310
55 331
55 343
55 358
55 366
55 378
55 381
55 383
55 397
55 461
55 473
55 480
55 491
55 501
55 548
55 576
55 599
55 606
55 620
55 625
55 643
55 646
55 697
55 699
55 720
55 736
55 737
55 762
55 881
55 937
55 938
55 957
55 1009
55 1029
55 1040
55 1046
55 1054
55 1057
55 1066
55 1073
55 1084
55 1109
55 1125
55 1191
55 1273
55 1278
55 1290
55 1327
55 1356
55 1364
55 1376
55 1392
55 1425
55 1432
55 1473
55 1603
55 1610
55 1641
55 1645
55 1654
55 1671
55 1690
55 1706
55 1720
55 1721
55 1756
55 1758
55 1827
55 1846
55 1849
55 1863
55 1875
55 1942
55 2043
55 2065
55 2121
55 2133
55 2171
55 2185
55 2195
56 74
56 94
56 128
56 184
56 229
56 237
56 262
56 280
56 286
56 325
56 332
56 344
56 360
56 377
56 378
56 397
56 406
56 473
56 474
56 502
56 504
56 516
56 522
56 536
56 542
56 545
56 568
56 576
56 579
56 591
56 624
56 645
56 662
56 692
56 720
56 736
56 757
56 795
56 841
56 846
56 873
56 894
56 895
56 920
56 938
56 942
56 957
56 961
56 971
56 1046
56 1056
56 1058
56 1125
56 1174
56 1230
56 1233
56 1236
56 1238
56 1247
56 1290
56 1309
56 1349
56 1356
56 1385
56 1406
56 1409
56 1434
56 1446
56 1474
56 1476
56 1486
56 1520
56 1533
56 1554
56 1600
56 1607
56 1632
56 1715
56 1720
56 1732
56 1743
56 1746
56 1816
56 1818
56 1855
56 1863
56 1870
56 1979
56 1980
56 1982
56 2012
56 2043
56 2052
56 2076
56 2081
56 2102
56 2133
56 2148
56 2159
56 2161
56 2174
56 2182
57 100
57 201
57 245
57 348
57 354
57 357
57 362
57 487
57 506
57 650
57 690
57 694
57 730
57 745
57 747
57 770
57 816
57 878
57 985
57 988
57 1006
57 1099
57 1160
57 1229
57 1251
57 1359
57 1400
57 1402
57 1405
57 1556
57 1972
57 1994
57 2032
57 2116
57 2151
57 2235
58 77
58 132
58 141
58 237
58 284
58 286
58 332
58 432
58 494
58 504
58 525
58 545
58 615
58 617
58 655
58 699
58 723
58 757
58 818
58 923
58 1058
58 1100
58 1165
58 1169
58 1236
58 1294
58 1327
58 1349
58 1476
58 1486
58 1522
58 1537
58 1540
58 1560
58 1584
58 1594
58 1600
58 1653
58 1700
58 1744
58 1774
58 1982
58 1998
58 2092
58 2110
58 2138
58 2198
58 2216
59 65
59 136
59 176
59 220
59 223
59 257
59 267
59 302
59 310
59 326
59 333
59 408
59 556
59 576
59 599
59 606
59 620
59 625
59 646
59 665
59 743
59 780
59 806
59 811
59 832
59 844
59 847
59 848
59 865
59 937
59 1029
59 1038
59 1136
59 1244
59 1255
59 1273
59 1290
59 1311
59 1334
59 1384
59 1448
59 1460
59 1492
59 1546
59 1574
59 1580
59 1625
59 1634
59 1706
59 1730
59 1797
59 1805
59 1878
59 1899
59 1901
59 1902
59 1949
59 1995
59 2037
59 2100
59 2119
59 2171
59 2185
59 2200
59 2206
59 2248
60 927
60 1594
61 62
61 68
61 128
61 145
61 155
61 221
61 237
61 248
61 250
61 282
61 332
61 352
61 357
61 402
61 414
61 424
61 437
61 472
61 514
61 528
61 538
61 565
61 575
61 581
61 582
61 589
61 609
61 610
61 633
61 647
61 657
61 670
61 723
61 744
61 755
61 763
61 778
61 798
61 801
61 839
61 869
61 877
61 905
61 907
61 913
61 930
61 935
61 938
61 951
61 970
61 979
61 983
61 988
61 990
61 992
61 1009
61 1071
61 1086
61 1088
61 1103
61 1164
61 1174
61 1241
61 1243
61 1246
61 1256
61 1262
61 1282
61 1288
61 1317
61 1321
61 1325
61 1340
61 1351
61 1365
61 1383
61 1408
61 1409
61 1419
61 1429
61 1438
61 1459
61 1468
61 1474
61 1485
61 1499
61 1562
61 1571
61 1576
61 1600
61 1607
61 1609
61 1634
61 1635
61 1643
61 1662
61 1678
61 1713
61 1748
61 1768
61 1799
61 1802
61 1813
61 1818
61 1832
61 1840
61 1853
61 1924
61 1928
61 1930
61 1936
61 1948
61 1963
61 1969
61 1975
61 2006
61 2018
61 2020
61 2043
61 2051
61 2063
61 2070
61 2088
61 2108
61 2117
61 2124
61 2153
61 2173
61 2181
61 2183
61 2193
61 2230
62 63
62 115
62 128
62 176
62 193
62 281
62 297
62 352
62 402
62 406
62 438
62 444
62 479
62 500
62 521
62 528
62 533
62 541
62 552
62 567
62 575
62 582
62 678
62 686
62 696
62 708
62 723
62 744
62 769
62 777
62 778
62 783
62 801
62 843
62 892
62 905
62 913
62 935
62 938
62 979
62 1009
62 1103
62 1119
62 1147
62 1181
62 1187
62 1200
62 1241
62 1258
62 1262
62 1274
62 1312
62 1317
62 1340
62 1365
62 1404
62 1418
62 1419
62 1459
62 1476
62 1482
62 1507
62 1526
62 1571
62 1584
62 1638
62 1662
62 1665
62 1673
62 1679
62 1711
62 1713
62 1754
62 1782
62 1788
62 1799
62 1802
62 1812
62 1817
62 1818
62 1832
62 1853
62 1880
62 1895
62 1924
62 1931
62 1934
62 1989
62 2009
62 2020
62 2038
62 2053
62 2108
62 2116
62 2127
62 2153
62 2181
62 2183
62 2193
62 2232
62 2246
63 94
63 98
63 117
63 186
63 221
63 273
63 297
63 302
63 328
63 469
63 475
63 493
63 516
63 517
63 556
63 565
63 628
63 633
63 657
63 743
63 794
63 806
63 818
63 832
63 839
63 843
63 846
63 852
63 880
63 895
63 913
63 918
63 938
63 979
63 992
63 1006
63 1059
63 1071
63 1086
63 1088
63 1147
63 1230
63 1258
63 1292
63 1365
63 1459
63 1468
63 1507
63 1541
63 1607
63 1634
63 1662
63 1695
63 1741
63 1768
63 1795
63 1802
63 1818
63 1832
63 1853
63 1938
63 1969
63 1988
63 2006
63 2010
63 2046
63 2051
63 2107
63 2153
63 2173
64 75
64 76
64 79
64 86
64 94
64 124
64 130
64 140
64 148
64 153
64 160
64 168
64 189
64 194
64 204
64 259
64 269
64 273
64 282
64 316
64 324
64 344
64 356
64 362
64 386
64 405
64 407
64 417
64 419
64 424
64 428
64 430
64 434
64 441
64 443
64 448
64 454
64 472
64 498
64 504
64 521
64 522
64 525
64 536
64 542
64 549
64 568
64 569
64 579
64 587
64 624
64 642
64 672
64 695
64 706
64 711
64 726
64 740
64 741
64 764
64 768
64 796
64 834
64 872
64 887
64 904
64 910
64 911
64 922
64 923
64 938
64 941
64 955
64 960
64 961
64 967
64 980
64 1015
64 1046
64 1051
64 1056
64 1081
64 1088
64 1096
64 1100
64 1136
64 1143
64 1168
64 1179
64 1181
64 1218
64 1221
64 1226
64 1239
64 1277
64 1283
64 1335
64 1336
64 1345
64 1356
64 1364
64 1378
64 1397
64 1421
64 1425
64 1432
64 1442
64 1454
64 1472
64 1489
64 1500
64 1515
64 1540
64 1549
64 1565
64 1569
64 1572
64 1587
64 1628
64 1631
64 1651
64 1688
64 1732
64 1739
64 1744
64 1759
64 1762
64 1794
64 1796
64 1813
64 1849
64 1850
64 1881
64 1889
64 1891
64 1920
64 1926
64 1952
64 1960
64 1974
64 1982
64 1990
64 2008
64 2016
64 2019
64 2051
64 2055
64 2068
64 2089
64 2091
64 2118
64 2134
64 2141
64 2147
64 2151
64 2165
64 2182
64 2194
64 2195
64 2201
65 77
65 83
65 87
65 93
65 114
65 134
65 136
65 170
65 203
65 220
65 231
65 249
65 262
65 267
65 310
65 313
65 333
65 336
65 339
65 343
65 377
65 384
65 479
65 481
65 488
65 504
65 522
65 526
65 532
65 536
65 553
65 588
65 594
65 596
65 599
65 607
65 610
65 631
65 637
65 646
65 654
65 656
65 659
65 660
65 743
65 751
65 762
65 774
65 795
65 832
65 844
65 847
65 848
65 865
65 874
65 938
65 954
65 960
65 1020
65 1029
65 1040
65 1084
65 1116
65 1117
65 1191
65 1212
65 1223
65 1244
65 1273
65 1289
65 1290
65 1305
65 1311
65 1322
65 1332
65 1334
65 1335
65 1353
65 1358
65 1363
65 1406
65 1409
65 1443
65 1444
65 1448
65 1458
65 1460
65 1463
65 1473
65 1483
65 1488
65 1492
65 1504
65 1510
65 1518
65 1524
65 1546
65 1558
65 1574
65 1575
65 1580
65 1634
65 1670
65 1681
65 1705
65 1761
65 1765
65 1772
65 1790
65 1797
65 1805
65 1827
65 1849
65 1866
65 1869
65 1875
65 1894
65 1899
65 1901
65 1902
65 1908
65 1917
65 1940
65 1967
65 1985
65 2027
65 2037
65 2040
65 2052
65 2055
65 2086
65 2089
65 2121
65 2127
65 2171
65 2202
65 2206
65 2231
65 2236
65 2248
66 239
66 804
66 837
66 1023
66 1330
66 1491
66 2075
67 229
68 102
68 206
68 348
68 414
68 415
68 424
68 442
68 450
68 478
68 505
68 528
68 580
68 608
68 609
68 610
68 631
68 647
68 652
68 678
68 687
68 727
68 734
68 769
68 776
68 783
68 801
68 839
68 844
68 865
68 894
68 913
68 935
68 953
68 992
68 1005
68 1081
68 1117
68 1160
68 1180
68 1187
68 1237
68 1246
68 1249
68 1270
68 1277
68 1288
68 1292
68 1296
68 1333
68 1340
68 1346
68 1348
68 1351
68 1365
68 1383
68 1408
68 1419
68 1420
68 1452
68 1499
68 1584
68 1638
68 1645
68 1658
68 1662
68 1679
68 1746
68 1791
68 1799
68 1801
68 1802
68 1806
68 1810
68 1812
68 1818
68 1830
68 1832
68 1912
68 1919
68 1948
68 2006
68 2010
68 2020
68 2038
68 2124
68 2153
68 2183
68 2193
68 2202
69 166
69 242
69 256
69 993
69 1082
69 1250
69 1531
69 1821
69 1899
69 2002
70 94
70 114
70 151
70 165
70 178
70 244
70 336
70 360
70 410
70 433
70 447
70 479
70 488
70 489
70 525
70 532
70 628
70 656
70 684
70 699
70 741
70 794
70 846
70 895
70 915
70 918
70 937
70 1015
70 1057
70 1059
70 1134
70 1147
70 1161
70 1269
70 1276
70 1301
70 1314
70 1356
70 1364
70 1387
70 1401
70 1436
70 1469
70 1480
70 1497
70 1513
70 1554
70 1596
70 1603
70 1607
70 1640
70 1647
70 1678
70 1695
70 1746
70 1771
70 1795
70 1818
70 1827
70 1909
70 2046
70 2052
70 2071
70 2073
70 2104
70 2107
70 2120
70 2147
70 2167
70 2175
70 2176
70 2186
70 2195
71 77
71 94
71 97
71 129
71 132
71 133
71 157
71 169
71 232
71 279
71 281
71 282
71 327
71 362
71 369
71 399
71 405
71 406
71 418
71 432
71 441
71 460
71 540
71 544
71 545
71 547
71 560
71 579
71 615
71 617
71 637
71 639
71 663
71 677
71 702
71 723
71 740
71 773
71 786
71 802
71 811
71 828
71 905
71 1000
71 1019
71 1042
71 1075
71 1089
71 1117
71 1138
71 1227
71 1283
71 1307
71 1358
71 1396
71 1399
71 1406
71 1442
71 1498
71 1507
71 1584
71 1612
71 1619
71 1653
71 1669
71 1692
71 1722
71 1731
71 1787
71 1799
71 1818
71 1852
71 1875
71 1889
71 1891
71 1910
71 1968
71 1974
71 2034
71 2047
71 2051
71 2052
71 2086
71 2118
71 2129
71 2134
71 2156
71 2165
72 128
72 130
72 132
72 155
72 175
72 194
72 221
72 236
72 255
72 302
72 305
72 352
72 370
72 422
72 426
72 485
72 547
72 608
72 629
72 642
72 644
72 668
72 681
72 761
72 790
72 907
72 960
72 979
72 992
72 1065
72 1083
72 1096
72 1100
72 1103
72 1181
72 1187
72 1226
72 1231
72 1237
72 1264
72 1282
72 1325
72 1329
72 1372
72 1383
72 1419
72 1421
72 1450
72 1453
72 1459
72 1474
72 1482
72 1486
72 1626
72 1670
72 1680
72 1711
72 1743
72 1745
72 1780
72 1806
72 1809
72 1840
72 1885
72 1924
72 1931
72 1985
72 2006
72 2047
72 2131
72 2145
72 2174
72 2189
73 579
73 904
73 1327
73 1550
73 1604
73 1770
74 114
74 124
74 165
74 208
74 222
74 262
74 280
74 281
74 286
74 299
74 313
74 336
74 344
74 360
74 406
74 410
74 419
74 420
74 425
74 429
74 463
74 479
74 486
74 488
74 502
74 514
74 527
74 540
74 557
74 576
74 588
74 594
74 612
74 645
74 656
74 773
74 795
74 827
74 861
74 894
74 900
74 918
74 942
74 965
74 1020
74 1043
74 1053
74 1056
74 1073
74 1117
74 1132
74 1161
74 1180
74 1212
74 1233
74 1238
74 1247
74 1269
74 1322
74 1332
74 1358
74 1364
74 1369
74 1376
74 1391
74 1474
74 1486
74 1492
74 1498
74 1517
74 1518
74 1532
74 1554
74 1596
74 1632
74 1706
74 1837
74 1908
74 1936
74 1980
74 2028
74 2043
74 2127
74 2159
74 2161
74 2175
74 2186
75 85
75 99
75 102
75 114
75 126
75 136
75 149
75 151
75 173
75 176
75 200
75 202
75 203
75 205
75 217
75 220
75 221
75 223
75 230
75 249
75 251
75 254
75 257
75 265
75 275
75 280
75 288
75 310
75 337
75 350
75 366
75 374
75 378
75 381
75 386
75 397
75 405
75 427
75 428
75 446
75 447
75 472
75 517
75 524
75 548
75 576
75 580
75 596
75 607
75 620
75 622
75 643
75 664
75 665
75 705
75 720
75 721
75 722
75 737
75 741
75 780
75 808
75 814
75 826
75 839
75 841
75 844
75 848
75 861
75 862
75 865
75 889
75 890
75 893
75 904
75 908
75 910
75 911
75 914
75 915
75 918
75 937
75 938
75 950
75 969
75 979
75 984
75 991
75 992
75 1015
75 1024
75 1029
75 1038
75 1039
75 1040
75 1046
75 1049
75 1054
75 1056
75 1061
75 1079
75 1084
75 1100
75 1104
75 1111
75 1163
75 1168
75 1189
75 1202
75 1223
75 1230
75 1238
75 1240
75 1242
75 1268
75 1269
75 1273
75 1290
75 1298
75 1310
75 1311
75 1315
75 1316
75 1322
75 1334
75 1349
75 1350
75 1360
75 1370
75 1376
75 1388
75 1421
75 1425
75 1429
75 1430
75 1436
75 1460
75 1473
75 1483
75 1486
75 1491
75 1533
75 1546
75 1567
75 1570
75 1574
75 1580
75 1581
75 1593
75 1634
75 1644
75 1669
75 1677
75 1679
75 1695
75 1706
75 1720
75 1722
75 1730
75 1731
75 1732
75 1753
75 1761
75 1765
75 1768
75 1771
75 1782
75 1797
75 1799
75 1809
75 1813
75 1818
75 1835
75 1848
75 1853
75 1855
75 1857
75 1875
75 1881
75 1883
75 1896
75 1899
75 1901
75 1902
75 1904
75 1917
75 1930
75 1936
75 1940
75 1959
75 1974
75 1982
75 1989
75 1990
75 1995
75 2008
75 2023
75 2036
75 2037
75 2043
75 2052
75 2066
75 2068
75 2069
75 2070
75 2072
75 2081
75 2090
75 2091
75 2100
75 2107
75 2112
75 2121
75 2133
75 2137
75 2147
75 2148
75 2168
75 2171
75 2175
75 2193
75 2194
75 2206
75 2248
76 77
76 81
76 123
76 128
76 164
76 183
76 207
76 229
76 246
76 258
76 281
76 282
76 302
76 305
76 362
76 368
76 370
76 406
76 425
76 441
76 444
76 474
76 481
76 511
76 515
76 516
76 559
76 560
76 577
76 608
76 627
76 648
76 700
76 702
76 708
76 711
76 741
76 778
76 787
76 806
76 872
76 883
76 887
76 890
76 920
76 934
76 937
76 947
76 953
76 989
76 1009
76 1015
76 1029
76 1033
76 1046
76 1065
76 1073
76 1094
76 1103
76 1108
76 1137
76 1169
76 1264
76 1280
76 1283
76 1322
76 1325
76 1367
76 1369
76 1384
76 1394
76 1424
76 1429
76 1431
76 1445
76 1452
76 1464
76 1467
76 1486
76 1489
76 1543
76 1569
76 1579
76 1598
76 1615
76 1619
76 1628
76 1646
76 1658
76 1680
76 1686
76 1697
76 1707
76 1710
76 1735
76 1745
76 1755
76 1783
76 1788
76 1799
76 1800
76 1803
76 1818
76 1850
76 1859
76 1883
76 1889
76 1890
76 1892
76 1903
76 1912
76 1921
76 1939
76 1951
76 1958
76 1974
76 1987
76 2016
76 2023
76 2035
76 2040
76 2049
76 2080
76 2085
76 2089
76 2091
76 2131
76 2132
76 2134
76 2177
76 2188
76 2197
76 2203
76 2216
76 2222
77 81
77 90
77 97
77 120
77 130
77 133
77 164
77 176
77 217
77 232
77 238
77 241
77 246
77 253
77 262
77 266
77 273
77 279
77 281
77 282
77 284
77 294
77 302
77 320
77 327
77 332
77 369
77 394
77 395
77 399
77 415
77 419
77 427
77 430
77 432
77 441
77 455
77 460
77 476
77 479
77 511
77 514
77 525
77 526
77 540
77 545
77 547
77 617
77 627
77 637
77 651
77 656
77 663
77 674
77 677
77 702
77 711
77 723
77 729
77 734
77 741
77 756
77 762
77 784
77 786
77 795
77 802
77 810
77 811
77 824
77 828
77 835
77 867
77 873
77 882
77 888
77 897
77 899
77 904
77 915
77 937
77 941
77 947
77 960
77 971
77 976
77 1000
77 1006
77 1019
77 1020
77 1024
77 1029
77 1033
77 1046
77 1068
77 1100
77 1129
77 1132
77 1141
77 1151
77 1165
77 1218
77 1227
77 1280
77 1283
77 1285
77 1318
77 1322
77 1345
77 1346
77 1358
77 1361
77 1395
77 1406
77 1413
77 1414
77 1416
77 1437
77 1441
77 1443
77 1475
77 1498
77 1503
77 1517
77 1522
77 1527
77 1540
77 1554
77 1564
77 1575
77 1578
77 1584
77 1589
77 1596
77 1603
77 1612
77 1619
77 1630
77 1637
77 1653
77 1692
77 1711
77 1719
77 1722
77 1726
77 1735
77 1739
77 1745
77 1775
77 1787
77 1792
77 1796
77 1799
77 1818
77 1819
77 1825
77 1849
77 1852
77 1859
77 1888
77 1889
77 1891
77 1903
77 1908
77 1910
77 1964
77 1968
77 2043
77 2047
77 2055
77 2074
77 2077
77 2089
77 2091
77 2098
77 2099
77 2127
77 2134
77 2147
77 2156
77 2157
77 2203
77 2208
77 2234
77 2235
77 2244
78 81
78 83
78 87
78 160
78 186
78 219
78 220
78 225
78 267
78 281
78 294
78 310
78 314
78 391
78 486
78 505
78 511
78 516
78 518
78 559
78 569
78 576
78 607
78 610
78 738
78 741
78 867
78 872
78 898
78 900
78 954
78 981
78 1046
78 1048
78 1063
78 1129
78 1144
78 1169
78 1195
78 1207
78 1235
78 1274
78 1298
78 1305
78 1307
78 1311
78 1322
78 1353
78 1358
78 1377
78 1410
78 1442
78 1444
78 1460
78 1474
78 1489
78 1492
78 1514
78 1554
78 1569
78 1581
78 1611
78 1654
78 1669
78 1694
78 1704
78 1730
78 1761
78 1768
78 1769
78 1772
78 1805
78 1807
78 1818
78 1852
78 1859
78 1883
78 1885
78 1908
78 1909
78 1960
78 1985
78 2006
78 2033
78 2072
78 2074
78 2077
78 2142
78 2156
78 2165
78 2167
78 2195
78 2222
79 90
79 148
79 171
79 302
79 309
79 413
79 432
79 512
79 573
79 642
79 741
79 844
79 845
79 848
79 948
79 966
79 967
79 985
79 1015
79 1081
79 1100
79 1139
79 1152
79 1160
79 1178
79 1218
79 1222
79 1227
79 1298
79 1351
79 1393
79 1394
79 1438
79 1442
79 1571
79 1626
79 1651
79 1731
79 1739
79 1796
79 1799
79 1822
79 1850
79 1889
79 1892
79 1937
79 1950
79 1972
79 1983
79 2085
79 2094
79 2115
79 2123
79 2141
79 2179
79 2189
80 555
80 885
81 123
81 160
81 206
81 207
81 225
81 415
81 505
81 559
81 603
81 648
81 700
81 731
81 887
81 890
81 934
81 937
81 953
81 1048
81 1065
81 1073
81 1103
81 1245
81 1264
81 1274
81 1369
81 1470
81 1474
81 1560
81 1581
81 1669
81 1755
81 1800
81 1828
81 1859
81 1885
81 1903
81 1912
81 2074
81 2077
81 2156
81 2165
81 2197
81 2203
81 2222
82 147
82 165
82 166
82 193
82 208
82 238
82 266
82 285
82 328
82 556
82 565
82 594
82 609
82 610
82 626
82 631
82 647
82 666
82 727
82 755
82 772
82 778
82 783
82 786
82 799
82 828
82 844
82 845
82 865
82 878
82 916
82 924
82 1021
82 1130
82 1296
82 1365
82 1408
82 1443
82 1459
82 1468
82 1483
82 1497
82 1499
82 1706
82 1768
82 1853
82 1862
82 1878
82 1908
82 1932
82 1948
82 2006
82 2009
82 2181
82 2230
82 2248
83 87
83 102
83 123
83 128
83 149
83 176
83 203
83 213
83 220
83 267
83 275
83 281
83 310
83 364
83 414
83 421
83 446
83 447
83 465
83 536
83 553
83 576
83 607
83 621
83 622
83 643
83 646
83 653
83 689
83 697
83 705
83 737
83 762
83 844
83 847
83 848
83 889
83 902
83 937
83 983
83 1008
83 1029
83 1054
83 1059
83 1066
83 1073
83 1084
83 1089
83 1104
83 1111
83 1119
83 1155
83 1242
83 1268
83 1290
83 1298
83 1305
83 1311
83 1334
83 1339
83 1353
83 1411
83 1421
83 1430
83 1431
83 1444
83 1483
83 1489
83 1538
83 1558
83 1593
83 1605
83 1612
83 1642
83 1643
83 1654
83 1656
83 1718
83 1730
83 1755
83 1761
83 1797
83 1805
83 1809
83 1813
83 1818
83 1863
83 1866
83 1877
83 1883
83 1901
83 1902
83 1909
83 1916
83 1923
83 1940
83 1962
83 1995
83 2002
83 2009
83 2037
83 2065
83 2069
83 2087
83 2100
83 2104
83 2160
83 2166
83 2173
83 2206
84 87
84 99
84 123
84 129
84 130
84 149
84 176
84 215
84 223
84 231
84 297
84 302
84 305
84 308
84 312
84 333
84 340
84 350
84 353
84 364
84 372
84 374
84 389
84 397
84 400
84 408
84 424
84 465
84 466
84 476
84 480
84 503
84 531
84 533
84 556
84 569
84 576
84 580
84 607
84 622
84 646
84 653
84 665
84 679
84 682
84 696
84 702
84 712
84 776
84 780
84 806
84 818
84 819
84 825
84 832
84 844
84 847
84 848
84 852
84 862
84 865
84 893
84 905
84 922
84 937
84 969
84 983
84 1029
84 1030
84 1038
84 1054
84 1062
84 1066
84 1068
84 1073
84 1079
84 1097
84 1104
84 1112
84 1113
84 1119
84 1155
84 1182
84 1200
84 1223
84 1240
84 1244
84 1288
84 1334
84 1354
84 1374
84 1376
84 1388
84 1410
84 1425
84 1456
84 1483
84 1486
84 1512
84 1566
84 1593
84 1634
84 1642
84 1643
84 1656
84 1679
84 1703
84 1704
84 1706
84 1720
84 1723
84 1747
84 1799
84 1802
84 1804
84 1818
84 1848
84 1890
84 1902
84 1923
84 1949
84 1959
84 1962
84 1977
84 1995
84 2036
84 2042
84 2065
84 2066
84 2069
84 2100
84 2160
84 2168
84 2190
84 2200
84 2206
84 2246
84 2248
85 104
85 122
85 146
85 283
85 908
85 914
85 1027
85 1236
85 1409
85 1491
85 1582
85 1585
85 1833
85 1879
85 2009
85 2075
85 2078
86 90
86 124
86 140
86 160
86 189
86 273
86 324
86 368
86 405
86 452
86 498
86 579
86 593
86 702
86 740
86 741
86 872
86 878
86 987
86 1019
86 1143
86 1152
86 1179
86 1218
86 1283
86 1425
86 1629
86 1651
86 1656
86 1722
86 1731
86 1799
86 1849
86 1881
86 1889
86 1892
86 1920
86 1950
86 1972
86 1974
86 1983
86 2008
86 2047
86 2055
86 2089
86 2115
86 2134
87 93
87 136
87 149
87 174
87 203
87 213
87 220
87 246
87 257
87 262
87 265
87 267
87 281
87 308
87 331
87 353
87 364
87 368
87 377
87 381
87 397
87 400
87 446
87 465
87 503
87 522
87 553
87 556
87 567
87 569
87 574
87 599
87 607
87 622
87 653
87 705
87 712
87 780
87 818
87 819
87 825
87 832
87 844
87 847
87 848
87 862
87 866
87 889
87 902
87 906
87 937
87 1008
87 1020
87 1029
87 1033
87 1054
87 1066
87 1073
87 1089
87 1104
87 1107
87 1111
87 1113
87 1119
87 1155
87 1176
87 1191
87 1212
87 1268
87 1290
87 1298
87 1311
87 1322
87 1324
87 1334
87 1353
87 1355
87 1358
87 1384
87 1406
87 1421
87 1425
87 1456
87 1460
87 1488
87 1491
87 1501
87 1504
87 1510
87 1564
87 1593
87 1625
87 1654
87 1656
87 1657
87 1671
87 1718
87 1730
87 1747
87 1755
87 1756
87 1772
87 1809
87 1818
87 1866
87 1901
87 1902
87 1908
87 1909
87 1923
87 1929
87 1930
87 1940
87 1949
87 1959
87 1995
87 2009
87 2042
87 2065
87 2069
87 2087
87 2100
87 2104
87 2108
87 2127
87 2134
87 2162
87 2197
87 2202
87 2206
87 2219
87 2231
87 2233
87 2248
88 104
88 106
88 137
88 200
88 233
88 274
88 314
88 330
88 390
88 397
88 423
88 450
88 454
88 492
88 551
88 571
88 576
88 595
88 601
88 602
88 604
88 673
88 751
88 822
88 956
88 972
88 1012
88 1032
88 1034
88 1072
88 1163
88 1184
88 1263
88 1275
88 1306
88 1315
88 1330
88 1381
88 1386
88 1567
88 1672
88 1685
88 1978
88 2002
88 2060
88 2061
88 2075
88 2207
88 2217
88 2238
89 91
89 132
89 240
89 306
89 329
89 398
89 441
89 460
89 579
89 749
89 996
89 1083
89 1171
89 1228
89 1359
89 1361
89 1390
89 1537
89 1727
89 1775
89 2032
89 2151
90 132
90 148
90 155
90 171
90 180
90 194
90 208
90 214
90 221
90 225
90 258
90 269
90 272
90 273
90 286
90 300
90 309
90 324
90 356
90 405
90 416
90 419
90 422
90 425
90 442
90 443
90 479
90 487
90 493
90 512
90 517
90 521
90 547
90 552
90 560
90 573
90 587
90 593
90 600
90 628
90 656
90 702
90 740
90 765
90 810
90 818
90 869
90 892
90 896
90 901
90 966
90 967
90 979
90 981
90 987
90 1005
90 1015
90 1042
90 1063
90 1065
90 1067
90 1081
90 1100
90 1106
90 1136
90 1137
90 1139
90 1152
90 1154
90 1160
90 1171
90 1178
90 1226
90 1229
90 1239
90 1241
90 1245
90 1251
90 1264
90 1300
90 1307
90 1309
90 1372
90 1393
90 1394
90 1428
90 1432
90 1438
90 1442
90 1453
90 1459
90 1486
90 1489
90 1527
90 1549
90 1569
90 1572
90 1576
90 1596
90 1603
90 1626
90 1628
90 1647
90 1658
90 1731
90 1739
90 1746
90 1759
90 1762
90 1769
90 1794
90 1797
90 1799
90 1801
90 1822
90 1850
90 1881
90 1885
90 1889
90 1932
90 1938
90 1950
90 1960
90 1972
90 1983
90 2031
90 2041
90 2047
90 2083
90 2089
90 2094
90 2096
90 2111
90 2115
90 2116
90 2123
90 2141
90 2170
90 2175
90 2179
90 2186
90 2189
90 2201
91 132
91 157
91 164
91 282
91 398
91 441
91 460
91 579
91 629
91 634
91 904
91 996
91 1004
91 1015
91 1099
91 1171
91 1338
91 1398
91 1476
91 1534
91 1594
91 1727
91 1775
91 2031
91 2085
91 2134
91 2241
92 95
92 104
92 170
92 274
92 292
92 411
92 475
92 484
92 495
92 497
92 519
92 550
92 551
92 595
92 619
92 621
92 623
92 640
92 691
92 704
92 714
92 793
92 875
92 912
92 978
92 1034
92 1045
92 1050
92 1074
92 1082
92 1095
92 1101
92 1110
92 1148
92 1162
92 1206
92 1254
92 1262
92 1326
92 1340
92 1341
92 1373
92 1411
92 1620
92 1644
92 1648
92 1668
92 1687
92 1724
92 1784
92 1833
92 1907
92 1915
92 1946
92 1973
92 2040
92 2061
92 2063
92 2075
92 2112
92 2211
92 2237
93 128
93 250
93 281
93 313
93 316
93 377
93 563
93 656
93 712
93 720
93 795
93 924
93 954
93 960
93 1050
93 1142
93 1322
93 1358
93 1406
93 1460
93 1504
93 1518
93 1720
93 1746
93 1747
93 1755
93 1768
93 1783
93 1866
93 2086
93 2127
93 2161
93 2198
94 124
94 130
94 179
94 186
94 197
94 211
94 219
94 221
94 222
94 229
94 237
94 257
94 258
94 259
94 280
94 286
94 291
94 295
94 313
94 334
94 344
94 377
94 391
94 406
94 410
94 418
94 419
94 424
94 433
94 441
94 447
94 455
94 472
94 473
94 479
94 504
94 510
94 516
94 525
94 529
94 560
94 568
94 579
94 588
94 594
94 595
94 610
94 617
94 641
94 643
94 645
94 684
94 713
94 736
94 738
94 741
94 746
94 760
94 785
94 794
94 795
94 797
94 827
94 846
94 855
94 873
94 880
94 894
94 895
94 900
94 920
94 924
94 935
94 938
94 954
94 957
94 1000
94 1006
94 1019
94 1043
94 1057
94 1089
94 1117
94 1120
94 1129
94 1151
94 1154
94 1155
94 1158
94 1196
94 1212
94 1220
94 1233
94 1235
94 1238
94 1242
94 1247
94 1255
94 1268
94 1269
94 1276
94 1283
94 1301
94 1314
94 1318
94 1322
94 1338
94 1349
94 1361
94 1370
94 1385
94 1393
94 1397
94 1414
94 1420
94 1426
94 1446
94 1450
94 1454
94 1461
94 1463
94 1469
94 1474
94 1478
94 1480
94 1486
94 1492
94 1498
94 1504
94 1518
94 1520
94 1538
94 1540
94 1541
94 1554
94 1569
94 1584
94 1587
94 1607
94 1658
94 1700
94 1743
94 1745
94 1746
94 1765
94 1795
94 1799
94 1818
94 1838
94 1871
94 1881
94 1910
94 1920
94 1942
94 1960
94 1962
94 1974
94 1994
94 2003
94 2010
94 2028
94 2037
94 2043
94 2046
94 2051
94 2068
94 2071
94 2073
94 2074
94 2085
94 2091
94 2099
94 2104
94 2107
94 2118
94 2147
94 2158
94 2159
94 2161
94 2175
94 2186
94 2195
94 2202
94 2217
94 2233
95 104
95 274
95 292
95 353
95 387
95 475
95 492
95 495
95 497
95 508
95 509
95 519
95 550
95 571
95 583
95 623
95 640
95 658
95 714
95 774
95 779
95 782
95 875
95 912
95 978
95 1045
95 1050
95 1068
95 1072
95 1148
95 1162
95 1163
95 1166
95 1190
95 1203
95 1252
95 1254
95 1315
95 1326
95 1373
95 1379
95 1386
95 1491
95 1494
95 1539
95 1542
95 1551
95 1561
95 1595
95 1634
95 1636
95 1648
95 1687
95 1784
95 1833
95 1907
95 1945
95 1973
95 1977
95 1995
95 2045
95 2058
95 2075
95 2210
95 2211
95 2221
95 2227
95 2237
95 2244
96 699
96 971
96 1266
97 130
97 133
97 165
97 189
97 194
97 219
97 278
97 279
97 281
97 308
97 316
97 320
97 326
97 344
97 399
97 406
97 419
97 438
97 460
97 510
97 514
97 526
97 529
97 537
97 552
97 553
97 567
97 587
97 603
97 606
97 627
97 637
97 649
97 682
97 696
97 702
97 712
97 731
97 746
97 773
97 797
97 806
97 819
97 847
97 859
97 872
97 873
97 894
97 898
97 900
97 905
97 923
97 960
97 965
97 971
97 976
97 981
97 1006
97 1017
97 1029
97 1033
97 1066
97 1067
97 1137
97 1154
97 1155
97 1168
97 1180
97 1207
97 1227
97 1235
97 1268
97 1285
97 1307
97 1312
97 1325
97 1346
97 1355
97 1363
97 1370
97 1393
97 1394
97 1413
97 1425
97 1441
97 1469
97 1488
97 1489
97 1538
97 1554
97 1584
97 1643
97 1716
97 1722
97 1738
97 1754
97 1769
97 1789
97 1799
97 1818
97 1870
97 1878
97 1885
97 1889
97 1904
97 1964
97 1974
97 1975
97 2008
97 2029
97 2047
97 2065
97 2086
97 2089
97 2097
97 2099
97 2110
97 2134
97 2173
97 2190
97 2204
97 2206
97 2246
98 128
98 179
98 194
98 238
98 297
98 308
98 328
98 352
98 406
98 411
98 437
98 493
98 528
98 538
98 565
98 575
98 581
98 609
98 610
98 628
98 647
98 653
98 666
98 678
98 679
98 725
98 794
98 798
98 832
98 839
98 843
98 852
98 869
98 913
98 924
98 951
98 970
98 979
98 983
98 990
98 1009
98 1071
98 1088
98 1147
98 1164
98 1173
98 1258
98 1262
98 1269
98 1274
98 1279
98 1296
98 1340
98 1362
98 1365
98 1382
98 1463
98 1468
98 1482
98 1499
98 1512
98 1526
98 1558
98 1591
98 1605
98 1612
98 1662
98 1673
98 1713
98 1721
98 1768
98 1788
98 1795
98 1832
98 1840
98 1872
98 1934
98 1963
98 1969
98 1977
98 1989
98 2040
98 2050
98 2063
98 2070
98 2103
98 2146
98 2153
98 2193
98 2246
99 149
99 194
99 195
99 202
99 241
99 275
99 331
99 384
99 397
99 403
99 447
99 535
99 591
99 612
99 620
99 643
99 649
99 699
99 797
99 852
99 881
99 893
99 937
99 938
99 1018
99 1035
99 1046
99 1057
99 1092
99 1104
99 1128
99 1191
99 1242
99 1339
99 1360
99 1385
99 1486
99 1564
99 1567
99 1612
99 1659
99 1679
99 1702
99 1706
99 1708
99 1718
99 1824
99 1870
99 1894
99 1922
99 1942
99 1958
99 1964
99 2015
99 2036
99 2043
99 2091
99 2137
99 2148
99 2171
99 2173
99 2204
99 2206
100 155
100 175
100 305
100 348
100 354
100 357
100 445
100 515
100 650
100 690
100 694
100 727
100 747
100 781
100 816
100 844
100 878
100 985
100 1036
100 1047
100 1086
100 1096
100 1099
100 1126
100 1150
100 1160
100 1164
100 1167
100 1297
100 1325
100 1348
100 1359
100 1400
100 1402
100 1452
100 1662
100 1779
100 1788
100 1872
100 1960
100 2032
100 2124
100 2125
100 2218
100 2228
101 292
101 303
101 313
101 359
101 519
101 550
101 562
101 622
101 774
101 1034
101 1166
101 1315
101 1326
101 1330
101 1341
101 1427
101 1491
101 1552
101 1573
101 1625
101 1648
101 1753
101 1764
101 1833
101 1907
101 2075
101 2105
101 2224
102 130
102 149
102 294
102 316
102 414
102 418
102 424
102 450
102 478
102 505
102 569
102 580
102 610
102 642
102 647
102 678
102 687
102 783
102 786
102 865
102 873
102 894
102 895
102 979
102 1009
102 1029
102 1104
102 1169
102 1212
102 1220
102 1225
102 1249
102 1267
102 1277
102 1292
102 1307
102 1329
102 1346
102 1408
102 1420
102 1425
102 1434
102 1443
102 1452
102 1554
102 1616
102 1639
102 1645
102 1647
102 1726
102 1736
102 1746
102 1791
102 1799
102 1801
102 1802
102 1818
102 1849
102 1853
102 1878
102 1919
102 1975
102 2010
102 2038
102 2173
103 123
103 144
103 188
103 198
103 207
103 208
103 246
103 276
103 286
103 294
103 331
103 402
103 474
103 481
103 569
103 577
103 596
103 609
103 622
103 648
103 653
103 700
103 712
103 731
103 806
103 812
103 831
103 832
103 847
103 883
103 886
103 889
103 890
103 934
103 937
103 947
103 953
103 955
103 958
103 1008
103 1029
103 1030
103 1065
103 1066
103 1073
103 1094
103 1107
103 1118
103 1174
103 1176
103 1235
103 1246
103 1267
103 1316
103 1337
103 1355
103 1384
103 1413
103 1420
103 1424
103 1431
103 1461
103 1470
103 1506
103 1510
103 1511
103 1579
103 1622
103 1629
103 1643
103 1681
103 1704
103 1750
103 1755
103 1763
103 1818
103 1828
103 1837
103 1847
103 1859
103 1866
103 1883
103 1890
103 1899
103 1903
103 1904
103 1912
103 1938
103 1949
103 1955
103 1987
103 2023
103 2052
103 2056
103 2083
103 2085
103 2087
103 2132
103 2142
103 2162
103 2175
103 2197
103 2243
103 2246
103 2248
104 122
104 186
104 247
104 262
104 274
104 292
104 335
104 363
104 411
104 492
104 495
104 509
104 519
104 551
104 595
104 621
104 640
104 682
104 750
104 751
104 766
104 779
104 815
104 822
104 854
104 875
104 884
104 908
104 912
104 950
104 965
104 978
104 1012
104 1014
104 1034
104 1045
104 1050
104 1082
104 1123
104 1174
104 1194
104 1196
104 1232
104 1244
104 1254
104 1315
104 1319
104 1326
104 1330
104 1373
104 1381
104 1386
104 1423
104 1477
104 1491
104 1509
104 1531
104 1542
104 1551
104 1561
104 1563
104 1595
104 1620
104 1621
104 1636
104 1644
104 1668
104 1676
104 1685
104 1687
104 1698
104 1753
104 1784
104 1805
104 1821
104 1833
104 1841
104 1873
104 1884
104 1907
104 1915
104 1967
104 2014
104 2017
104 2044
104 2060
104 2075
104 2078
104 2105
104 2178
104 2207
104 2210
104 2223
104 2242
104 2247
105 282
105 398
105 441
105 452
105 460
105 579
105 749
105 952
105 1083
105 1389
105 1396
105 1398
105 1489
105 1649
106 200
106 205
106 228
106 397
106 450
106 576
106 583
106 721
106 1032
106 1166
106 1263
106 1275
106 1386
106 1427
106 1535
106 1856
106 1907
106 2184
107 253
107 282
107 417
107 472
107 542
107 643
107 729
107 961
107 976
107 984
107 1009
107 1044
107 1100
107 1382
107 1409
107 1503
107 1589
107 1613
107 1628
107 1646
107 1752
107 2012
107 2117
108 114
108 170
108 271
108 475
108 497
108 1123
108 1214
108 1252
108 1263
108 1275
108 1315
108 1386
108 1684
108 1945
108 1946
108 2135
108 2149
108 2171
108 2178
108 2237
109 180
109 185
109 245
109 277
109 339
109 348
109 357
109 506
109 650
109 733
109 745
109 748
109 816
109 829
109 834
109 878
109 988
109 1099
109 1116
109 1126
109 1167
109 1336
109 1347
109 1359
109 1400
109 1402
109 1405
109 1556
109 1596
109 1633
109 1647
109 1790
109 1994
109 2024
109 2032
109 2035
109 2136
109 2192
110 197
110 216
110 316
110 327
110 344
110 430
110 510
110 539
110 579
110 723
110 835
110 873
110 894
110 941
110 1019
110 1075
110 1180
110 1222
110 1235
110 1251
110 1283
110 1393
110 1414
110 1467
110 1722
110 1783
110 1794
110 1795
110 1799
110 1825
110 1891
110 2021
110 2048
110 2101
110 2143
111 129
111 219
111 302
111 710
111 726
111 902
111 944
111 1048
111 1089
111 1196
111 1207
111 1222
111 1235
111 1239
111 1283
111 1338
111 1414
111 1441
111 1453
111 1472
111 1489
111 1569
111 1592
111 1769
111 1783
111 1885
111 1960
111 2029
111 2074
111 2102
111 2107
111 2118
111 2201
112 118
112 158
112 274
112 292
112 412
112 449
112 495
112 558
112 601
112 638
112 704
112 753
112 779
112 811
112 817
112 870
112 958
112 978
112 1007
112 1206
112 1275
112 1386
112 1411
112 1423
112 1538
112 1551
112 1553
112 1563
112 1621
112 1668
112 1685
112 1712
112 1784
112 1999
112 2130
112 2152
112 2172
112 2223
112 2237
112 2240
112 2242
113 129
113 142
113 310
113 316
113 358
113 406
113 461
113 501
113 535
113 541
113 561
113 612
113 620
113 737
113 847
113 861
113 899
113 938
113 1026
113 1029
113 1055
113 1066
113 1232
113 1376
113 1431
113 1501
113 1512
113 1883
113 1925
113 1936
113 2072
113 2091
113 2171
113 2185
113 2187
114 165
114 167
114 168
114 170
114 173
114 208
114 215
114 257
114 262
114 271
114 282
114 288
114 301
114 302
114 313
114 334
114 353
114 358
114 405
114 410
114 418
114 419
114 435
114 446
114 476
114 480
114 488
114 503
114 541
114 552
114 576
114 612
114 622
114 625
114 643
114 656
114 705
114 712
114 740
114 743
114 776
114 848
114 861
114 865
114 893
114 906
114 919
114 923
114 924
114 938
114 940
114 954
114 969
114 1008
114 1029
114 1030
114 1043
114 1046
114 1059
114 1064
114 1066
114 1073
114 1089
114 1100
114 1123
114 1128
114 1132
114 1142
114 1158
114 1161
114 1182
114 1214
114 1241
114 1244
114 1253
114 1267
114 1269
114 1272
114 1289
114 1305
114 1314
114 1322
114 1346
114 1369
114 1376
114 1384
114 1429
114 1442
114 1470
114 1511
114 1513
114 1518
114 1532
114 1541
114 1564
114 1593
114 1596
114 1625
114 1647
114 1681
114 1684
114 1706
114 1726
114 1748
114 1751
114 1753
114 1756
114 1802
114 1805
114 1818
114 1819
114 1837
114 1846
114 1859
114 1863
114 1883
114 1892
114 1903
114 1904
114 1908
114 1916
114 1936
114 1946
114 1947
114 1949
114 1955
114 1959
114 1993
114 2001
114 2008
114 2026
114 2036
114 2037
114 2046
114 2063
114 2069
114 2072
114 2134
114 2166
114 2168
114 2175
114 2178
114 2186
114 2189
114 2206
114 2219
114 2233
115 149
115 221
115 332
115 472
115 473
115 643
115 938
115 1009
115 1028
115 1100
115 1103
115 1104
115 1119
115 1277
115 1317
115 1409
115 1434
115 1510
115 1545
115 1813
115 1818
115 1835
115 1948
115 2009
115 2133
115 2148
116 132
116 140
116 148
116 187
116 205
116 211
116 217
116 251
116 281
116 286
116 308
116 316
116 323
116 325
116 332
116 348
116 413
116 472
116 478
116 490
116 494
116 536
116 579
116 624
116 641
116 643
116 655
116 737
116 760
116 846
116 858
116 873
116 880
116 923
116 942
116 957
116 961
116 980
116 1006
116 1009
116 1044
116 1056
116 1058
116 1081
116 1100
116 1103
116 1107
116 1108
116 1119
116 1137
116 1216
116 1221
116 1230
116 1277
116 1283
116 1338
116 1346
116 1349
116 1390
116 1409
116 1414
116 1421
116 1434
116 1464
116 1487
116 1565
116 1572
116 1589
116 1600
116 1607
116 1628
116 1653
116 1688
116 1700
116 1744
116 1746
116 1749
116 1774
116 1783
116 1790
116 1794
116 1796
116 1801
116 1813
116 1818
116 1850
116 1855
116 1863
116 1876
116 1908
116 1935
116 1951
116 1974
116 2012
116 2029
116 2107
116 2118
116 2121
116 2136
116 2166
116 2188
116 2205
116 2241
117 130
117 175
117 176
117 179
117 197
117 221
117 278
117 297
117 406
117 438
117 517
117 521
117 541
117 567
117 575
117 582
117 678
117 681
117 723
117 734
117 765
117 777
117 778
117 783
117 826
117 843
117 847
117 869
117 892
117 905
117 913
117 918
117 923
117 953
117 979
117 990
117 1006
117 1019
117 1071
117 1086
117 1133
117 1187
117 1200
117 1237
117 1249
117 1258
117 1262
117 1274
117 1325
117 1340
117 1368
117 1390
117 1399
117 1404
117 1408
117 1413
117 1418
117 1419
117 1459
117 1468
117 1476
117 1507
117 1526
117 1571
117 1576
117 1584
117 1638
117 1645
117 1662
117 1664
117 1665
117 1673
117 1679
117 1700
117 1704
117 1754
117 1782
117 1788
117 1799
117 1801
117 1802
117 1803
117 1812
117 1817
117 1850
117 1853
117 1895
117 1930
117 1931
117 1969
117 2038
117 2053
117 2063
117 2080
117 2116
117 2129
117 2151
117 2153
117 2189
117 2193
117 2230
118 274
118 691
118 753
118 811
118 837
118 1214
118 1275
118 1315
118 1386
118 1451
118 1491
118 1509
118 1548
118 1672
118 1676
118 1714
118 1839
118 1900
118 1943
118 1971
118 2075
118 2130
118 2210
118 2240
119 702
120 132
120 160
120 223
120 225
120 232
120 253
120 286
120 309
120 399
120 406
120 438
120 472
120 473
120 486
120 525
120 610
120 677
120 712
120 723
120 765
120 771
120 773
120 811
120 825
120 835
120 838
120 848
120 905
120 938
120 996
120 1000
120 1046
120 1066
120 1106
120 1129
120 1154
120 1218
120 1312
120 1342
120 1375
120 1380
120 1441
120 1474
120 1486
120 1488
120 1575
120 1611
120 1739
120 1747
120 1799
120 1818
120 1849
120 1852
120 1859
120 1866
120 1949
120 2065
120 2074
120 2077
120 2156
120 2175
120 2197
120 2200
121 130
121 140
121 211
121 277
121 510
121 579
121 710
121 838
121 1037
121 1136
121 1372
121 1433
121 1974
121 2099
122 161
122 186
122 363
122 435
122 492
122 497
122 519
122 562
122 675
122 815
122 822
122 903
122 908
122 972
122 1123
122 1196
122 1206
122 1287
122 1305
122 1319
122 1373
122 1477
122 1502
122 1582
122 1614
122 1676
122 1698
122 1833
122 1873
122 1879
122 2044
122 2075
122 2078
122 2112
122 2211
122 2244
123 183
123 207
123 208
123 213
123 221
123 229
123 246
123 254
123 267
123 285
123 294
123 297
123 305
123 308
123 331
123 353
123 368
123 372
123 384
123 388
123 414
123 473
123 474
123 533
123 552
123 559
123 577
123 580
123 610
123 627
123 631
123 643
123 648
123 665
123 700
123 716
123 731
123 786
123 806
123 825
123 844
123 847
123 848
123 865
123 883
123 889
123 890
123 905
123 917
123 920
123 934
123 937
123 947
123 953
123 987
123 1008
123 1029
123 1030
123 1065
123 1066
123 1068
123 1073
123 1075
123 1094
123 1097
123 1145
123 1200
123 1227
123 1241
123 1249
123 1288
123 1322
123 1324
123 1334
123 1355
123 1367
123 1384
123 1408
123 1421
123 1424
123 1425
123 1429
123 1431
123 1456
123 1470
123 1506
123 1511
123 1538
123 1579
123 1643
123 1668
123 1679
123 1721
123 1747
123 1755
123 1763
123 1799
123 1818
123 1828
123 1832
123 1837
123 1859
123 1863
123 1865
123 1890
123 1892
123 1902
123 1903
123 1912
123 1940
123 1949
123 1987
123 1995
123 2023
123 2065
123 2072
123 2080
123 2100
123 2133
123 2162
123 2169
123 2175
123 2177
123 2190
123 2197
123 2200
123 2202
123 2222
123 2248
124 130
124 151
124 160
124 189
124 203
124 262
124 273
124 281
124 284
124 295
124 313
124 326
124 344
124 352
124 370
124 406
124 410
124 418
124 429
124 463
124 474
124 479
124 498
124 500
124 507
124 510
124 537
124 552
124 557
124 579
124 586
124 603
124 635
124 649
124 656
124 713
124 734
124 741
124 767
124 771
124 773
124 785
124 795
124 798
124 825
124 872
124 873
124 894
124 900
124 922
124 924
124 938
124 940
124 965
124 976
124 979
124 1017
124 1019
124 1033
124 1043
124 1063
124 1066
124 1117
124 1118
124 1121
124 1147
124 1154
124 1161
124 1169
124 1173
124 1174
124 1180
124 1204
124 1238
124 1246
124 1247
124 1268
124 1312
124 1316
124 1318
124 1322
124 1332
124 1358
124 1364
124 1382
124 1419
124 1420
124 1425
124 1443
124 1463
124 1474
124 1486
124 1488
124 1492
124 1522
124 1538
124 1554
124 1579
124 1616
124 1639
124 1647
124 1694
124 1716
124 1736
124 1754
124 1761
124 1802
124 1818
124 1820
124 1832
124 1838
124 1849
124 1853
124 1908
124 1934
124 2008
124 2010
124 2026
124 2029
124 2050
124 2099
124 2104
124 2127
124 2139
124 2167
124 2175
124 2176
124 2181
124 2186
124 2191
124 2206
124 2209
124 2232
125 152
125 274
125 404
125 619
125 691
125 912
125 978
125 1271
125 1643
125 1668
125 1687
125 1813
125 1884
125 1900
125 1916
125 1931
125 1955
125 2135
126 215
126 223
126 254
126 265
126 353
126 378
126 400
126 446
126 485
126 569
126 646
126 679
126 689
126 712
126 788
126 812
126 844
126 847
126 865
126 893
126 906
126 969
126 983
126 1008
126 1029
126 1055
126 1062
126 1066
126 1079
126 1182
126 1240
126 1388
126 1410
126 1430
126 1436
126 1483
126 1512
126 1642
126 1695
126 1723
126 1747
126 1765
126 1809
126 1818
126 1866
126 1962
126 1995
126 2010
126 2042
126 2100
126 2146
126 2190
127 281
127 500
127 579
127 1212
127 1253
127 1332
127 1358
127 1554
127 1625
127 1658
127 1818
127 1920
127 2051
127 2127
127 2231
128 165
128 176
128 263
128 282
128 287
128 301
128 328
128 332
128 402
128 410
128 424
128 469
128 472
128 483
128 486
128 505
128 528
128 541
128 565
128 577
128 609
128 625
128 715
128 769
128 776
128 783
128 801
128 880
128 882
128 905
128 913
128 938
128 941
128 979
128 992
128 1000
128 1009
128 1010
128 1020
128 1078
128 1088
128 1103
128 1124
128 1125
128 1130
128 1142
128 1173
128 1230
128 1236
128 1237
128 1244
128 1249
128 1296
128 1365
128 1369
128 1391
128 1434
128 1450
128 1499
128 1584
128 1616
128 1647
128 1658
128 1701
128 1713
128 1736
128 1768
128 1795
128 1799
128 1802
128 1810
128 1812
128 1818
128 1853
128 1893
128 1908
128 1947
128 1963
128 2009
128 2010
128 2050
128 2070
128 2163
128 2176
128 2186
128 2232
128 2246
129 142
129 148
129 190
129 202
129 203
129 220
129 229
129 230
129 244
129 257
129 258
129 275
129 287
129 325
129 333
129 381
129 395
129 397
129 419
129 425
129 446
129 461
129 462
129 476
129 501
129 503
129 524
129 561
129 576
129 577
129 578
129 599
129 607
129 612
129 620
129 631
129 643
129 646
129 648
129 697
129 737
129 762
129 831
129 866
129 868
129 871
129 874
129 895
129 949
129 1018
129 1029
129 1054
129 1057
129 1073
129 1089
129 1104
129 1109
129 1111
129 1112
129 1151
129 1154
129 1238
129 1241
129 1242
129 1253
129 1283
129 1339
129 1353
129 1355
129 1356
129 1361
129 1364
129 1370
129 1376
129 1385
129 1393
129 1396
129 1397
129 1431
129 1554
129 1564
129 1570
129 1575
129 1591
129 1612
129 1645
129 1651
129 1653
129 1671
129 1718
129 1720
129 1747
129 1805
129 1818
129 1824
129 1878
129 1942
129 1962
129 1974
129 2043
129 2069
129 2085
129 2090
129 2091
129 2102
129 2137
129 2160
129 2166
129 2185
129 2231
129 2236
129 2249
130 132
130 139
130 140
130 153
130 160
130 168
130 171
130 189
130 194
130 201
130 204
130 219
130 223
130 237
130 240
130 259
130 269
130 273
130 279
130 282
130 284
130 291
130 294
130 302
130 308
130 309
130 320
130 347
130 369
130 379
130 394
130 398
130 399
130 405
130 407
130 410
130 416
130 419
130 425
130 427
130 428
130 430
130 454
130 456
130 474
130 517
130 522
130 529
130 536
130 542
130 547
130 560
130 579
130 584
130 587
130 592
130 593
130 603
130 606
130 614
130 629
130 632
130 633
130 639
130 649
130 651
130 655
130 680
130 681
130 702
130 706
130 729
130 731
130 740
130 741
130 768
130 773
130 787
130 794
130 797
130 811
130 824
130 826
130 847
130 872
130 891
130 894
130 898
130 900
130 902
130 918
130 923
130 962
130 971
130 976
130 981
130 990
130 1005
130 1006
130 1015
130 1017
130 1028
130 1033
130 1046
130 1056
130 1061
130 1063
130 1088
130 1100
130 1102
130 1103
130 1122
130 1133
130 1154
130 1159
130 1164
130 1169
130 1204
130 1211
130 1212
130 1218
130 1220
130 1222
130 1235
130 1241
130 1251
130 1264
130 1285
130 1299
130 1309
130 1324
130 1329
130 1345
130 1346
130 1355
130 1359
130 1375
130 1389
130 1391
130 1393
130 1413
130 1420
130 1425
130 1426
130 1450
130 1452
130 1454
130 1469
130 1475
130 1487
130 1488
130 1489
130 1492
130 1515
130 1516
130 1527
130 1534
130 1554
130 1569
130 1571
130 1578
130 1579
130 1587
130 1592
130 1594
130 1619
130 1626
130 1628
130 1629
130 1635
130 1637
130 1669
130 1686
130 1695
130 1700
130 1704
130 1713
130 1722
130 1738
130 1744
130 1759
130 1774
130 1783
130 1787
130 1788
130 1792
130 1794
130 1799
130 1802
130 1814
130 1818
130 1831
130 1842
130 1843
130 1851
130 1870
130 1878
130 1885
130 1889
130 1920
130 1926
130 1958
130 1964
130 1966
130 1968
130 1972
130 1974
130 1998
130 2003
130 2021
130 2022
130 2025
130 2029
130 2036
130 2051
130 2055
130 2073
130 2085
130 2086
130 2089
130 2091
130 2097
130 2098
130 2104
130 2110
130 2111
130 2118
130 2123
130 2134
130 2136
130 2138
130 2151
130 2154
130 2156
130 2161
130 2194
130 2195
130 2206
130 2209
130 2212
130 2231
130 2235
130 2236
131 280
131 293
131 295
131 431
131 469
131 483
131 493
131 586
131 610
131 627
131 628
131 656
131 773
131 799
131 846
131 900
131 938
131 940
131 976
131 1000
131 1046
131 1169
131 1265
131 1312
131 1318
131 1377
131 1409
131 1469
131 1492
131 1579
131 1616
131 1640
131 1707
131 1795
131 1911
131 1964
131 1965
131 2018
131 2091
131 2103
131 2176
131 2194
131 2198
132 143
132 168
132 175
132 194
132 201
132 211
132 214
132 216
132 222
132 226
132 240
132 243
132 253
132 255
132 270
132 279
132 306
132 316
132 322
132 324
132 329
132 332
132 341
132 351
132 355
132 362
132 367
132 392
132 398
132 418
132 425
132 427
132 440
132 457
132 460
132 494
132 500
132 504
132 510
132 522
132 542
132 560
132 564
132 578
132 579
132 584
132 592
132 603
132 606
132 617
132 629
132 639
132 641
132 644
132 655
132 656
132 659
132 668
132 672
132 681
132 693
132 694
132 703
132 706
132 723
132 726
132 741
132 746
132 749
132 760
132 787
132 790
132 796
132 797
132 807
132 816
132 820
132 836
132 841
132 855
132 858
132 873
132 887
132 890
132 895
132 897
132 898
132 915
132 923
132 942
132 960
132 961
132 971
132 984
132 994
132 996
132 998
132 1004
132 1006
132 1028
132 1044
132 1051
132 1056
132 1066
132 1067
132 1080
132 1083
132 1084
132 1100
132 1102
132 1120
132 1127
132 1129
132 1154
132 1159
132 1168
132 1171
132 1178
132 1193
132 1210
132 1213
132 1216
132 1217
132 1220
132 1228
132 1231
132 1241
132 1265
132 1277
132 1335
132 1338
132 1345
132 1346
132 1361
132 1363
132 1375
132 1389
132 1390
132 1393
132 1398
132 1405
132 1409
132 1442
132 1450
132 1454
132 1476
132 1487
132 1489
132 1490
132 1510
132 1516
132 1530
132 1550
132 1565
132 1590
132 1601
132 1637
132 1649
132 1670
132 1680
132 1686
132 1688
132 1727
132 1735
132 1741
132 1770
132 1775
132 1788
132 1791
132 1794
132 1801
132 1807
132 1826
132 1830
132 1835
132 1851
132 1866
132 1867
132 1876
132 1905
132 1910
132 1927
132 1928
132 1938
132 1964
132 1969
132 1974
132 1994
132 2004
132 2016
132 2021
132 2029
132 2031
132 2032
132 2041
132 2043
132 2049
132 2081
132 2089
132 2091
132 2092
132 2099
132 2110
132 2118
132 2137
132 2165
132 2188
132 2201
132 2216
132 2241
132 2250
133 166
133 194
133 273
133 278
133 279
133 282
133 291
133 309
133 345
133 368
133 405
133 407
133 436
133 503
133 547
133 563
133 587
133 606
133 637
133 678
133 702
133 740
133 786
133 810
133 844
133 869
133 880
133 882
133 903
133 905
133 915
133 923
133 1000
133 1010
133 1036
133 1075
133 1137
133 1141
133 1208
133 1220
133 1225
133 1241
133 1245
133 1284
133 1285
133 1345
133 1348
133 1361
133 1393
133 1413
133 1442
133 1489
133 1527
133 1578
133 1584
133 1646
133 1722
133 1787
133 1799
133 1850
133 1889
133 1907
133 1912
133 1929
133 2022
133 2047
133 2083
133 2086
133 2089
133 2097
133 2104
133 2110
133 2134
133 2145
133 2189
134 220
134 249
134 285
134 313
134 332
134 334
134 339
134 353
134 364
134 366
134 374
134 378
134 417
134 455
134 465
134 553
134 565
134 599
134 643
134 699
134 762
134 818
134 874
134 938
134 1054
134 1064
134 1073
134 1111
134 1174
134 1223
134 1269
134 1273
134 1289
134 1311
134 1431
134 1473
134 1504
134 1558
134 1567
134 1596
134 1605
134 1720
134 1747
134 1753
134 1772
134 1805
134 1904
134 1962
134 1967
134 2036
134 2066
134 2070
134 2121
135 155
135 221
135 370
135 437
135 670
135 671
135 725
135 783
135 892
135 907
135 1071
135 1160
135 1164
135 1187
135 1482
135 1895
135 1927
136 176
136 220
136 223
136 267
136 297
136 301
136 310
136 333
136 336
136 353
136 389
136 465
136 536
136 556
136 576
136 599
136 607
136 646
136 662
136 665
136 675
136 679
136 741
136 743
136 780
136 844
136 847
136 848
136 865
136 871
136 895
136 922
136 969
136 1029
136 1045
136 1059
136 1109
136 1158
136 1240
136 1244
136 1253
136 1273
136 1289
136 1290
136 1298
136 1311
136 1334
136 1353
136 1355
136 1386
136 1436
136 1448
136 1456
136 1460
136 1473
136 1483
136 1492
136 1512
136 1524
136 1546
136 1574
136 1580
136 1625
136 1630
136 1634
136 1654
136 1673
136 1679
136 1701
136 1706
136 1730
136 1761
136 1797
136 1802
136 1866
136 1875
136 1899
136 1901
136 1902
136 1949
136 1955
136 1959
136 1962
136 1995
136 2037
136 2040
136 2139
136 2171
136 2190
136 2206
136 2248
136 2249
137 292
137 595
137 673
137 721
137 806
137 1184
137 1240
137 1306
137 1373
137 1381
137 1582
137 1764
137 1818
137 1978
137 2061
137 2217
138 177
138 196
138 218
138 330
138 346
138 382
138 451
138 497
138 601
138 638
138 691
138 814
138 853
138 914
138 965
138 975
138 1034
138 1095
138 1153
138 1194
138 1202
138 1356
138 1386
138 1411
138 1491
138 1519
138 1535
138 1585
138 1608
138 1621
138 1650
138 1652
138 1682
138 1714
138 1868
138 1884
138 1921
138 1971
138 2054
138 2082
138 2223
139 300
139 320
139 407
139 422
139 454
139 478
139 513
139 681
139 919
139 962
139 1133
139 1137
139 1197
139 1264
139 1414
139 1426
139 1450
139 1621
139 1695
139 1700
139 1709
139 1721
139 1749
139 1796
139 1972
139 2111
139 2146
139 2151
139 2189
140 160
140 211
140 219
140 270
140 273
140 277
140 441
140 452
140 498
140 510
140 530
140 579
140 587
140 687
140 695
140 710
140 733
140 770
140 834
140 838
140 872
140 887
140 927
140 947
140 967
140 1037
140 1120
140 1127
140 1136
140 1179
140 1226
140 1239
140 1283
140 1309
140 1346
140 1372
140 1433
140 1454
140 1565
140 1633
140 1735
140 1842
140 1851
140 1970
140 1974
140 2003
140 2024
140 2029
140 2099
140 2118
140 2201
140 2246
141 262
141 284
141 399
141 432
141 699
141 757
141 773
141 787
141 812
141 942
141 1241
141 1522
141 1560
141 1646
141 1653
141 1998
141 2029
141 2091
141 2123
141 2131
141 2142
141 2181
141 2205
141 2216
142 176
142 202
142 220
142 244
142 267
142 275
142 312
142 397
142 406
142 417
142 461
142 462
142 524
142 535
142 599
142 612
142 622
142 645
142 700
142 737
142 780
142 861
142 871
142 899
142 937
142 938
142 1018
142 1026
142 1057
142 1089
142 1232
142 1242
142 1255
142 1278
142 1289
142 1290
142 1311
142 1313
142 1353
142 1355
142 1376
142 1431
142 1445
142 1458
142 1483
142 1501
142 1524
142 1570
142 1671
142 1690
142 1703
142 1718
142 1761
142 1824
142 1828
142 1894
142 1925
142 1936
142 1942
142 2023
142 2037
142 2069
142 2137
142 2160
142 2185
142 2187
142 2236
143 180
143 339
143 370
143 512
143 521
143 790
143 834
143 948
143 967
143 1005
143 1160
143 1178
143 1394
143 1450
143 1662
143 1892
143 1950
143 1983
143 2110
143 2115
143 2141
143 2179
144 163
144 164
144 165
144 166
144 179
144 208
144 238
144 320
144 364
144 402
144 403
144 406
144 486
144 513
144 533
144 552
144 577
144 594
144 609
144 647
144 873
144 878
144 979
144 1029
144 1066
144 1118
144 1160
144 1174
144 1195
144 1246
144 1296
144 1325
144 1329
144 1340
144 1418
144 1420
144 1426
144 1429
144 1459
144 1463
144 1499
144 1526
144 1576
144 1629
144 1638
144 1748
144 1818
144 1862
144 1878
144 1902
144 1903
144 1932
144 1938
144 1940
144 1947
144 1975
144 2026
144 2040
144 2088
144 2098
144 2104
144 2120
144 2142
144 2175
144 2181
144 2246
145 155
145 175
145 189
145 198
145 236
145 255
145 350
145 352
145 370
145 437
145 507
145 528
145 538
145 608
145 657
145 671
145 701
145 703
145 723
145 725
145 761
145 783
145 810
145 835
145 839
145 877
145 907
145 929
145 930
145 935
145 939
145 970
145 982
145 990
145 992
145 1005
145 1016
145 1071
145 1152
145 1160
145 1164
145 1170
145 1187
145 1223
145 1231
145 1237
145 1246
145 1265
145 1270
145 1288
145 1289
145 1333
145 1351
145 1374
145 1419
145 1448
145 1482
145 1499
145 1521
145 1566
145 1576
145 1609
145 1635
145 1662
145 1790
145 1799
145 1806
145 1830
145 1836
145 1840
145 1919
145 1924
145 1927
145 1948
145 1969
145 2006
145 2020
145 2070
145 2145
145 2169
145 2183
145 2230
146 149
146 200
146 205
146 638
146 643
146 789
146 817
146 914
146 1097
146 1104
146 1194
146 1411
146 1491
146 1533
146 1643
146 1813
146 1833
146 1841
146 1879
146 1884
147 166
147 206
147 234
147 238
147 285
147 439
147 565
147 610
147 631
147 666
147 727
147 747
147 772
147 783
147 786
147 878
147 916
147 983
147 990
147 1021
147 1088
147 1187
147 1274
147 1296
147 1328
147 1497
147 1499
147 1628
147 1862
147 1930
147 1932
147 2042
147 2070
148 171
148 219
148 229
148 258
148 279
148 316
148 324
148 419
148 422
148 443
148 573
148 895
148 896
148 905
148 918
148 981
148 1015
148 1042
148 1063
148 1067
148 1081
148 1112
148 1139
148 1152
148 1226
148 1309
148 1393
148 1396
148 1438
148 1442
148 1453
148 1487
148 1565
148 1626
148 1628
148 1651
148 1731
148 1739
148 1762
148 1769
148 1794
148 1801
148 1850
148 1885
148 1889
148 1950
148 1974
148 1983
148 1994
148 2047
148 2089
148 2115
148 2116
148 2123
148 2136
148 2141
148 2189
148 2201
149 173
149 183
149 205
149 213
149 251
149 269
149 275
149 297
149 332
149 397
149 403
149 414
149 417
149 446
149 462
149 472
149 473
149 478
149 536
149 580
149 607
149 624
149 639
149 643
149 662
149 697
149 720
149 844
149 880
149 886
149 910
149 920
149 923
149 961
149 980
149 984
149 1009
149 1027
149 1029
149 1051
149 1056
149 1058
149 1066
149 1087
149 1100
149 1104
149 1119
149 1163
149 1230
149 1236
149 1277
149 1339
149 1370
149 1374
149 1378
149 1409
149 1421
149 1431
149 1434
149 1473
149 1491
149 1505
149 1532
149 1533
149 1545
149 1585
149 1589
149 1607
149 1613
149 1624
149 1628
149 1632
149 1641
149 1643
149 1645
149 1668
149 1732
149 1756
149 1759
149 1782
149 1813
149 1818
149 1855
149 1862
149 1863
149 1875
149 1879
149 1909
149 1916
149 1917
149 1930
149 1982
149 1984
149 1990
149 2005
149 2065
149 2069
149 2078
149 2081
149 2121
149 2133
149 2148
149 2173
149 2194
150 638
150 1423
150 1531
150 1614
150 1818
150 2135
151 282
151 295
151 314
151 319
151 335
151 370
151 386
151 391
151 416
151 429
151 478
151 479
151 489
151 527
151 552
151 569
151 594
151 603
151 610
151 635
151 656
151 680
151 713
151 767
151 771
151 796
151 825
151 920
151 924
151 963
151 992
151 1000
151 1117
151 1121
151 1125
151 1147
151 1161
151 1173
151 1204
151 1226
151 1230
151 1312
151 1318
151 1340
151 1367
151 1382
151 1383
151 1419
151 1439
151 1443
151 1463
151 1474
151 1480
151 1492
151 1532
151 1616
151 1640
151 1707
151 1708
151 1709
151 1723
151 1732
151 1736
151 1765
151 1771
151 1800
151 1802
151 1818
151 1820
151 1838
151 1847
151 1858
151 1880
151 1890
151 1928
151 2010
151 2022
151 2026
151 2050
151 2069
151 2091
151 2104
151 2139
151 2160
151 2191
151 2232
151 2235
152 181
152 224
152 242
152 274
152 308
152 373
152 552
152 558
152 597
152 625
152 652
152 653
152 753
152 926
152 937
152 974
152 975
152 1234
152 1275
152 1308
152 1315
152 1342
152 1451
152 1548
152 1588
152 1677
152 1687
152 1708
152 1714
152 1802
152 1814
152 1867
152 1884
152 1900
152 1904
152 1907
152 1939
152 1971
152 2014
152 2036
152 2075
152 2160
152 2223
152 2227
153 168
153 194
153 253
153 259
153 282
153 302
153 316
153 323
153 332
153 344
153 377
153 403
153 406
153 407
153 425
153 432
153 454
153 463
153 478
153 494
153 510
153 517
153 524
153 536
153 592
153 651
153 693
153 694
153 706
153 720
153 757
153 791
153 873
153 882
153 887
153 911
153 923
153 942
153 953
153 960
153 971
153 1028
153 1056
153 1096
153 1100
153 1283
153 1294
153 1327
153 1335
153 1375
153 1377
153 1378
153 1421
153 1432
153 1473
153 1474
153 1493
153 1549
153 1572
153 1600
153 1607
153 1613
153 1628
153 1653
153 1688
153 1700
153 1722
153 1739
153 1744
153 1746
153 1749
153 1759
153 1771
153 1774
153 1783
153 1794
153 1796
153 1818
153 1850
153 1898
153 1982
153 2012
153 2097
153 2110
153 2111
153 2118
153 2134
153 2136
153 2194
153 2201
153 2216
154 192
154 292
154 311
154 401
154 475
154 519
154 621
154 675
154 1023
154 1093
154 1252
154 1330
154 1481
154 1496
154 1502
154 1582
154 1685
154 1698
154 1724
154 1778
154 1833
154 1841
154 2017
154 2044
154 2075
155 163
155 175
155 189
155 194
155 216
155 221
155 255
155 291
155 300
155 302
155 352
155 366
155 370
155 389
155 419
155 437
155 507
155 528
155 565
155 573
155 575
155 586
155 589
155 608
155 633
155 647
155 657
155 666
155 670
155 671
155 716
155 727
155 731
155 732
155 746
155 763
155 765
155 783
155 798
155 826
155 835
155 845
155 869
155 892
155 907
155 960
155 979
155 985
155 987
155 990
155 1005
155 1016
155 1047
155 1071
155 1097
155 1103
155 1124
155 1139
155 1160
155 1164
155 1169
155 1178
155 1181
155 1187
155 1200
155 1222
155 1223
155 1231
155 1237
155 1262
155 1270
155 1282
155 1296
155 1297
155 1325
155 1329
155 1343
155 1344
155 1351
155 1365
155 1383
155 1387
155 1394
155 1408
155 1413
155 1419
155 1440
155 1448
155 1452
155 1453
155 1471
155 1482
155 1499
155 1510
155 1526
155 1562
155 1576
155 1605
155 1609
155 1626
155 1638
155 1643
155 1662
155 1679
155 1704
155 1750
155 1788
155 1799
155 1806
155 1817
155 1840
155 1895
155 1919
155 1923
155 1924
155 1927
155 1928
155 1931
155 1937
155 1969
155 2006
155 2020
155 2023
155 2063
155 2070
155 2086
155 2088
155 2096
155 2119
155 2123
155 2125
155 2143
155 2145
155 2183
155 2230
156 223
156 301
156 541
156 625
156 924
156 1029
156 1046
156 1068
156 1128
156 1142
156 1241
156 1244
156 1253
156 1452
156 1645
156 1673
156 1706
156 1799
156 1860
156 1916
157 163
157 208
157 225
157 316
157 386
157 415
157 416
157 476
157 486
157 505
157 511
157 518
157 522
157 540
157 545
157 609
157 679
157 746
157 786
157 810
157 880
157 969
157 1015
157 1019
157 1061
157 1073
157 1106
157 1154
157 1161
157 1225
157 1269
157 1274
157 1289
157 1299
157 1358
157 1364
157 1366
157 1369
157 1413
157 1444
157 1498
157 1537
157 1584
157 1596
157 1630
157 1662
157 1692
157 1704
157 1706
157 1740
157 1763
157 1802
157 1803
157 1829
157 1849
157 1899
157 1903
157 1908
157 1920
157 1959
157 1995
157 2001
157 2027
157 2139
157 2142
157 2171
157 2181
157 2186
157 2235
158 290
158 338
158 1346
158 1844
159 466
159 489
159 601
159 1606
159 2075
159 2078
159 2223
160 201
160 211
160 219
160 225
160 232
160 237
160 273
160 277
160 279
160 282
160 302
160 344
160 358
160 362
160 386
160 418
160 419
160 427
160 428
160 429
160 441
160 448
160 479
160 486
160 498
160 510
160 511
160 525
160 529
160 532
160 545
160 553
160 559
160 579
160 594
160 603
160 677
160 695
160 699
160 741
160 768
160 771
160 811
160 824
160 834
160 838
160 872
160 873
160 894
160 905
160 927
160 954
160 976
160 990
160 1000
160 1006
160 1010
160 1015
160 1019
160 1024
160 1029
160 1030
160 1040
160 1046
160 1048
160 1121
160 1129
160 1143
160 1144
160 1154
160 1179
160 1180
160 1197
160 1213
160 1220
160 1227
160 1235
160 1274
160 1280
160 1308
160 1312
160 1342
160 1346
160 1368
160 1369
160 1370
160 1372
160 1375
160 1441
160 1454
160 1474
160 1489
160 1492
160 1503
160 1514
160 1540
160 1554
160 1569
160 1581
160 1611
160 1631
160 1637
160 1649
160 1651
160 1669
160 1692
160 1694
160 1726
160 1741
160 1770
160 1787
160 1842
160 1849
160 1852
160 1859
160 1885
160 1920
160 1926
160 1949
160 1960
160 1974
160 1994
160 2008
160 2011
160 2025
160 2033
160 2068
160 2074
160 2077
160 2091
160 2094
160 2099
160 2120
160 2142
160 2147
160 2156
160 2165
161 228
161 497
161 550
161 704
161 774
161 950
161 1082
161 1110
161 1157
161 1166
161 1250
161 1353
161 1488
161 1531
161 1553
161 1561
161 1652
161 1682
161 2002
161 2238
162 413
162 663
162 669
162 723
162 724
162 734
162 773
162 1286
162 1368
162 1476
162 1817
162 1988
162 2225
163 165
163 179
163 197
163 320
163 348
163 357
163 364
163 370
163 402
163 437
163 445
163 486
163 538
163 609
163 647
163 666
163 669
163 670
163 723
163 765
163 810
163 865
163 869
163 903
163 907
163 921
163 945
163 948
163 953
163 1005
163 1019
163 1071
163 1086
163 1118
163 1160
163 1164
163 1187
163 1228
163 1229
163 1231
163 1270
163 1284
163 1288
163 1292
163 1321
163 1369
163 1420
163 1526
163 1544
163 1562
163 1576
163 1638
163 1690
163 1706
163 1723
163 1748
163 1790
163 1799
163 1802
163 1812
163 1817
163 1818
163 1832
163 1836
163 1840
163 1906
163 1937
163 1938
163 1940
163 1969
163 2040
163 2042
163 2083
163 2116
163 2124
163 2129
163 2179
163 2230
163 2234
163 2246
164 189
164 222
164 282
164 302
164 352
164 460
164 476
164 478
164 517
164 699
164 731
164 767
164 971
164 979
164 1106
164 1129
164 1325
164 1365
164 1398
164 1424
164 1440
164 1443
164 1459
164 1486
164 1680
164 1697
164 1817
164 1853
164 1939
164 1958
164 1966
164 1994
164 2006
164 2134
164 2139
165 179
165 208
165 238
165 302
165 364
165 402
165 410
165 419
165 431
165 438
165 478
165 479
165 486
165 528
165 540
165 545
165 553
165 567
165 594
165 610
165 647
165 684
165 734
165 738
165 771
165 773
165 799
165 811
165 880
165 895
165 905
165 915
165 924
165 938
165 940
165 1053
165 1117
165 1160
165 1230
165 1246
165 1249
165 1269
165 1276
165 1277
165 1293
165 1312
165 1321
165 1322
165 1364
165 1369
165 1391
165 1408
165 1409
165 1416
165 1426
165 1429
165 1434
165 1456
165 1485
165 1499
165 1526
165 1532
165 1541
165 1564
165 1616
165 1632
165 1638
165 1647
165 1658
165 1678
165 1690
165 1736
165 1741
165 1748
165 1765
165 1772
165 1795
165 1799
165 1818
165 1902
165 1903
165 1938
165 1940
165 1947
165 2009
165 2010
165 2026
165 2046
165 2051
165 2066
165 2107
165 2139
165 2148
165 2175
165 2181
165 2200
165 2246
166 210
166 234
166 236
166 238
166 266
166 285
166 370
166 384
166 408
166 439
166 499
166 500
166 513
166 565
166 610
166 631
166 666
166 701
166 723
166 727
166 734
166 747
166 761
166 772
166 783
166 786
166 826
166 828
166 843
166 869
166 878
166 882
166 907
166 916
166 920
166 944
166 948
166 963
166 973
166 990
166 1021
166 1029
166 1055
166 1067
166 1074
166 1140
166 1158
166 1160
166 1187
166 1195
166 1208
166 1231
166 1286
166 1296
166 1302
166 1308
166 1328
166 1348
166 1383
166 1387
166 1408
166 1429
166 1459
166 1526
166 1572
166 1576
166 1634
166 1656
166 1662
166 1670
166 1690
166 1742
166 1748
166 1768
166 1791
166 1802
166 1849
166 1862
166 1866
166 1875
166 1898
166 1915
166 1932
166 1969
166 1977
166 2040
166 2064
166 2120
166 2147
166 2168
166 2183
167 173
167 257
167 280
167 314
167 345
167 476
167 480
167 503
167 563
167 576
167 622
167 635
167 642
167 715
167 832
167 906
167 915
167 919
167 969
167 1008
167 1029
167 1043
167 1055
167 1064
167 1109
167 1158
167 1176
167 1270
167 1447
167 1458
167 1470
167 1567
167 1593
167 1612
167 1625
167 1673
167 1701
167 1706
167 1753
167 1755
167 1756
167 1763
167 1765
167 1805
167 1809
167 1883
167 1929
167 1947
167 1955
167 1959
167 2095
167 2160
167 2168
168 194
168 202
168 204
168 259
168 269
168 282
168 298
168 316
168 344
168 405
168 428
168 441
168 452
168 525
168 560
168 695
168 741
168 743
168 749
168 867
168 909
168 947
168 971
168 1015
168 1046
168 1100
168 1138
168 1179
168 1207
168 1241
168 1294
168 1335
168 1345
168 1397
168 1432
168 1472
168 1549
168 1598
168 1628
168 1651
168 1669
168 1745
168 1762
168 1796
168 1831
168 1920
168 1926
168 2182
168 2195
169 279
169 441
169 702
169 773
169 962
169 1042
169 1345
169 1352
169 1486
169 1507
169 1731
169 1739
169 1799
169 1881
169 1891
169 1994
169 2147
169 2212
170 192
170 228
170 271
170 373
170 492
170 495
170 550
170 551
170 673
170 751
170 793
170 815
170 817
170 1012
170 1045
170 1082
170 1123
170 1162
170 1212
170 1214
170 1275
170 1373
170 1386
170 1509
170 1644
170 1668
170 1684
170 1698
170 1814
170 1868
170 1907
170 1946
170 1971
170 1973
170 2002
170 2006
170 2007
170 2130
170 2171
170 2178
170 2242
171 189
171 309
171 324
171 362
171 368
171 419
171 424
171 512
171 521
171 593
171 741
171 823
171 904
171 930
171 955
171 960
171 1029
171 1100
171 1106
171 1114
171 1139
171 1152
171 1178
171 1181
171 1218
171 1351
171 1356
171 1394
171 1414
171 1438
171 1626
171 1651
171 1731
171 1799
171 1822
171 1889
171 1892
171 2032
171 2094
171 2096
171 2115
171 2116
171 2141
171 2170
171 2188
171 2216
172 415
172 723
172 773
172 1825
172 2142
173 202
173 203
173 213
173 220
173 257
173 267
173 282
173 288
173 301
173 314
173 358
173 381
173 383
173 417
173 446
173 455
173 476
173 480
173 491
173 524
173 541
173 576
173 607
173 622
173 625
173 700
173 712
173 715
173 871
173 874
173 890
173 906
173 923
173 924
173 925
173 1029
173 1030
173 1062
173 1066
173 1104
173 1119
173 1158
173 1189
173 1230
173 1232
173 1242
173 1244
173 1290
173 1305
173 1388
173 1421
173 1444
173 1458
173 1488
173 1593
173 1612
173 1625
173 1673
173 1690
173 1706
173 1732
173 1751
173 1753
173 1756
173 1763
173 1805
173 1809
173 1818
173 1828
173 1835
173 1846
173 1855
173 1863
173 1875
173 1883
173 1909
173 1940
173 1947
173 1955
173 1959
173 1975
173 1993
173 2001
173 2026
173 2036
173 2065
173 2069
173 2133
173 2148
173 2168
173 2175
173 2194
173 2248
174 202
174 203
174 220
174 246
174 254
174 267
174 339
174 364
174 397
174 455
174 465
174 472
174 574
174 576
174 622
174 705
174 806
174 852
174 859
174 890
174 923
174 925
174 937
174 984
174 1029
174 1040
174 1062
174 1066
174 1073
174 1084
174 1119
174 1145
174 1268
174 1294
174 1324
174 1355
174 1376
174 1558
174 1596
174 1671
174 1720
174 1772
174 1809
174 1869
174 1875
174 1904
174 1940
174 2065
174 2069
174 2133
174 2197
174 2219
174 2233
175 221
175 255
175 354
175 357
175 370
175 437
175 515
175 608
175 690
175 745
175 761
175 772
175 783
175 790
175 833
175 843
175 982
175 985
175 990
175 1028
175 1036
175 1047
175 1126
175 1164
175 1181
175 1187
175 1231
175 1237
175 1292
175 1297
175 1325
175 1419
175 1571
175 1662
175 1680
175 1734
175 1806
175 1832
175 1927
175 2125
175 2145
176 198
176 220
176 267
176 285
176 301
176 314
176 333
176 353
176 364
176 368
176 374
176 383
176 391
176 406
176 408
176 465
176 476
176 541
176 573
176 607
176 625
176 665
176 705
176 716
176 742
176 805
176 844
176 847
176 848
176 865
176 866
176 899
176 902
176 923
176 937
176 969
176 970
176 1024
176 1029
176 1033
176 1059
176 1078
176 1130
176 1240
176 1244
176 1260
176 1289
176 1290
176 1311
176 1334
176 1355
176 1365
176 1436
176 1460
176 1483
176 1524
176 1546
176 1564
176 1566
176 1567
176 1645
176 1673
176 1679
176 1706
176 1713
176 1761
176 1768
176 1797
176 1853
176 1893
176 1899
176 1901
176 1902
176 1909
176 1923
176 1938
176 1940
176 1962
176 1988
176 1995
176 2069
176 2072
176 2100
176 2110
176 2169
176 2171
176 2206
176 2248
177 205
177 272
177 346
177 497
177 601
177 673
177 814
177 817
177 853
177 914
177 942
177 965
177 975
177 1095
177 1194
177 1198
177 1386
177 1411
177 1495
177 1502
177 1519
177 1542
177 1568
177 1660
177 1672
177 1682
177 1714
177 1868
177 1884
177 1921
177 2054
177 2082
177 2196
178 229
178 244
178 246
178 280
178 319
178 334
178 360
178 369
178 406
178 417
178 433
178 438
178 463
178 532
178 542
178 546
178 567
178 614
178 656
178 662
178 684
178 705
178 720
178 794
178 799
178 847
178 873
178 900
178 905
178 938
178 982
178 1007
178 1049
178 1134
178 1269
178 1277
178 1314
178 1382
178 1387
178 1473
178 1474
178 1497
178 1513
178 1554
178 1607
178 1678
178 1695
178 1746
178 1771
178 1827
178 1846
178 1917
178 1975
178 2043
178 2107
178 2117
178 2176
179 292
179 300
179 364
179 499
179 533
179 565
179 577
179 615
179 647
179 663
179 669
179 674
179 723
179 729
179 731
179 732
179 734
179 767
179 783
179 785
179 797
179 799
179 826
179 835
179 869
179 882
179 953
179 979
179 1005
179 1006
179 1019
179 1046
179 1086
179 1117
179 1133
179 1160
179 1162
179 1218
179 1286
179 1296
179 1307
179 1308
179 1310
179 1321
179 1325
179 1429
179 1456
179 1459
179 1467
179 1512
179 1526
179 1538
179 1575
179 1579
179 1584
179 1638
179 1662
179 1681
179 1690
179 1697
179 1711
179 1742
179 1748
179 1791
179 1799
179 1802
179 1806
179 1818
179 1832
179 1845
179 1853
179 1859
179 1888
179 1898
179 1902
179 1931
179 1937
179 1940
179 1947
179 2038
179 2040
179 2064
179 2088
179 2129
179 2139
179 2161
180 194
180 220
180 236
180 249
180 305
180 339
180 353
180 370
180 465
180 512
180 521
180 536
180 593
180 680
180 702
180 731
180 732
180 733
180 790
180 834
180 948
180 967
180 973
180 988
180 1005
180 1081
180 1106
180 1112
180 1137
180 1160
180 1178
180 1181
180 1231
180 1245
180 1304
180 1343
180 1438
180 1596
180 1607
180 1662
180 1772
180 1790
180 1801
180 1836
180 1890
180 1919
180 1928
180 1983
180 2006
180 2096
180 2115
180 2141
180 2145
180 2170
180 2179
181 986
181 1263
181 1358
181 2242
182 359
182 1201
183 220
183 223
183 267
183 301
183 326
183 333
183 353
183 383
183 404
183 406
183 418
183 476
183 480
183 504
183 541
183 556
183 576
183 596
183 607
183 625
183 627
183 705
183 712
183 736
183 767
183 780
183 826
183 844
183 848
183 865
183 883
183 890
183 899
183 924
183 934
183 937
183 938
183 982
183 1021
183 1029
183 1038
183 1046
183 1068
183 1104
183 1109
183 1125
183 1173
183 1174
183 1182
183 1240
183 1244
183 1253
183 1280
183 1298
183 1311
183 1337
183 1355
183 1374
183 1394
183 1425
183 1431
183 1444
183 1452
183 1456
183 1460
183 1511
183 1558
183 1593
183 1612
183 1643
183 1645
183 1654
183 1673
183 1690
183 1706
183 1730
183 1753
183 1755
183 1756
183 1782
183 1802
183 1803
183 1805
183 1846
183 1860
183 1883
183 1890
183 1901
183 1902
183 1903
183 1909
183 1930
183 1947
183 1955
183 1959
183 1995
183 2036
183 2100
183 2168
183 2173
183 2185
183 2193
183 2197
183 2206
183 2248
184 286
184 446
184 516
184 568
184 662
184 795
184 1069
184 1144
184 1387
184 1520
184 1716
184 1743
184 1911
184 1979
184 2102
184 2159
184 2174
184 2231
185 245
185 334
185 348
185 357
185 430
185 479
185 498
185 506
185 510
185 545
185 650
185 670
185 723
185 733
185 816
185 878
185 967
185 985
185 988
185 992
185 1126
185 1251
185 1269
185 1314
185 1347
185 1359
185 1369
185 1400
185 1402
185 1405
185 1413
185 1510
185 1556
185 1633
185 1741
185 1770
185 1994
185 2031
185 2032
185 2051
185 2118
185 2151
185 2175
185 2188
186 193
186 221
186 225
186 253
186 262
186 273
186 280
186 281
186 282
186 294
186 302
186 313
186 314
186 316
186 327
186 345
186 362
186 369
186 399
186 405
186 418
186 419
186 427
186 435
186 468
186 486
186 499
186 500
186 505
186 510
186 511
186 514
186 518
186 532
186 552
186 579
186 585
186 610
186 617
186 624
186 674
186 682
186 687
186 723
186 729
186 746
186 765
186 773
186 785
186 797
186 810
186 873
186 894
186 895
186 908
186 942
186 953
186 954
186 969
186 1006
186 1009
186 1010
186 1019
186 1043
186 1046
186 1056
186 1061
186 1073
186 1075
186 1080
186 1103
186 1114
186 1118
186 1120
186 1129
186 1132
186 1142
186 1154
186 1168
186 1212
186 1213
186 1222
186 1227
186 1230
186 1277
186 1283
186 1299
186 1307
186 1309
186 1323
186 1332
186 1338
186 1344
186 1358
186 1369
186 1380
186 1391
186 1393
186 1399
186 1410
186 1413
186 1434
186 1440
186 1441
186 1442
186 1443
186 1459
186 1489
186 1510
186 1514
186 1517
186 1527
186 1575
186 1579
186 1581
186 1592
186 1618
186 1619
186 1630
186 1638
186 1653
186 1669
186 1675
186 1705
186 1722
186 1741
186 1759
186 1768
186 1772
186 1788
186 1799
186 1802
186 1803
186 1807
186 1813
186 1817
186 1818
186 1829
186 1851
186 1866
186 1867
186 1876
186 1878
186 1898
186 1908
186 1912
186 1934
186 1938
186 1965
186 1968
186 1974
186 1982
186 1994
186 2027
186 2072
186 2078
186 2089
186 2099
186 2100
186 2121
186 2127
186 2165
186 2167
186 2175
186 2194
186 2234
187 432
187 641
187 655
187 693
187 757
187 791
187 942
187 1004
187 1739
187 1749
187 1774
187 1935
187 2012
187 2029
187 2241
188 190
188 195
188 199
188 213
188 246
188 267
188 276
188 316
188 323
188 331
188 336
188 395
188 406
188 461
188 569
188 596
188 612
188 699
188 700
188 780
188 796
188 861
188 862
188 868
188 871
188 874
188 889
188 934
188 1008
188 1026
188 1054
188 1066
188 1088
188 1094
188 1107
188 1113
188 1142
188 1176
188 1235
188 1241
188 1247
188 1267
188 1272
188 1278
188 1322
188 1327
188 1404
188 1410
188 1461
188 1471
188 1506
188 1681
188 1695
188 1706
188 1720
188 1730
188 1765
188 1785
188 1818
188 1837
188 1847
188 1866
188 1886
188 1896
188 1916
188 1942
188 1958
188 1992
188 2011
188 2023
188 2052
188 2056
188 2069
188 2087
188 2092
188 2136
188 2140
188 2171
188 2202
188 2231
188 2236
188 2249
189 193
189 194
189 216
189 221
189 269
189 273
189 282
189 291
189 297
189 300
189 302
189 309
189 320
189 407
189 437
189 442
189 498
189 512
189 515
189 517
189 536
189 539
189 547
189 579
189 582
189 587
189 589
189 600
189 671
189 699
189 702
189 731
189 741
189 798
189 810
189 823
189 834
189 872
189 892
189 895
189 904
189 911
189 922
189 923
189 941
189 944
189 955
189 966
189 967
189 971
189 973
189 984
189 985
189 994
189 1005
189 1006
189 1056
189 1081
189 1096
189 1099
189 1100
189 1168
189 1181
189 1205
189 1222
189 1229
189 1243
189 1264
189 1265
189 1285
189 1292
189 1325
189 1356
189 1378
189 1393
189 1394
189 1399
189 1425
189 1450
189 1454
189 1489
189 1507
189 1569
189 1584
189 1591
189 1601
189 1626
189 1628
189 1647
189 1662
189 1713
189 1722
189 1735
189 1738
189 1739
189 1741
189 1744
189 1749
189 1759
189 1769
189 1774
189 1782
189 1790
189 1799
189 1801
189 1817
189 1832
189 1849
189 1850
189 1876
189 1889
189 1895
189 1930
189 1932
189 1937
189 1938
189 1939
189 1966
189 1979
189 1988
189 2008
189 2012
189 2047
189 2048
189 2055
189 2086
189 2089
189 2097
189 2101
189 2110
189 2115
189 2134
189 2143
189 2194
189 2216
190 197
190 246
190 301
190 395
190 397
190 501
190 528
190 533
190 569
190 578
190 580
190 620
190 646
190 697
190 705
190 712
190 736
190 737
190 746
190 762
190 803
190 806
190 825
190 848
190 852
190 868
190 874
190 889
190 900
190 1029
190 1046
190 1054
190 1062
190 1066
190 1084
190 1111
190 1125
190 1200
190 1244
190 1290
190 1298
190 1356
190 1376
190 1392
190 1410
190 1645
190 1654
190 1671
190 1706
190 1720
190 1809
190 1818
190 1863
190 1866
190 1962
190 2022
190 2066
190 2069
190 2072
190 2087
190 2090
190 2146
190 2185
190 2202
190 2249
191 555
191 1209
191 1569
191 2223
192 272
192 387
192 390
192 492
192 551
192 654
192 751
192 762
192 884
192 912
192 1034
192 1275
192 1287
192 1315
192 1330
192 1381
192 1386
192 1481
192 1502
192 1509
192 1753
192 1764
192 1814
192 2075
192 2082
192 2113
192 2221
193 223
193 257
193 262
193 273
193 278
193 281
193 302
193 316
193 340
193 418
193 431
193 478
193 500
193 517
193 528
193 552
193 594
193 609
193 646
193 647
193 695
193 723
193 767
193 880
193 895
193 915
193 924
193 951
193 954
193 960
193 979
193 983
193 990
193 992
193 1006
193 1029
193 1086
193 1140
193 1173
193 1220
193 1266
193 1279
193 1282
193 1289
193 1325
193 1332
193 1340
193 1358
193 1363
193 1383
193 1384
193 1392
193 1408
193 1425
193 1443
193 1459
193 1463
193 1504
193 1510
193 1522
193 1583
193 1656
193 1707
193 1741
193 1759
193 1774
193 1799
193 1802
193 1804
193 1818
193 1832
193 1858
193 1862
193 1878
193 1908
193 1934
193 1938
193 1975
193 2006
193 2022
193 2025
193 2086
193 2104
193 2127
193 2134
193 2142
193 2181
193 2232
193 2235
194 207
194 217
194 219
194 220
194 221
194 223
194 225
194 243
194 249
194 278
194 282
194 285
194 291
194 302
194 305
194 316
194 320
194 323
194 327
194 337
194 339
194 351
194 356
194 362
194 368
194 403
194 405
194 406
194 407
194 417
194 428
194 434
194 448
194 454
194 460
194 468
194 472
194 477
194 493
194 494
194 510
194 511
194 512
194 515
194 516
194 522
194 525
194 527
194 535
194 536
194 539
194 542
194 544
194 547
194 579
194 587
194 593
194 594
194 600
194 614
194 628
194 630
194 639
194 646
194 668
194 671
194 672
194 695
194 698
194 702
194 706
194 707
194 709
194 713
194 720
194 722
194 724
194 731
194 734
194 740
194 747
194 749
194 760
194 764
194 768
194 771
194 772
194 785
194 787
194 790
194 791
194 810
194 824
194 830
194 834
194 847
194 855
194 869
194 872
194 873
194 881
194 887
194 894
194 901
194 907
194 911
194 916
194 923
194 941
194 947
194 954
194 960
194 970
194 971
194 984
194 990
194 995
194 998
194 1002
194 1005
194 1015
194 1028
194 1029
194 1044
194 1046
194 1056
194 1061
194 1075
194 1080
194 1081
194 1088
194 1099
194 1100
194 1103
194 1106
194 1122
194 1131
194 1133
194 1137
194 1139
194 1143
194 1154
194 1164
194 1181
194 1197
194 1205
194 1212
194 1217
194 1218
194 1220
194 1222
194 1228
194 1235
194 1256
194 1257
194 1265
194 1267
194 1272
194 1285
194 1294
194 1300
194 1304
194 1307
194 1311
194 1314
194 1324
194 1325
194 1329
194 1335
194 1336
194 1345
194 1346
194 1349
194 1356
194 1359
194 1361
194 1363
194 1371
194 1376
194 1378
194 1387
194 1389
194 1393
194 1398
194 1399
194 1408
194 1413
194 1414
194 1450
194 1454
194 1486
194 1487
194 1489
194 1498
194 1499
194 1500
194 1515
194 1518
194 1550
194 1565
194 1570
194 1571
194 1577
194 1584
194 1586
194 1596
194 1607
194 1613
194 1615
194 1626
194 1628
194 1629
194 1632
194 1651
194 1680
194 1700
194 1704
194 1705
194 1722
194 1732
194 1741
194 1744
194 1745
194 1746
194 1759
194 1779
194 1783
194 1785
194 1790
194 1791
194 1794
194 1796
194 1799
194 1817
194 1818
194 1832
194 1840
194 1848
194 1849
194 1850
194 1851
194 1870
194 1871
194 1876
194 1889
194 1895
194 1904
194 1905
194 1938
194 1958
194 1966
194 1969
194 1970
194 1985
194 1994
194 2003
194 2009
194 2012
194 2015
194 2029
194 2031
194 2035
194 2041
194 2043
194 2047
194 2049
194 2051
194 2069
194 2070
194 2086
194 2089
194 2091
194 2098
194 2099
194 2101
194 2102
194 2110
194 2118
194 2119
194 2120
194 2124
194 2125
194 2134
194 2136
194 2143
194 2147
194 2151
194 2153
194 2154
194 2161
194 2186
194 2194
194 2206
194 2241
194 2250
195 381
195 406
195 415
195 417
195 427
195 481
195 596
195 643
195 831
195 889
195 902
195 1008
195 1011
195 1055
195 1066
195 1107
195 1109
195 1155
195 1176
195 1268
195 1272
195 1446
195 1471
195 1483
195 1506
195 1702
195 1721
195 1765
195 1818
195 1940
195 1952
195 1992
195 2023
195 2119
195 2158
195 2206
196 346
196 427
196 643
196 814
196 914
196 1032
196 1198
196 1263
196 1287
196 1496
196 1536
196 1608
196 1660
196 1672
196 1687
196 1717
196 1884
196 2054
196 2221
197 210
197 221
197 252
197 269
197 294
197 300
197 302
197 308
197 309
197 328
197 354
197 411
197 413
197 430
197 487
197 505
197 521
197 528
197 538
197 539
197 540
197 573
197 582
197 627
197 642
197 647
197 657
197 669
197 682
197 712
197 718
197 723
197 746
197 773
197 798
197 803
197 843
197 869
197 893
197 903
197 944
197 967
197 973
197 987
197 990
197 1046
197 1066
197 1067
197 1075
197 1106
197 1124
197 1135
197 1140
197 1195
197 1218
197 1229
197 1243
197 1251
197 1256
197 1270
197 1271
197 1280
197 1293
197 1321
197 1337
197 1365
197 1369
197 1387
197 1393
197 1394
197 1402
197 1410
197 1417
197 1428
197 1497
197 1526
197 1576
197 1583
197 1627
197 1638
197 1662
197 1667
197 1773
197 1788
197 1799
197 1802
197 1806
197 1817
197 1825
197 1830
197 1832
197 1840
197 1854
197 1859
197 1872
197 1888
197 1891
197 1897
197 1906
197 1923
197 1932
197 1938
197 1962
197 1963
197 1969
197 1977
197 1988
197 2022
197 2041
197 2062
197 2083
197 2096
197 2099
197 2110
197 2123
197 2139
197 2151
197 2170
197 2189
197 2203
197 2230
197 2245
198 215
198 285
198 297
198 312
198 333
198 350
198 353
198 364
198 372
198 374
198 400
198 402
198 408
198 421
198 476
198 519
198 524
198 528
198 531
198 556
198 581
198 609
198 682
198 712
198 716
198 769
198 776
198 801
198 808
198 818
198 825
198 843
198 847
198 852
198 865
198 880
198 893
198 895
198 925
198 935
198 951
198 963
198 969
198 970
198 983
198 992
198 1029
198 1062
198 1068
198 1079
198 1097
198 1118
198 1142
198 1174
198 1200
198 1223
198 1240
198 1246
198 1252
198 1265
198 1279
198 1288
198 1289
198 1383
198 1410
198 1420
198 1448
198 1456
198 1499
198 1512
198 1566
198 1567
198 1580
198 1583
198 1622
198 1629
198 1634
198 1642
198 1656
198 1665
198 1679
198 1701
198 1703
198 1723
198 1802
198 1804
198 1810
198 1832
198 1836
198 1848
198 1899
198 1902
198 1923
198 1938
198 1977
198 1995
198 2040
198 2042
198 2060
198 2100
198 2124
198 2142
198 2168
198 2169
198 2175
198 2200
198 2246
198 2248
199 209
199 246
199 286
199 336
199 394
199 399
199 702
199 713
199 795
199 808
199 1043
199 1131
199 1471
199 1719
199 1721
199 1759
199 1866
199 1889
199 1962
199 2071
199 2231
200 267
200 274
200 363
200 382
200 509
200 576
200 602
200 638
200 640
200 729
200 753
200 817
200 870
200 1007
200 1045
200 1101
200 1133
200 1163
200 1194
200 1263
200 1275
200 1373
200 1386
200 1411
200 1423
200 1476
200 1491
200 1501
200 1533
200 1553
200 1621
200 1668
200 1672
200 1687
200 1767
200 1785
200 1884
200 1971
200 2075
200 2105
200 2135
200 2184
200 2223
200 2237
200 2242
201 209
201 222
201 240
201 282
201 324
201 362
201 368
201 379
201 405
201 410
201 441
201 460
201 515
201 539
201 545
201 587
201 731
201 741
201 872
201 953
201 1006
201 1033
201 1061
201 1115
201 1220
201 1264
201 1325
201 1329
201 1346
201 1359
201 1396
201 1405
201 1489
201 1579
201 1633
201 1675
201 1694
201 1700
201 1788
201 1966
201 1988
201 1994
201 2032
201 2132
201 2134
201 2151
201 2188
202 220
202 230
202 251
202 253
202 288
202 344
202 351
202 358
202 378
202 397
202 406
202 417
202 446
202 447
202 461
202 481
202 524
202 561
202 607
202 620
202 643
202 697
202 699
202 720
202 737
202 830
202 861
202 890
202 920
202 924
202 938
202 1009
202 1044
202 1046
202 1057
202 1066
202 1073
202 1100
202 1104
202 1232
202 1238
202 1242
202 1255
202 1290
202 1327
202 1339
202 1360
202 1370
202 1376
202 1378
202 1385
202 1431
202 1434
202 1446
202 1461
202 1473
202 1511
202 1520
202 1533
202 1545
202 1607
202 1613
202 1628
202 1632
202 1671
202 1718
202 1732
202 1796
202 1813
202 1818
202 1824
202 1837
202 1855
202 1875
202 1894
202 1911
202 1916
202 1917
202 1925
202 1930
202 1936
202 1942
202 1974
202 1984
202 1994
202 2015
202 2065
202 2069
202 2070
202 2087
202 2091
202 2121
202 2133
202 2137
202 2148
202 2160
202 2200
202 2219
202 2249
203 267
203 281
203 297
203 326
203 336
203 343
203 358
203 377
203 381
203 417
203 425
203 446
203 453
203 455
203 465
203 501
203 503
203 535
203 586
203 599
203 607
203 610
203 620
203 631
203 643
203 665
203 697
203 705
203 712
203 737
203 780
203 805
203 818
203 832
203 847
203 848
203 859
203 874
203 890
203 895
203 902
203 905
203 919
203 922
203 960
203 1008
203 1020
203 1029
203 1030
203 1038
203 1046
203 1057
203 1062
203 1066
203 1073
203 1084
203 1089
203 1109
203 1111
203 1182
203 1191
203 1212
203 1223
203 1253
203 1273
203 1290
203 1298
203 1300
203 1311
203 1316
203 1322
203 1334
203 1353
203 1355
203 1358
203 1364
203 1370
203 1376
203 1393
203 1425
203 1431
203 1452
203 1460
203 1471
203 1488
203 1504
203 1506
203 1510
203 1533
203 1538
203 1554
203 1558
203 1593
203 1622
203 1625
203 1646
203 1654
203 1657
203 1701
203 1720
203 1730
203 1747
203 1761
203 1772
203 1797
203 1805
203 1809
203 1818
203 1863
203 1866
203 1869
203 1875
203 1901
203 1904
203 1909
203 1916
203 1940
203 1962
203 2043
203 2052
203 2065
203 2072
203 2100
203 2127
203 2171
203 2185
203 2195
203 2200
203 2202
203 2206
203 2231
203 2233
204 259
204 282
204 339
204 428
204 438
204 441
204 525
204 552
204 579
204 587
204 606
204 741
204 887
204 904
204 1015
204 1238
204 1283
204 1327
204 1329
204 1349
204 1594
204 1745
204 1762
204 1780
204 1783
204 1867
204 1926
204 2012
204 2099
204 2174
204 2195
205 275
205 450
205 451
205 482
205 596
205 601
205 643
205 814
205 817
205 853
205 886
205 972
205 1007
205 1054
205 1104
205 1107
205 1157
205 1194
205 1203
205 1275
205 1373
205 1386
205 1397
205 1427
205 1473
205 1491
205 1509
205 1582
205 1585
205 1643
205 1644
205 1668
205 1683
205 1813
205 1868
205 1875
205 1879
205 1884
205 1992
205 2005
205 2045
205 2052
205 2081
205 2082
205 2121
205 2196
205 2227
206 225
206 294
206 302
206 370
206 413
206 427
206 517
206 633
206 663
206 665
206 669
206 678
206 723
206 763
206 776
206 783
206 839
206 869
206 935
206 942
206 953
206 1005
206 1046
206 1070
206 1077
206 1106
206 1129
206 1135
206 1154
206 1288
206 1333
206 1399
206 1467
206 1527
206 1562
206 1581
206 1584
206 1630
206 1667
206 1704
206 1782
206 1802
206 1888
206 1898
206 1912
206 1930
206 1932
206 1938
206 2020
206 2038
206 2077
206 2134
206 2170
207 208
207 246
207 294
207 305
207 356
207 362
207 368
207 406
207 425
207 474
207 511
207 514
207 544
207 559
207 627
207 648
207 656
207 674
207 700
207 706
207 711
207 731
207 741
207 760
207 791
207 806
207 826
207 851
207 883
207 887
207 890
207 917
207 920
207 929
207 934
207 937
207 947
207 953
207 1029
207 1033
207 1065
207 1073
207 1075
207 1137
207 1143
207 1174
207 1245
207 1264
207 1280
207 1304
207 1322
207 1355
207 1367
207 1369
207 1384
207 1429
207 1431
207 1467
207 1470
207 1489
207 1500
207 1543
207 1560
207 1569
207 1579
207 1700
207 1745
207 1746
207 1755
207 1794
207 1800
207 1803
207 1826
207 1828
207 1850
207 1859
207 1889
207 1892
207 1903
207 1987
207 2008
207 2012
207 2023
207 2035
207 2077
207 2080
207 2085
207 2118
207 2131
207 2132
207 2191
207 2197
207 2222
207 2234
208 215
208 238
208 278
208 281
208 291
208 301
208 302
208 313
208 320
208 419
208 431
208 438
208 472
208 479
208 552
208 553
208 567
208 568
208 586
208 594
208 609
208 610
208 648
208 656
208 684
208 700
208 713
208 734
208 738
208 771
208 785
208 801
208 806
208 812
208 880
208 894
208 905
208 915
208 918
208 935
208 940
208 947
208 969
208 979
208 992
208 1020
208 1029
208 1030
208 1174
208 1230
208 1249
208 1269
208 1293
208 1296
208 1322
208 1340
208 1342
208 1364
208 1365
208 1369
208 1384
208 1409
208 1416
208 1420
208 1429
208 1492
208 1497
208 1532
208 1541
208 1554
208 1579
208 1616
208 1622
208 1647
208 1658
208 1681
208 1706
208 1741
208 1754
208 1772
208 1787
208 1795
208 1799
208 1818
208 1827
208 1837
208 1864
208 1880
208 1892
208 1903
208 1908
208 1938
208 1987
208 1995
208 2008
208 2042
208 2051
208 2104
208 2116
208 2162
208 2175
208 2177
208 2181
208 2186
208 2231
208 2246
209 211
209 478
209 498
209 690
209 695
209 772
209 807
209 1159
209 1248
209 1403
209 1734
209 1744
209 1831
209 1875
209 1932
209 1966
209 1994
209 2031
210 302
210 317
210 370
210 478
210 487
210 507
210 538
210 575
210 586
210 723
210 765
210 776
210 826
210 880
210 924
210 930
210 935
210 1070
210 1071
210 1077
210 1098
210 1133
210 1164
210 1169
210 1187
210 1255
210 1270
210 1286
210 1288
210 1321
210 1351
210 1365
210 1408
210 1410
210 1438
210 1447
210 1468
210 1499
210 1512
210 1609
210 1635
210 1791
210 1799
210 1822
210 1887
210 1963
210 1969
210 2006
210 2020
210 2116
210 2124
210 2127
210 2185
210 2230
211 219
211 222
211 226
211 229
211 258
211 362
211 452
211 510
211 560
211 579
211 617
211 630
211 710
211 873
211 976
211 1028
211 1042
211 1080
211 1248
211 1283
211 1397
211 1414
211 1454
211 1770
211 1831
211 1851
211 1910
211 1964
211 1974
211 2016
211 2029
211 2085
211 2091
211 2099
211 2188
211 2231
212 388
212 417
212 461
212 524
212 643
212 653
212 737
212 787
212 871
212 949
212 1024
212 1094
212 1241
212 1313
212 1339
212 1370
212 1445
212 1818
212 1824
212 1894
212 1916
212 1922
212 1984
212 2003
212 2069
212 2090
212 2118
212 2140
212 2160
212 2171
212 2219
213 275
213 320
213 374
213 381
213 414
213 417
213 446
213 462
213 472
213 478
213 535
213 576
213 578
213 607
213 620
213 622
213 643
213 679
213 682
213 689
213 697
213 712
213 716
213 737
213 806
213 809
213 819
213 824
213 825
213 847
213 866
213 868
213 889
213 906
213 923
213 938
213 973
213 1006
213 1008
213 1018
213 1029
213 1030
213 1054
213 1059
213 1062
213 1066
213 1089
213 1097
213 1104
213 1119
213 1128
213 1154
213 1200
213 1223
213 1244
213 1255
213 1260
213 1290
213 1324
213 1339
213 1342
213 1355
213 1370
213 1374
213 1376
213 1384
213 1421
213 1431
213 1436
213 1448
213 1450
213 1460
213 1476
213 1564
213 1567
213 1612
213 1622
213 1642
213 1643
213 1654
213 1665
213 1695
213 1701
213 1706
213 1720
213 1721
213 1730
213 1732
213 1765
213 1772
213 1799
213 1809
213 1813
213 1824
213 1846
213 1848
213 1860
213 1865
213 1894
213 1909
213 1916
213 1917
213 1923
213 1924
213 1947
213 1949
213 1962
213 2001
213 2065
213 2069
213 2119
213 2120
213 2125
213 2137
213 2146
213 2162
213 2166
213 2168
213 2173
213 2175
213 2177
213 2186
214 215
214 222
214 231
214 270
214 277
214 306
214 309
214 355
214 392
214 419
214 422
214 460
214 552
214 612
214 629
214 634
214 656
214 700
214 811
214 887
214 897
214 904
214 945
214 1004
214 1010
214 1030
214 1073
214 1102
214 1132
214 1137
214 1159
214 1205
214 1213
214 1241
214 1300
214 1322
214 1338
214 1346
214 1364
214 1375
214 1389
214 1517
214 1569
214 1649
214 1705
214 1727
214 1770
214 1826
214 1876
214 1885
214 1935
214 1995
214 2035
214 2188
215 220
215 285
215 312
215 350
215 353
215 364
215 374
215 400
215 455
215 465
215 478
215 503
215 531
215 552
215 556
215 576
215 578
215 607
215 612
215 620
215 664
215 665
215 679
215 696
215 700
215 808
215 818
215 825
215 832
215 844
215 847
215 848
215 852
215 861
215 874
215 954
215 969
215 1018
215 1029
215 1030
215 1038
215 1062
215 1066
215 1068
215 1073
215 1079
215 1084
215 1111
215 1189
215 1240
215 1260
215 1311
215 1334
215 1364
215 1425
215 1430
215 1436
215 1444
215 1471
215 1483
215 1512
215 1538
215 1546
215 1567
215 1596
215 1656
215 1703
215 1751
215 1768
215 1805
215 1818
215 1837
215 1848
215 1863
215 1877
215 1899
215 1902
215 1916
215 1917
215 1923
215 1949
215 1995
215 2036
215 2042
215 2051
215 2066
215 2090
215 2100
215 2206
215 2246
215 2248
216 221
216 259
216 269
216 430
216 506
216 539
216 811
216 813
216 823
216 835
216 941
216 944
216 955
216 960
216 1015
216 1075
216 1205
216 1222
216 1226
216 1228
216 1265
216 1361
216 1393
216 1510
216 1762
216 1994
216 2021
216 2048
216 2101
216 2125
216 2143
216 2182
217 221
217 229
217 259
217 269
217 282
217 294
217 300
217 305
217 320
217 332
217 344
217 351
217 356
217 377
217 413
217 415
217 422
217 478
217 505
217 514
217 517
217 536
217 542
217 582
217 587
217 624
217 643
217 649
217 692
217 720
217 722
217 757
217 794
217 843
217 891
217 910
217 911
217 915
217 920
217 923
217 961
217 976
217 984
217 995
217 1000
217 1006
217 1009
217 1028
217 1046
217 1056
217 1058
217 1061
217 1096
217 1100
217 1103
217 1133
217 1137
217 1165
217 1168
217 1169
217 1225
217 1227
217 1274
217 1277
217 1283
217 1294
217 1304
217 1359
217 1372
217 1406
217 1409
217 1421
217 1434
217 1441
217 1450
217 1476
217 1493
217 1500
217 1526
217 1532
217 1545
217 1547
217 1586
217 1589
217 1607
217 1613
217 1628
217 1632
217 1641
217 1646
217 1653
217 1699
217 1711
217 1732
217 1745
217 1760
217 1782
217 1783
217 1799
217 1813
217 1817
217 1818
217 1867
217 1871
217 1878
217 1905
217 1930
217 1936
217 1952
217 1964
217 1965
217 1982
217 1990
217 1994
217 2012
217 2043
217 2069
217 2120
217 2154
217 2158
217 2195
217 2205
218 239
218 272
218 451
218 492
218 601
218 736
218 814
218 817
218 853
218 950
218 1014
218 1023
218 1034
218 1061
218 1125
218 1330
218 1356
218 1386
218 1411
218 1602
218 1724
218 1763
218 1813
218 1856
218 1973
218 2017
218 2045
218 2075
218 2082
218 2196
219 282
219 298
219 309
219 344
219 452
219 460
219 510
219 537
219 559
219 579
219 710
219 736
219 795
219 797
219 832
219 868
219 873
219 894
219 900
219 962
219 971
219 976
219 981
219 1048
219 1053
219 1063
219 1092
219 1117
219 1129
219 1131
219 1143
219 1154
219 1180
219 1196
219 1235
219 1372
219 1393
219 1453
219 1467
219 1474
219 1488
219 1489
219 1492
219 1538
219 1554
219 1565
219 1569
219 1572
219 1592
219 1716
219 1739
219 1745
219 1769
219 1774
219 1807
219 1850
219 1852
219 1885
219 1892
219 1960
219 1974
219 2012
219 2074
219 2085
219 2089
219 2099
219 2118
219 2156
219 2165
219 2195
219 2246
220 225
220 249
220 250
220 251
220 257
220 267
220 276
220 281
220 308
220 333
220 336
220 339
220 343
220 353
220 383
220 397
220 403
220 465
220 472
220 476
220 479
220 480
220 493
220 541
220 551
220 576
220 599
220 607
220 620
220 622
220 624
220 631
220 646
220 664
220 665
220 689
220 698
220 705
220 780
220 785
220 795
220 832
220 844
220 847
220 848
220 865
220 890
220 925
220 934
220 951
220 963
220 969
220 984
220 1008
220 1029
220 1030
220 1035
220 1040
220 1059
220 1066
220 1073
220 1084
220 1112
220 1128
220 1141
220 1145
220 1189
220 1223
220 1230
220 1240
220 1249
220 1260
220 1279
220 1289
220 1290
220 1298
220 1305
220 1311
220 1316
220 1324
220 1334
220 1336
220 1353
220 1355
220 1358
220 1376
220 1392
220 1430
220 1436
220 1448
220 1460
220 1463
220 1467
220 1473
220 1474
220 1492
220 1524
220 1546
220 1554
220 1558
220 1566
220 1574
220 1596
220 1607
220 1612
220 1613
220 1616
220 1637
220 1645
220 1647
220 1654
220 1657
220 1671
220 1679
220 1681
220 1690
220 1705
220 1706
220 1708
220 1720
220 1721
220 1730
220 1753
220 1756
220 1759
220 1761
220 1772
220 1782
220 1785
220 1790
220 1797
220 1805
220 1809
220 1818
220 1837
220 1838
220 1849
220 1850
220 1866
220 1869
220 1875
220 1883
220 1899
220 1901
220 1902
220 1906
220 1909
220 1917
220 1930
220 1949
220 1955
220 1962
220 1967
220 1985
220 1992
220 1995
220 2028
220 2035
220 2036
220 2040
220 2043
220 2065
220 2072
220 2076
220 2083
220 2102
220 2121
220 2161
220 2171
220 2186
220 2190
220 2206
220 2233
220 2248
221 234
221 249
221 251
221 259
221 286
221 297
221 300
221 305
221 309
221 316
221 320
221 328
221 332
221 339
221 352
221 362
221 370
221 374
221 378
221 406
221 422
221 424
221 430
221 434
221 437
221 446
221 447
221 455
221 472
221 478
221 481
221 486
221 489
221 494
221 499
221 505
221 514
221 515
221 528
221 539
221 544
221 553
221 573
221 587
221 589
221 606
221 608
221 610
221 624
221 627
221 632
221 687
221 690
221 706
221 710
221 712
221 723
221 731
221 738
221 744
221 746
221 762
221 773
221 783
221 790
221 794
221 798
221 811
221 813
221 832
221 839
221 843
221 844
221 845
221 848
221 867
221 880
221 883
221 886
221 890
221 892
221 895
221 907
221 915
221 917
221 918
221 923
221 924
221 938
221 939
221 941
221 942
221 960
221 969
221 977
221 985
221 987
221 990
221 994
221 1006
221 1009
221 1028
221 1029
221 1036
221 1043
221 1046
221 1065
221 1067
221 1089
221 1097
221 1100
221 1103
221 1122
221 1164
221 1168
221 1178
221 1181
221 1187
221 1205
221 1218
221 1222
221 1225
221 1230
221 1231
221 1236
221 1237
221 1246
221 1251
221 1258
221 1262
221 1264
221 1266
221 1276
221 1280
221 1282
221 1304
221 1309
221 1314
221 1318
221 1322
221 1329
221 1336
221 1346
221 1352
221 1369
221 1378
221 1406
221 1408
221 1413
221 1419
221 1424
221 1428
221 1431
221 1442
221 1450
221 1467
221 1470
221 1476
221 1482
221 1486
221 1497
221 1499
221 1507
221 1510
221 1526
221 1575
221 1600
221 1607
221 1628
221 1638
221 1662
221 1664
221 1688
221 1700
221 1704
221 1755
221 1759
221 1768
221 1771
221 1783
221 1788
221 1795
221 1799
221 1802
221 1803
221 1806
221 1813
221 1818
221 1832
221 1840
221 1851
221 1853
221 1877
221 1890
221 1891
221 1892
221 1895
221 1902
221 1924
221 1927
221 1928
221 1931
221 1939
221 1948
221 1949
221 1956
221 1969
221 1982
221 1988
221 1989
221 1994
221 2003
221 2006
221 2009
221 2010
221 2020
221 2031
221 2041
221 2046
221 2063
221 2080
221 2091
221 2107
221 2111
221 2118
221 2121
221 2123
221 2145
221 2153
221 2170
221 2175
221 2183
221 2189
221 2197
221 2222
221 2231
221 2248
222 226
222 282
222 294
222 302
222 355
222 360
222 362
222 367
222 385
222 406
222 410
222 432
222 441
222 460
222 510
222 525
222 527
222 557
222 578
222 579
222 629
222 641
222 694
222 699
222 741
222 768
222 855
222 873
222 887
222 894
222 923
222 998
222 1004
222 1080
222 1102
222 1112
222 1120
222 1137
222 1154
222 1179
222 1180
222 1213
222 1220
222 1227
222 1247
222 1265
222 1283
222 1338
222 1352
222 1389
222 1393
222 1398
222 1454
222 1463
222 1516
222 1547
222 1569
222 1594
222 1607
222 1688
222 1735
222 1749
222 1774
222 1775
222 1935
222 1938
222 1974
222 1994
222 2012
222 2016
222 2043
222 2091
222 2097
222 2104
222 2134
222 2188
222 2216
222 2231
222 2241
223 254
223 297
223 301
223 302
223 305
223 308
223 316
223 320
223 326
223 328
223 331
223 333
223 372
223 374
223 395
223 400
223 404
223 406
223 408
223 415
223 417
223 418
223 441
223 468
223 473
223 476
223 480
223 485
223 505
223 517
223 536
223 541
223 556
223 565
223 569
223 576
223 581
223 622
223 646
223 653
223 665
223 679
223 682
223 697
223 705
223 712
223 713
223 723
223 734
223 737
223 743
223 796
223 806
223 819
223 825
223 832
223 839
223 847
223 852
223 865
223 889
223 895
223 905
223 918
223 937
223 951
223 983
223 1006
223 1029
223 1030
223 1043
223 1046
223 1054
223 1061
223 1066
223 1068
223 1079
223 1086
223 1103
223 1109
223 1119
223 1155
223 1174
223 1182
223 1189
223 1200
223 1220
223 1241
223 1260
223 1270
223 1271
223 1279
223 1298
223 1325
223 1340
223 1370
223 1374
223 1376
223 1378
223 1388
223 1394
223 1408
223 1410
223 1421
223 1425
223 1430
223 1436
223 1459
223 1460
223 1468
223 1492
223 1504
223 1512
223 1566
223 1567
223 1622
223 1634
223 1642
223 1645
223 1654
223 1656
223 1671
223 1673
223 1679
223 1703
223 1711
223 1723
223 1732
223 1741
223 1747
223 1753
223 1755
223 1772
223 1774
223 1799
223 1802
223 1809
223 1818
223 1848
223 1863
223 1866
223 1875
223 1883
223 1890
223 1898
223 1902
223 1903
223 1923
223 1940
223 1947
223 1969
223 1995
223 2006
223 2034
223 2041
223 2042
223 2065
223 2069
223 2070
223 2072
223 2087
223 2091
223 2099
223 2110
223 2117
223 2133
223 2146
223 2157
223 2168
223 2173
223 2190
223 2197
223 2200
223 2206
223 2248
224 420
224 601
224 1034
224 1234
224 1275
224 1315
224 1386
224 1582
224 1606
224 1698
224 1714
224 1717
224 2014
224 2075
224 2185
225 232
225 273
225 302
225 309
225 313
225 339
225 351
225 353
225 384
225 399
225 416
225 419
225 425
225 479
225 486
225 511
225 532
225 552
225 621
225 656
225 723
225 811
225 828
225 829
225 834
225 848
225 897
225 954
225 984
225 1019
225 1044
225 1046
225 1063
225 1129
225 1132
225 1274
225 1311
225 1322
225 1324
225 1334
225 1336
225 1364
225 1380
225 1436
225 1474
225 1492
225 1554
225 1565
225 1596
225 1607
225 1611
225 1613
225 1628
225 1630
225 1633
225 1647
225 1669
225 1759
225 1769
225 1772
225 1790
225 1795
225 1805
225 1807
225 1829
225 1849
225 1850
225 1910
225 1938
225 1960
225 1965
225 1967
225 1985
225 2043
225 2074
225 2077
225 2110
225 2139
225 2153
225 2156
225 2165
225 2194
226 240
226 306
226 316
226 329
226 367
226 510
226 579
226 629
226 639
226 641
226 655
226 687
226 795
226 855
226 887
226 898
226 996
226 1004
226 1116
226 1193
226 1235
226 1322
226 1327
226 1338
226 1361
226 1363
226 1389
226 1406
226 1443
226 1487
226 1489
226 1649
226 1670
226 1735
226 1770
226 1885
226 1935
226 2089
226 2099
226 2188
226 2241
227 345
227 503
227 563
227 575
227 642
227 778
227 782
227 915
227 987
227 1029
227 1043
227 1064
227 1173
227 1176
227 1208
227 1246
227 1270
227 1391
227 1486
227 1527
227 1593
227 1625
227 1701
227 1929
227 2026
227 2083
227 2104
227 2189
227 2204
228 450
228 492
228 495
228 519
228 583
228 595
228 640
228 682
228 704
228 965
228 972
228 975
228 978
228 1007
228 1023
228 1050
228 1066
228 1148
228 1157
228 1166
228 1180
228 1196
228 1263
228 1275
228 1287
228 1291
228 1319
228 1373
228 1374
228 1386
228 1427
228 1474
228 1505
228 1509
228 1519
228 1525
228 1535
228 1551
228 1582
228 1636
228 1668
228 1683
228 1684
228 1685
228 1737
228 1755
228 1768
228 1833
228 1856
228 1873
228 1884
228 1907
228 1908
228 1949
228 1971
228 1973
228 2005
228 2017
228 2105
228 2119
228 2150
228 2178
228 2210
228 2227
228 2238
229 246
229 251
229 257
229 258
229 280
229 294
229 299
229 305
229 325
229 332
229 344
229 352
229 377
229 378
229 384
229 391
229 406
229 472
229 474
229 481
229 502
229 510
229 511
229 516
229 522
229 537
229 538
229 563
229 577
229 591
229 610
229 627
229 643
229 645
229 646
229 680
229 700
229 720
229 737
229 778
229 827
229 831
229 850
229 868
229 873
229 880
229 883
229 920
229 934
229 937
229 953
229 976
229 982
229 1006
229 1009
229 1029
229 1075
229 1089
229 1100
229 1103
229 1109
229 1112
229 1151
229 1154
229 1212
229 1225
229 1230
229 1233
229 1236
229 1241
229 1253
229 1277
229 1280
229 1283
229 1304
229 1321
229 1322
229 1367
229 1385
229 1393
229 1396
229 1397
229 1401
229 1408
229 1421
229 1424
229 1431
229 1434
229 1446
229 1452
229 1474
229 1478
229 1511
229 1520
229 1564
229 1565
229 1575
229 1587
229 1613
229 1632
229 1641
229 1643
229 1653
229 1719
229 1732
229 1743
229 1755
229 1796
229 1803
229 1805
229 1818
229 1859
229 1870
229 1890
229 1903
229 1911
229 1912
229 1948
229 1949
229 1952
229 1964
229 1974
229 1979
229 2012
229 2043
229 2085
229 2090
229 2091
229 2117
229 2158
229 2159
229 2174
229 2197
229 2222
229 2231
229 2235
230 275
230 395
230 446
230 462
230 552
230 561
230 607
230 612
230 620
230 643
230 697
230 737
230 861
230 866
230 899
230 938
230 1057
230 1059
230 1242
230 1353
230 1356
230 1370
230 1376
230 1385
230 1578
230 1671
230 1718
230 1762
230 1768
230 1824
230 1904
230 2017
230 2069
230 2160
230 2166
230 2174
230 2236
230 2249
231 262
231 267
231 313
231 333
231 336
231 377
231 381
231 389
231 425
231 479
231 485
231 488
231 522
231 594
231 607
231 610
231 737
231 751
231 780
231 795
231 809
231 818
231 832
231 844
231 847
231 848
231 922
231 954
231 1020
231 1029
231 1073
231 1109
231 1128
231 1182
231 1212
231 1298
231 1316
231 1322
231 1334
231 1358
231 1363
231 1364
231 1406
231 1424
231 1443
231 1460
231 1483
231 1504
231 1522
231 1634
231 1654
231 1670
231 1698
231 1706
231 1730
231 1860
231 1866
231 1896
231 1902
231 1904
231 1908
231 1995
231 2036
231 2086
231 2089
231 2100
231 2127
231 2190
231 2202
231 2206
231 2231
232 240
232 282
232 309
232 386
232 405
232 419
232 518
232 540
232 545
232 674
232 677
232 711
232 741
232 785
232 786
232 802
232 811
232 838
232 867
232 1000
232 1033
232 1048
232 1141
232 1225
232 1239
232 1312
232 1375
232 1382
232 1437
232 1441
232 1498
232 1569
232 1594
232 1611
232 1612
232 1619
232 1637
232 1646
232 1692
232 1726
232 1787
232 1807
232 1825
232 1852
232 1859
232 2025
232 2156
232 2165
232 2208
233 272
233 380
233 492
233 551
233 654
233 673
233 822
233 912
233 1072
233 1163
233 1330
233 1358
233 1381
233 1386
233 1978
233 2061
233 2075
233 2104
233 2207
233 2217
234 309
234 339
234 405
234 565
234 573
234 600
234 610
234 632
234 671
234 707
234 726
234 727
234 740
234 747
234 772
234 778
234 786
234 878
234 916
234 967
234 987
234 1067
234 1075
234 1106
234 1116
234 1122
234 1218
234 1222
234 1243
234 1264
234 1328
234 1351
234 1428
234 1432
234 1442
234 1749
234 1799
234 1862
234 1889
234 1956
234 1960
234 2141
234 2143
234 2170
234 2189
235 463
235 1021
235 1467
235 1485
235 1771
235 2177
235 2209
236 305
236 309
236 316
236 370
236 413
236 507
236 538
236 608
236 680
236 765
236 783
236 839
236 877
236 907
236 979
236 985
236 1015
236 1122
236 1152
236 1187
236 1195
236 1226
236 1231
236 1351
236 1419
236 1459
236 1489
236 1537
236 1628
236 1632
236 1711
236 1719
236 1783
236 1790
236 1794
236 1969
236 1988
236 2006
236 2070
236 2125
236 2139
237 273
237 280
237 281
237 284
237 298
237 320
237 332
237 344
237 369
237 377
237 386
237 391
237 399
237 415
237 420
237 469
237 487
237 493
237 500
237 513
237 514
237 574
237 622
237 627
237 651
237 656
237 660
237 667
237 699
237 702
237 707
237 712
237 713
237 729
237 757
237 767
237 787
237 806
237 826
237 858
237 882
237 918
237 923
237 924
237 942
237 953
237 995
237 1019
237 1020
237 1056
237 1100
237 1103
237 1133
237 1137
237 1220
237 1222
237 1227
237 1304
237 1329
237 1332
237 1349
237 1359
237 1401
237 1426
237 1440
237 1458
237 1474
237 1476
237 1485
237 1486
237 1492
237 1493
237 1503
237 1522
237 1526
237 1576
237 1589
237 1601
237 1610
237 1612
237 1613
237 1669
237 1694
237 1695
237 1697
237 1705
237 1709
237 1711
237 1721
237 1722
237 1739
237 1743
237 1753
237 1759
237 1795
237 1809
237 1849
237 1850
237 1859
237 1870
237 1898
237 1911
237 1952
237 1965
237 1989
237 2025
237 2035
237 2043
237 2098
237 2102
237 2103
237 2108
237 2117
237 2120
237 2147
237 2148
237 2157
237 2198
237 2205
237 2232
237 2235
238 266
238 281
238 285
238 313
238 328
238 384
238 406
238 424
238 439
238 479
238 499
238 565
238 568
238 594
238 603
238 610
238 626
238 631
238 635
238 647
238 656
238 666
238 688
238 713
238 727
238 738
238 747
238 755
238 771
238 772
238 783
238 786
238 799
238 801
238 828
238 844
238 845
238 852
238 865
238 878
238 916
238 917
238 977
238 1020
238 1021
238 1088
238 1129
238 1130
238 1160
238 1178
238 1293
238 1296
238 1298
238 1322
238 1328
238 1356
238 1364
238 1365
238 1387
238 1391
238 1408
238 1468
238 1483
238 1497
238 1499
238 1596
238 1654
238 1673
238 1706
238 1768
238 1802
238 1818
238 1838
238 1849
238 1862
238 1878
238 1880
238 1908
238 1932
238 1937
238 1975
238 1977
238 2009
238 2026
238 2175
238 2232
238 2233
238 2246
238 2248
239 260
239 272
239 292
239 401
239 451
239 551
239 673
239 753
239 959
239 1014
239 1023
239 1030
239 1253
239 1275
239 1291
239 1315
239 1330
239 1366
239 1370
239 1379
239 1381
239 1497
239 1502
239 1509
239 1644
239 1685
239 1724
239 1764
239 1813
239 1833
239 1841
239 1907
239 2014
239 2017
239 2040
239 2059
239 2060
239 2075
239 2082
239 2184
240 277
240 306
240 329
240 398
240 440
240 674
240 677
240 799
240 811
240 820
240 829
240 834
240 838
240 945
240 946
240 960
240 996
240 1000
240 1120
240 1127
240 1171
240 1193
240 1205
240 1213
240 1228
240 1239
240 1335
240 1340
240 1361
240 1375
240 1393
240 1530
240 1594
240 1692
240 1727
240 1735
240 1951
240 1994
240 2031
240 2048
240 2089
241 275
241 397
241 1169
241 1659
242 274
242 292
242 311
242 373
242 423
242 492
242 495
242 509
242 519
242 558
242 619
242 623
242 643
242 721
242 735
242 778
242 912
242 975
242 978
242 1050
242 1157
242 1196
242 1263
242 1275
242 1306
242 1315
242 1330
242 1366
242 1386
242 1468
242 1491
242 1495
242 1509
242 1536
242 1539
242 1672
242 1677
242 1685
242 1687
242 1698
242 1706
242 1714
242 1717
242 1821
242 1859
242 1884
242 1915
242 1921
242 1933
242 1943
242 2075
242 2221
242 2223
243 392
243 579
243 984
243 1004
244 280
244 319
244 326
244 340
244 400
244 430
244 476
244 552
244 569
244 607
244 663
244 705
244 812
244 824
244 825
244 831
244 847
244 893
244 919
244 938
244 940
244 983
244 1008
244 1029
244 1054
244 1059
244 1062
244 1066
244 1079
244 1107
244 1111
244 1133
244 1137
244 1176
244 1241
244 1289
244 1316
244 1320
244 1345
244 1354
244 1355
244 1430
244 1474
244 1476
244 1483
244 1488
244 1497
244 1506
244 1512
244 1642
244 1671
244 1673
244 1695
244 1707
244 1709
244 1720
244 1723
244 1809
244 1818
244 1824
244 1827
244 1837
244 1847
244 1911
244 1916
244 1962
244 1992
244 2010
244 2023
244 2033
244 2036
244 2087
244 2119
244 2146
244 2190
244 2200
244 2202
244 2206
245 348
245 357
245 424
245 498
245 506
245 515
245 592
245 670
245 690
245 694
245 733
245 745
245 747
245 748
245 816
245 878
245 985
245 988
245 1099
245 1126
245 1167
245 1346
245 1359
245 1400
245 1402
245 1405
245 1556
245 1938
245 2031
245 2032
246 265
246 267
246 304
246 312
246 336
246 368
246 369
246 383
246 384
246 388
246 395
246 397
246 425
246 469
246 474
246 476
246 480
246 481
246 541
246 559
246 561
246 577
246 645
246 659
246 700
246 705
246 731
246 809
246 831
246 883
246 890
246 899
246 920
246 934
246 937
246 947
246 953
246 1009
246 1029
246 1054
246 1065
246 1066
246 1073
246 1094
246 1109
246 1128
246 1145
246 1245
246 1264
246 1272
246 1280
246 1324
246 1355
246 1365
246 1367
246 1384
246 1429
246 1431
246 1470
246 1506
246 1511
246 1558
246 1643
246 1645
246 1690
246 1706
246 1720
246 1755
246 1803
246 1818
246 1828
246 1860
246 1863
246 1866
246 1875
246 1903
246 1955
246 2008
246 2023
246 2072
246 2080
246 2090
246 2091
246 2131
246 2162
246 2197
246 2222
246 2230
246 2233
247 292
247 303
247 359
247 363
247 375
247 411
247 450
247 492
247 495
247 528
247 553
247 640
247 704
247 712
247 714
247 728
247 753
247 782
247 875
247 912
247 978
247 1067
247 1082
247 1157
247 1166
247 1203
247 1275
247 1293
247 1315
247 1321
247 1326
247 1330
247 1341
247 1373
247 1381
247 1552
247 1561
247 1582
247 1583
247 1621
247 1636
247 1672
247 1713
247 1833
247 1884
247 1907
247 2190
248 528
248 531
248 580
248 647
248 732
248 769
248 776
248 801
248 852
248 869
248 948
248 1005
248 1106
248 1142
248 1152
248 1160
248 1164
248 1270
248 1282
248 1288
248 1321
248 1329
248 1351
248 1365
248 1408
248 1438
248 1562
248 1576
248 1584
248 1609
248 1635
248 1791
248 1799
248 1801
248 1802
248 1810
248 1840
248 1937
248 2020
248 2088
248 2095
248 2116
248 2124
248 2145
248 2183
248 2230
249 251
249 254
249 269
249 339
249 353
249 378
249 381
249 397
249 417
249 446
249 465
249 473
249 553
249 556
249 574
249 601
249 622
249 643
249 697
249 698
249 712
249 736
249 743
249 762
249 764
249 806
249 810
249 814
249 817
249 818
249 832
249 852
249 853
249 880
249 923
249 938
249 942
249 984
249 1040
249 1046
249 1054
249 1058
249 1059
249 1073
249 1089
249 1100
249 1107
249 1109
249 1111
249 1112
249 1125
249 1153
249 1189
249 1230
249 1232
249 1236
249 1289
249 1311
249 1324
249 1334
249 1336
249 1354
249 1356
249 1376
249 1392
249 1436
249 1473
249 1511
249 1533
249 1558
249 1587
249 1596
249 1607
249 1613
249 1628
249 1632
249 1647
249 1656
249 1664
249 1695
249 1720
249 1721
249 1732
249 1759
249 1772
249 1785
249 1790
249 1805
249 1809
249 1813
249 1818
249 1846
249 1849
249 1863
249 1877
249 1967
249 1985
249 2043
249 2045
249 2065
249 2069
249 2082
249 2121
249 2133
249 2186
249 2196
249 2202
249 2206
249 2233
250 265
250 281
250 282
250 294
250 340
250 374
250 418
250 424
250 429
250 431
250 460
250 489
250 521
250 528
250 546
250 552
250 563
250 625
250 633
250 647
250 656
250 696
250 708
250 734
250 738
250 771
250 776
250 785
250 839
250 847
250 924
250 935
250 992
250 1029
250 1066
250 1122
250 1142
250 1154
250 1179
250 1196
250 1227
250 1230
250 1235
250 1270
250 1293
250 1311
250 1321
250 1358
250 1363
250 1365
250 1375
250 1391
250 1408
250 1416
250 1438
250 1463
250 1468
250 1489
250 1515
250 1610
250 1616
250 1634
250 1639
250 1658
250 1692
250 1721
250 1799
250 1820
250 1838
250 1878
250 1880
250 1893
250 1902
250 1934
250 1948
250 1960
250 1975
250 2051
250 2086
250 2104
250 2127
250 2134
250 2156
250 2161
250 2183
250 2190
251 286
251 332
251 339
251 378
251 406
251 472
251 473
251 601
251 643
251 661
251 672
251 682
251 743
251 814
251 832
251 886
251 910
251 923
251 984
251 1056
251 1089
251 1104
251 1119
251 1230
251 1236
251 1277
251 1392
251 1409
251 1421
251 1434
251 1473
251 1491
251 1505
251 1613
251 1643
251 1647
251 1759
251 1813
251 1818
251 1835
251 1863
251 1875
251 1908
251 1917
251 1930
251 2015
251 2052
251 2064
251 2081
251 2121
251 2133
251 2148
252 282
252 295
252 313
252 463
252 528
252 610
252 712
252 713
252 785
252 803
252 905
252 938
252 954
252 1046
252 1066
252 1249
252 1262
252 1317
252 1318
252 1369
252 1391
252 1460
252 1463
252 1532
252 1554
252 1658
252 1818
252 1838
252 1962
252 2022
252 2051
252 2063
252 2104
253 266
253 269
253 270
253 273
253 279
253 282
253 309
253 320
253 325
253 327
253 332
253 351
253 386
253 415
253 418
253 422
253 426
253 454
253 486
253 502
253 504
253 505
253 525
253 535
253 540
253 542
253 579
253 585
253 645
253 651
253 656
253 668
253 672
253 674
253 699
253 726
253 764
253 769
253 784
253 786
253 811
253 828
253 869
253 873
253 887
253 897
253 904
253 918
253 920
253 938
253 942
253 960
253 961
253 976
253 979
253 994
253 1000
253 1006
253 1028
253 1033
253 1053
253 1058
253 1100
253 1116
253 1165
253 1169
253 1218
253 1230
253 1246
253 1266
253 1308
253 1339
253 1348
253 1356
253 1360
253 1364
253 1372
253 1406
253 1414
253 1434
253 1437
253 1450
253 1459
253 1474
253 1493
253 1500
253 1507
253 1516
253 1527
253 1550
253 1572
253 1575
253 1589
253 1590
253 1601
253 1603
253 1607
253 1613
253 1624
253 1630
253 1632
253 1633
253 1694
253 1697
253 1726
253 1732
253 1741
253 1744
253 1752
253 1759
253 1768
253 1774
253 1817
253 1835
253 1849
253 1851
253 1876
253 1898
253 1903
253 1920
253 1931
253 1965
253 1981
253 1982
253 1994
253 2012
253 2042
253 2069
253 2110
253 2117
253 2131
253 2148
253 2157
253 2194
253 2205
253 2234
253 2235
254 282
254 301
254 333
254 353
254 372
254 417
254 473
254 543
254 548
254 569
254 574
254 596
254 620
254 622
254 646
254 656
254 682
254 689
254 705
254 712
254 773
254 806
254 819
254 847
254 848
254 859
254 894
254 937
254 987
254 1029
254 1030
254 1049
254 1066
254 1155
254 1182
254 1189
254 1240
254 1241
254 1244
254 1260
254 1334
254 1342
254 1354
254 1355
254 1373
254 1374
254 1392
254 1421
254 1425
254 1436
254 1510
254 1532
254 1577
254 1616
254 1642
254 1706
254 1747
254 1858
254 1863
254 1865
254 1947
254 1949
254 1962
254 2001
254 2008
254 2065
254 2069
254 2072
254 2133
254 2137
254 2190
254 2197
254 2200
254 2206
254 2219
254 2233
255 328
255 354
255 437
255 515
255 671
255 783
255 790
255 798
255 816
255 985
255 990
255 1047
255 1099
255 1115
255 1126
255 1150
255 1164
255 1231
255 1256
255 1274
255 1292
255 1325
255 1348
255 1365
255 1661
255 1662
255 1680
255 1788
255 1840
255 1872
255 1961
255 1969
255 2125
255 2145
255 2218
255 2228
256 382
256 401
256 412
256 550
256 621
256 636
256 654
256 675
256 704
256 847
256 993
256 1082
256 1110
256 1250
256 1252
256 1553
256 1582
256 1583
256 1652
256 1682
256 1821
256 1833
256 2002
256 2113
256 2149
257 267
257 287
257 288
257 301
257 314
257 331
257 333
257 358
257 381
257 383
257 395
257 476
257 576
257 610
257 622
257 625
257 646
257 697
257 699
257 712
257 737
257 812
257 831
257 844
257 848
257 868
257 895
257 906
257 918
257 919
257 924
257 960
257 1006
257 1029
257 1064
257 1089
257 1154
257 1158
257 1230
257 1240
257 1244
257 1253
257 1283
257 1289
257 1290
257 1311
257 1334
257 1353
257 1355
257 1369
257 1370
257 1393
257 1444
257 1458
257 1460
257 1470
257 1476
257 1483
257 1575
257 1593
257 1612
257 1619
257 1625
257 1651
257 1690
257 1695
257 1706
257 1721
257 1751
257 1753
257 1755
257 1756
257 1761
257 1765
257 1772
257 1805
257 1809
257 1818
257 1837
257 1846
257 1863
257 1866
257 1883
257 1902
257 1947
257 1949
257 1955
257 1959
257 1974
257 2008
257 2037
257 2040
257 2069
257 2072
257 2081
257 2085
257 2090
257 2095
257 2104
257 2168
257 2191
257 2206
258 259
258 279
258 282
258 298
258 309
258 368
258 405
258 419
258 425
258 441
258 452
258 455
258 510
258 560
258 579
258 588
258 630
258 646
258 649
258 659
258 668
258 740
258 741
258 855
258 873
258 897
258 947
258 1010
258 1046
258 1053
258 1089
258 1092
258 1143
258 1179
258 1235
258 1238
258 1253
258 1264
258 1283
258 1322
258 1332
258 1333
258 1353
258 1372
258 1396
258 1414
258 1446
258 1454
258 1472
258 1487
258 1538
258 1710
258 1719
258 1722
258 1745
258 1765
258 1783
258 1831
258 1871
258 1875
258 1892
258 1910
258 1958
258 1974
258 1994
258 2090
258 2096
258 2099
258 2110
258 2118
258 2132
258 2188
258 2216
258 2231
259 316
259 332
259 351
259 356
259 405
259 428
259 441
259 494
259 506
259 542
259 560
259 579
259 672
259 695
259 699
259 711
259 797
259 911
259 960
259 976
259 1015
259 1028
259 1044
259 1100
259 1171
259 1179
259 1205
259 1225
259 1265
259 1283
259 1294
259 1335
259 1345
259 1378
259 1446
259 1450
259 1498
259 1500
259 1549
259 1628
259 1641
259 1651
259 1688
259 1774
259 1790
259 1850
259 1891
259 1926
259 1952
259 1964
259 1974
259 1990
259 2012
259 2048
259 2085
259 2091
259 2099
259 2118
259 2136
259 2158
259 2194
259 2216
260 359
260 509
260 519
260 570
260 598
260 638
260 640
260 875
260 950
260 1012
260 1030
260 1034
260 1157
260 1163
260 1201
260 1261
260 1410
260 1423
260 1479
260 1497
260 1529
260 1582
260 1614
260 1621
260 1821
260 1837
260 1915
260 2017
260 2045
260 2059
260 2060
260 2130
260 2247
261 508
261 1623
261 2100
261 2122
261 2167
261 2217
262 280
262 281
262 286
262 313
262 316
262 319
262 327
262 352
262 377
262 384
262 406
262 417
262 418
262 447
262 455
262 463
262 479
262 488
262 493
262 500
262 516
262 522
262 532
262 552
262 588
262 594
262 610
262 617
262 625
262 628
262 656
262 684
262 741
262 767
262 795
262 799
262 832
262 871
262 873
262 894
262 954
262 971
262 1006
262 1020
262 1040
262 1046
262 1073
262 1117
262 1132
262 1174
262 1176
262 1212
262 1220
262 1244
262 1246
262 1265
262 1268
262 1299
262 1322
262 1334
262 1335
262 1356
262 1358
262 1361
262 1363
262 1364
262 1406
262 1413
262 1420
262 1443
262 1460
262 1463
262 1474
262 1484
262 1488
262 1492
262 1504
262 1510
262 1518
262 1522
262 1554
262 1575
262 1596
262 1670
262 1709
262 1765
262 1804
262 1818
262 1820
262 1866
262 1878
262 1881
262 1901
262 1908
262 1910
262 1934
262 2037
262 2043
262 2086
262 2161
262 2167
262 2202
262 2235
263 328
263 352
263 500
263 552
263 594
263 826
263 918
263 966
263 977
263 992
263 1227
263 1246
263 1276
263 1314
263 1365
263 1768
263 2006
263 2046
263 2071
263 2103
264 272
264 281
264 451
264 475
264 476
264 571
264 714
264 853
264 1012
264 1031
264 1072
264 1252
264 1330
264 1509
264 1693
264 1921
264 1944
264 1945
264 1996
264 2036
264 2039
264 2150
265 281
265 381
265 500
265 552
265 594
265 607
265 625
265 679
265 705
265 708
265 788
265 812
265 889
265 902
265 1008
265 1011
265 1029
265 1033
265 1054
265 1055
265 1059
265 1062
265 1066
265 1079
265 1098
265 1255
265 1268
265 1289
265 1290
265 1320
265 1346
265 1354
265 1408
265 1430
265 1452
265 1483
265 1591
265 1612
265 1646
265 1659
265 1765
265 1809
265 1818
265 1822
265 1877
265 1886
265 1909
265 1910
265 1934
265 1940
265 1962
265 2023
265 2119
265 2127
265 2146
265 2157
266 273
266 285
266 343
266 399
266 406
266 430
266 434
266 442
266 499
266 525
266 610
266 626
266 631
266 666
266 688
266 699
266 732
266 783
266 786
266 791
266 826
266 828
266 869
266 878
266 907
266 917
266 948
266 977
266 1067
266 1075
266 1081
266 1129
266 1158
266 1160
266 1178
266 1225
266 1231
266 1266
266 1296
266 1298
266 1365
266 1384
266 1387
266 1429
266 1452
266 1497
266 1572
266 1576
266 1638
266 1654
266 1673
266 1690
266 1726
266 1730
266 1741
266 1759
266 1768
266 1791
266 1832
266 1849
266 1862
266 1912
266 1931
266 1932
266 1938
266 1965
266 1972
266 2040
266 2064
266 2088
266 2160
266 2168
266 2183
266 2233
266 2234
267 297
267 310
267 333
267 336
267 343
267 350
267 353
267 358
267 397
267 417
267 476
267 553
267 576
267 599
267 607
267 610
267 622
267 631
267 646
267 665
267 700
267 705
267 715
267 737
267 780
267 806
267 817
267 844
267 847
267 848
267 871
267 899
267 906
267 922
267 934
267 969
267 1017
267 1026
267 1029
267 1038
267 1054
267 1063
267 1066
267 1073
267 1084
267 1109
267 1111
267 1189
267 1191
267 1240
267 1241
267 1273
267 1290
267 1298
267 1305
267 1311
267 1316
267 1334
267 1353
267 1355
267 1369
267 1376
267 1425
267 1444
267 1452
267 1458
267 1460
267 1469
267 1473
267 1474
267 1483
267 1488
267 1511
267 1524
267 1546
267 1558
267 1567
267 1570
267 1574
267 1577
267 1581
267 1605
267 1645
267 1654
267 1657
267 1671
267 1706
267 1720
267 1730
267 1747
267 1752
267 1753
267 1761
267 1797
267 1805
267 1828
267 1837
267 1848
267 1866
267 1875
267 1883
267 1896
267 1899
267 1901
267 1902
267 1904
267 1909
267 1936
267 1962
267 1985
267 1995
267 2023
267 2036
267 2065
267 2066
267 2106
267 2138
267 2140
267 2171
267 2206
267 2235
267 2236
267 2248
268 811
268 1743
268 1996
268 2039
268 2174
269 273
269 291
269 302
269 332
269 334
269 344
269 419
269 428
269 517
269 536
269 582
269 624
269 629
269 729
269 741
269 757
269 880
269 895
269 911
269 923
269 961
269 966
269 1006
269 1009
269 1015
269 1071
269 1100
269 1104
269 1178
269 1225
269 1230
269 1236
269 1269
269 1277
269 1329
269 1349
269 1378
269 1387
269 1394
269 1395
269 1399
269 1409
269 1421
269 1434
269 1440
269 1486
269 1507
269 1589
269 1607
269 1626
269 1628
269 1632
269 1641
269 1651
269 1688
269 1700
269 1704
269 1732
269 1739
269 1741
269 1759
269 1795
269 1813
269 1818
269 1849
269 1923
269 1930
269 1938
269 1965
269 1966
269 1982
269 1990
269 1994
269 2041
269 2069
269 2110
269 2115
269 2118
269 2139
269 2145
269 2175
269 2205
269 2230
270 282
270 362
270 398
270 486
270 579
270 629
270 687
270 703
270 772
270 790
270 820
270 838
270 898
270 923
270 945
270 984
270 994
270 1046
270 1102
270 1115
270 1137
270 1226
270 1228
270 1361
270 1369
270 1396
270 1474
270 1565
270 1675
270 1727
270 1799
270 1876
270 1994
270 2031
270 2118
270 2235
271 335
271 359
271 371
271 496
271 508
271 570
271 638
271 654
271 775
271 822
271 950
271 1007
271 1034
271 1066
271 1123
271 1201
271 1214
271 1529
271 1552
271 1614
271 1621
271 1684
271 1821
271 1838
271 1915
271 1946
271 2002
271 2045
271 2075
271 2130
271 2171
271 2178
271 2238
272 292
272 382
272 401
272 455
272 495
272 508
272 551
272 571
272 595
272 601
272 673
272 737
272 751
272 753
272 814
272 908
272 931
272 950
272 1012
272 1023
272 1034
272 1041
272 1095
272 1153
272 1157
272 1196
272 1241
272 1250
272 1252
272 1275
272 1287
272 1330
272 1376
272 1381
272 1386
272 1411
272 1502
272 1509
272 1568
272 1644
272 1660
272 1676
272 1685
272 1717
272 1724
272 1764
272 1811
272 1813
272 1814
272 1833
272 1834
272 1875
272 1879
272 1921
272 1944
272 1945
272 1946
272 1971
272 1973
272 2007
272 2017
272 2044
272 2054
272 2075
272 2082
272 2112
272 2130
272 2196
272 2223
273 291
273 302
273 309
273 405
273 407
273 419
273 427
273 434
273 486
273 498
273 517
273 528
273 536
273 552
273 579
273 587
273 647
273 663
273 702
273 723
273 724
273 729
273 734
273 741
273 773
273 839
273 847
273 872
273 895
273 896
273 913
273 915
273 918
273 922
273 923
273 937
273 938
273 954
273 966
273 971
273 973
273 1006
273 1019
273 1033
273 1056
273 1086
273 1118
273 1133
273 1141
273 1178
273 1244
273 1274
273 1309
273 1310
273 1325
273 1329
273 1348
273 1356
273 1393
273 1399
273 1425
273 1426
273 1440
273 1442
273 1443
273 1454
273 1493
273 1507
273 1527
273 1626
273 1628
273 1630
273 1638
273 1646
273 1704
273 1722
273 1741
273 1759
273 1768
273 1773
273 1779
273 1782
273 1799
273 1801
273 1849
273 1853
273 1859
273 1863
273 1867
273 1885
273 1889
273 1930
273 1932
273 1937
273 1938
273 1966
273 1972
273 1982
273 1990
273 2008
273 2020
273 2038
273 2047
273 2051
273 2055
273 2072
273 2086
273 2110
273 2115
273 2134
273 2142
273 2151
273 2153
273 2175
273 2194
273 2234
273 2246
274 330
274 363
274 371
274 382
274 491
274 534
274 558
274 598
274 601
274 638
274 652
274 704
274 728
274 753
274 782
274 817
274 854
274 875
274 925
274 926
274 942
274 957
274 975
274 978
274 1007
274 1027
274 1031
274 1034
274 1045
274 1082
274 1153
274 1157
274 1202
274 1315
274 1330
274 1381
274 1386
274 1411
274 1423
274 1429
274 1488
274 1509
274 1525
274 1538
274 1539
274 1548
274 1551
274 1561
274 1585
274 1620
274 1621
274 1636
274 1672
274 1676
274 1687
274 1714
274 1751
274 1834
274 1839
274 1900
274 1971
274 2001
274 2054
274 2056
274 2113
274 2153
274 2211
274 2223
274 2242
275 368
275 378
275 381
275 395
275 397
275 417
275 447
275 462
275 466
275 543
275 561
275 591
275 643
275 645
275 723
275 861
275 874
275 938
275 1018
275 1046
275 1057
275 1089
275 1094
275 1107
275 1119
275 1232
275 1236
275 1242
275 1272
275 1277
275 1339
275 1370
275 1376
275 1385
275 1409
275 1421
275 1431
275 1473
275 1533
275 1536
275 1542
275 1564
275 1613
275 1641
275 1643
275 1671
275 1681
275 1706
275 1708
275 1718
275 1813
275 1818
275 1824
275 1855
275 1865
275 1870
275 1875
275 1879
275 1894
275 1911
275 1916
275 1942
275 2003
275 2069
275 2091
275 2160
275 2213
275 2249
276 331
276 374
276 381
276 427
276 462
276 553
276 569
276 596
276 602
276 643
276 653
276 812
276 832
276 873
276 886
276 889
276 890
276 937
276 1008
276 1029
276 1030
276 1054
276 1057
276 1062
276 1066
276 1089
276 1107
276 1155
276 1176
276 1267
276 1306
276 1355
276 1384
276 1431
276 1461
276 1473
276 1505
276 1506
276 1546
276 1648
276 1664
276 1681
276 1747
276 1755
276 1818
276 1837
276 1847
276 1848
276 1883
276 1886
276 1940
276 1992
276 1995
276 2010
276 2023
276 2036
276 2052
276 2056
276 2065
276 2069
276 2087
276 2091
276 2197
277 309
277 357
277 405
277 430
277 438
277 575
277 677
277 768
277 771
277 838
277 905
277 1010
277 1037
277 1053
277 1115
277 1136
277 1137
277 1226
277 1239
277 1336
277 1359
277 1375
277 1393
277 1569
277 1594
277 1692
277 1783
277 1787
277 1994
277 2025
277 2097
277 2201
277 2243
278 313
278 316
278 329
278 405
278 406
278 407
278 431
278 438
278 511
278 517
278 528
278 547
278 567
278 575
278 594
278 600
278 610
278 633
278 647
278 684
278 685
278 696
278 702
278 736
278 773
278 777
278 785
278 795
278 810
278 839
278 905
278 935
278 954
278 979
278 1029
278 1103
278 1130
278 1262
278 1285
278 1307
278 1340
278 1361
278 1363
278 1383
278 1406
278 1408
278 1419
278 1443
278 1547
278 1643
278 1646
278 1658
278 1662
278 1722
278 1754
278 1768
278 1794
278 1799
278 1803
278 1818
278 1838
278 1853
278 1881
278 1889
278 1907
278 1911
278 1975
278 2006
278 2018
278 2026
278 2047
278 2063
278 2086
278 2104
278 2144
278 2153
278 2176
278 2177
278 2181
278 2186
278 2193
278 2209
278 2230
278 2246
279 282
279 327
279 362
279 406
279 418
279 432
279 438
279 441
279 452
279 540
279 560
279 579
279 615
279 617
279 637
279 674
279 702
279 740
279 741
279 773
279 802
279 826
279 872
279 905
279 981
279 1019
279 1024
279 1042
279 1089
279 1138
279 1169
279 1212
279 1307
279 1396
279 1452
279 1507
279 1538
279 1584
279 1619
279 1653
279 1719
279 1722
279 1731
279 1741
279 1799
279 1852
279 1855
279 1968
279 2047
279 2090
279 2104
279 2129
279 2134
280 286
280 295
280 319
280 325
280 332
280 340
280 344
280 345
280 360
280 406
280 420
280 433
280 447
280 481
280 486
280 500
280 502
280 504
280 514
280 516
280 524
280 525
280 613
280 617
280 624
280 642
280 659
280 660
280 662
280 699
280 720
280 736
280 767
280 795
280 799
280 873
280 887
280 900
280 923
280 925
280 938
280 987
280 1009
280 1056
280 1058
280 1059
280 1064
280 1080
280 1109
280 1111
280 1112
280 1134
280 1155
280 1163
280 1176
280 1236
280 1238
280 1247
280 1257
280 1277
280 1318
280 1325
280 1332
280 1340
280 1349
280 1356
280 1358
280 1382
280 1385
280 1391
280 1401
280 1436
280 1441
280 1446
280 1458
280 1474
280 1484
280 1485
280 1492
280 1493
280 1497
280 1498
280 1518
280 1520
280 1554
280 1607
280 1625
280 1632
280 1640
280 1669
280 1678
280 1721
280 1732
280 1761
280 1765
280 1771
280 1818
280 1827
280 1862
280 1866
280 1911
280 1929
280 1948
280 1979
280 1981
280 1982
280 2037
280 2043
280 2069
280 2076
280 2081
280 2102
280 2107
280 2108
280 2139
280 2147
280 2148
280 2161
280 2176
280 2186
280 2231
281 282
281 289
281 302
281 313
281 326
281 327
281 340
281 341
281 344
281 374
281 406
281 410
281 418
281 424
281 427
281 429
281 431
281 438
281 447
281 460
281 474
281 476
281 478
281 479
281 488
281 505
281 516
281 526
281 527
281 540
281 546
281 567
281 568
281 569
281 586
281 588
281 594
281 603
281 607
281 610
281 633
281 656
281 680
281 684
281 696
281 708
281 713
281 738
281 768
281 769
281 771
281 777
281 785
281 794
281 795
281 797
281 801
281 812
281 824
281 827
281 839
281 847
281 880
281 889
281 894
281 898
281 900
281 905
281 915
281 924
281 935
281 938
281 960
281 979
281 981
281 992
281 1006
281 1008
281 1020
281 1021
281 1029
281 1033
281 1043
281 1046
281 1063
281 1066
281 1090
281 1116
281 1117
281 1125
281 1137
281 1147
281 1154
281 1156
281 1163
281 1173
281 1174
281 1195
281 1196
281 1204
281 1220
281 1227
281 1230
281 1235
281 1238
281 1241
281 1247
281 1262
281 1286
281 1293
281 1304
281 1308
281 1311
281 1312
281 1318
281 1322
281 1332
281 1340
281 1358
281 1361
281 1363
281 1364
281 1365
281 1375
281 1383
281 1389
281 1391
281 1395
281 1398
281 1406
281 1408
281 1416
281 1419
281 1429
281 1443
281 1452
281 1459
281 1463
281 1474
281 1476
281 1484
281 1486
281 1489
281 1492
281 1515
281 1518
281 1521
281 1530
281 1531
281 1554
281 1575
281 1579
281 1611
281 1612
281 1616
281 1619
281 1637
281 1646
281 1647
281 1649
281 1658
281 1662
281 1670
281 1673
281 1692
281 1707
281 1709
281 1711
281 1721
281 1722
281 1723
281 1735
281 1746
281 1754
281 1799
281 1802
281 1804
281 1818
281 1820
281 1836
281 1838
281 1853
281 1866
281 1871
281 1878
281 1880
281 1883
281 1893
281 1902
281 1908
281 1911
281 1928
281 1951
281 1960
281 1975
281 1995
281 2006
281 2022
281 2025
281 2026
281 2043
281 2052
281 2065
281 2066
281 2081
281 2086
281 2089
281 2099
281 2104
281 2127
281 2134
281 2139
281 2153
281 2176
281 2177
281 2181
281 2183
281 2186
281 2191
281 2216
281 2232
281 2235
281 2246
282 289
282 294
282 296
282 298
282 302
282 305
282 309
282 316
282 332
282 344
282 358
282 362
282 363
282 369
282 377
282 386
282 391
282 394
282 399
282 405
282 406
282 410
282 413
282 416
282 424
282 425
282 427
282 428
282 429
282 432
282 441
282 447
282 448
282 452
282 454
282 460
282 463
282 468
282 469
282 472
282 476
282 478
282 486
282 500
282 504
282 507
282 517
282 525
282 527
282 540
282 545
282 546
282 547
282 552
282 560
282 578
282 585
282 587
282 596
282 600
282 603
282 610
282 615
282 617
282 622
282 624
282 627
282 637
282 646
282 657
282 670
282 680
282 702
282 708
282 711
282 712
282 723
282 729
282 737
282 738
282 741
282 743
282 757
282 767
282 771
282 773
282 786
282 787
282 794
282 803
282 806
282 810
282 818
282 828
282 839
282 867
282 872
282 882
282 887
282 894
282 898
282 900
282 905
282 918
282 924
282 938
282 953
282 954
282 971
282 979
282 992
282 1006
282 1015
282 1029
282 1030
282 1043
282 1046
282 1053
282 1058
282 1061
282 1063
282 1066
282 1090
282 1100
282 1103
282 1121
282 1125
282 1129
282 1133
282 1143
282 1147
282 1154
282 1168
282 1169
282 1173
282 1180
282 1187
282 1189
282 1204
282 1212
282 1218
282 1220
282 1225
282 1226
282 1227
282 1235
282 1240
282 1241
282 1249
282 1285
282 1294
282 1305
282 1308
282 1310
282 1311
282 1312
282 1314
282 1323
282 1325
282 1345
282 1356
282 1361
282 1370
282 1372
282 1376
282 1382
282 1389
282 1391
282 1392
282 1394
282 1395
282 1396
282 1398
282 1413
282 1432
282 1436
282 1440
282 1441
282 1454
282 1463
282 1474
282 1486
282 1489
282 1492
282 1493
282 1511
282 1526
282 1540
282 1547
282 1549
282 1554
282 1565
282 1571
282 1578
282 1579
282 1581
282 1584
282 1601
282 1612
282 1613
282 1616
282 1619
282 1628
282 1641
282 1649
282 1651
282 1653
282 1656
282 1662
282 1680
282 1686
282 1688
282 1692
282 1694
282 1697
282 1706
282 1722
282 1732
282 1736
282 1739
282 1741
282 1742
282 1744
282 1745
282 1749
282 1753
282 1771
282 1774
282 1783
282 1787
282 1794
282 1799
282 1800
282 1802
282 1817
282 1818
282 1820
282 1832
282 1842
282 1850
282 1851
282 1852
282 1858
282 1865
282 1867
282 1871
282 1875
282 1885
282 1889
282 1892
282 1895
282 1898
282 1903
282 1912
282 1930
282 1934
282 1938
282 1941
282 1952
282 1956
282 1968
282 1982
282 1993
282 1994
282 2010
282 2012
282 2022
282 2026
282 2027
282 2047
282 2050
282 2051
282 2069
282 2072
282 2080
282 2081
282 2086
282 2089
282 2091
282 2097
282 2104
282 2107
282 2110
282 2118
282 2129
282 2134
282 2136
282 2139
282 2142
282 2165
282 2166
282 2173
282 2186
282 2191
282 2195
282 2201
282 2216
282 2232
282 2233
282 2234
282 2249
283 814
283 908
283 1027
283 1263
283 1879
283 2078
284 377
284 399
284 488
284 511
284 514
284 525
284 539
284 607
284 608
284 699
284 787
284 790
284 888
284 1019
284 1046
284 1048
284 1098
284 1179
284 1225
284 1230
284 1241
284 1247
284 1283
284 1294
284 1307
284 1309
284 1322
284 1349
284 1380
284 1414
284 1443
284 1486
284 1503
284 1506
284 1515
284 1518
284 1522
284 1527
284 1560
284 1646
284 1653
284 1658
284 1669
284 1700
284 1703
284 1726
284 1750
284 1762
284 1783
284 1818
284 1825
284 1859
284 1908
284 1988
284 1998
284 2003
284 2018
284 2043
284 2072
284 2076
284 2098
284 2101
284 2118
284 2138
284 2140
284 2195
284 2205
284 2243
285 301
285 308
285 312
285 316
285 350
285 353
285 364
285 366
285 374
285 400
285 414
285 417
285 439
285 455
285 465
285 503
285 531
285 553
285 565
285 569
285 610
285 626
285 631
285 666
285 682
285 697
285 723
285 727
285 743
285 783
285 786
285 808
285 818
285 844
285 847
285 848
285 852
285 865
285 869
285 880
285 907
285 925
285 941
285 948
285 963
285 969
285 983
285 1015
285 1021
285 1029
285 1052
285 1054
285 1062
285 1064
285 1067
285 1073
285 1091
285 1097
285 1103
285 1111
285 1130
285 1158
285 1240
285 1270
285 1279
285 1289
285 1294
285 1296
285 1370
285 1387
285 1414
285 1429
285 1497
285 1558
285 1566
285 1567
285 1576
285 1605
285 1612
285 1625
285 1654
285 1656
285 1673
285 1690
285 1701
285 1703
285 1706
285 1768
285 1791
285 1794
285 1799
285 1848
285 1862
285 1877
285 1902
285 1904
285 1910
285 1917
285 1923
285 1929
285 1931
285 1932
285 1940
285 1949
285 1967
285 1977
285 2036
285 2040
285 2042
285 2088
285 2137
285 2168
285 2183
285 2213
285 2216
285 2248
286 289
286 299
286 316
286 319
286 325
286 332
286 344
286 360
286 384
286 397
286 406
286 420
286 427
286 447
286 472
286 474
286 478
286 486
286 500
286 504
286 510
286 516
286 522
286 526
286 568
286 569
286 610
286 616
286 645
286 653
286 662
286 699
286 720
286 736
286 778
286 794
286 795
286 812
286 841
286 846
286 848
286 873
286 881
286 886
286 889
286 894
286 920
286 923
286 924
286 938
286 957
286 984
286 1020
286 1043
286 1046
286 1058
286 1059
286 1073
286 1117
286 1125
286 1139
286 1176
286 1179
286 1220
286 1230
286 1233
286 1236
286 1238
286 1247
286 1272
286 1277
286 1283
286 1290
286 1307
286 1318
286 1322
286 1349
286 1356
286 1358
286 1365
286 1385
286 1391
286 1401
286 1406
286 1434
286 1443
286 1460
286 1461
286 1474
286 1486
286 1504
286 1506
286 1514
286 1517
286 1520
286 1533
286 1554
286 1565
286 1575
286 1581
286 1607
286 1641
286 1681
286 1708
286 1709
286 1715
286 1716
286 1720
286 1738
286 1743
286 1746
286 1772
286 1780
286 1818
286 1837
286 1859
286 1862
286 1866
286 1870
286 1886
286 1908
286 1911
286 1979
286 1980
286 2010
286 2012
286 2043
286 2051
286 2052
286 2081
286 2087
286 2089
286 2102
286 2159
286 2161
286 2165
286 2167
286 2174
286 2189
286 2246
287 339
287 478
287 565
287 697
287 737
287 784
287 834
287 895
287 918
287 938
287 988
287 1154
287 1249
287 1283
287 1301
287 1355
287 1358
287 1364
287 1369
287 1370
287 1391
287 1393
287 1395
287 1408
287 1440
287 1532
287 1554
287 1596
287 1607
287 1616
287 1637
287 1647
287 1651
287 1736
287 1748
287 1754
287 1761
287 1790
287 1795
287 1827
287 1849
287 1878
287 1938
287 1974
287 2009
287 2010
287 2028
287 2083
287 2085
287 2091
287 2175
287 2181
288 301
288 331
288 332
288 356
288 381
288 417
288 476
288 491
288 541
288 625
288 643
288 906
288 922
288 924
288 925
288 937
288 1029
288 1107
288 1128
288 1158
288 1230
288 1232
288 1236
288 1244
288 1255
288 1298
288 1339
288 1421
288 1450
288 1470
288 1480
288 1500
288 1511
288 1673
288 1706
288 1721
288 1732
288 1751
288 1756
288 1802
288 1809
288 1846
288 1863
288 1875
288 1883
288 1955
288 2065
288 2069
288 2072
288 2121
288 2160
288 2168
288 2173
288 2248
289 295
289 319
289 352
289 360
289 406
289 420
289 429
289 463
289 479
289 522
289 527
289 528
289 546
289 662
289 702
289 785
289 796
289 880
289 915
289 938
289 977
289 1125
289 1204
289 1227
289 1230
289 1241
289 1257
289 1307
289 1312
289 1317
289 1318
289 1332
289 1356
289 1377
289 1391
289 1395
289 1397
289 1401
289 1439
289 1463
289 1484
289 1485
289 1640
289 1673
289 1740
289 1753
289 1771
289 1818
289 2022
289 2043
289 2104
289 2126
289 2134
289 2161
289 2174
289 2191
289 2233
289 2234
289 2249
290 512
290 555
290 642
290 1346
290 1450
290 1835
290 1954
290 2220
291 300
291 302
291 316
291 320
291 351
291 368
291 370
291 417
291 438
291 442
291 500
291 515
291 532
291 539
291 560
291 589
291 592
291 603
291 622
291 632
291 709
291 723
291 731
291 785
291 797
291 843
291 878
291 894
291 895
291 905
291 907
291 923
291 973
291 1006
291 1015
291 1019
291 1029
291 1033
291 1081
291 1086
291 1100
291 1106
291 1117
291 1137
291 1143
291 1152
291 1178
291 1218
291 1228
291 1264
291 1268
291 1280
291 1325
291 1329
291 1338
291 1340
291 1370
291 1378
291 1393
291 1450
291 1453
291 1474
291 1507
291 1538
291 1615
291 1628
291 1629
291 1638
291 1664
291 1731
291 1739
291 1741
291 1745
291 1753
291 1782
291 1787
291 1799
291 1801
291 1803
291 1832
291 1859
291 1889
291 1895
291 1903
291 1930
291 1937
291 1938
291 1960
291 1966
291 1972
291 1988
291 2089
291 2096
291 2110
291 2115
291 2134
291 2139
291 2158
291 2161
291 2189
291 2193
291 2246
292 330
292 359
292 363
292 375
292 411
292 415
292 423
292 449
292 451
292 475
292 482
292 484
292 492
292 495
292 519
292 534
292 562
292 570
292 598
292 621
292 623
292 625
292 640
292 654
292 671
292 675
292 734
292 750
292 753
292 779
292 815
292 854
292 875
292 912
292 931
292 972
292 978
292 986
292 1012
292 1029
292 1034
292 1045
292 1050
292 1072
292 1082
292 1093
292 1095
292 1101
292 1110
292 1142
292 1148
292 1153
292 1157
292 1162
292 1163
292 1166
292 1196
292 1206
292 1234
292 1244
292 1252
292 1254
292 1263
292 1275
292 1287
292 1315
292 1330
292 1362
292 1373
292 1379
292 1381
292 1386
292 1423
292 1451
292 1491
292 1509
292 1525
292 1531
292 1536
292 1539
292 1551
292 1553
292 1573
292 1582
292 1583
292 1595
292 1602
292 1620
292 1621
292 1636
292 1668
292 1672
292 1676
292 1685
292 1687
292 1698
292 1712
292 1717
292 1724
292 1764
292 1784
292 1811
292 1821
292 1834
292 1873
292 1902
292 1907
292 1915
292 1933
292 1940
292 1971
292 2044
292 2061
292 2064
292 2075
292 2082
292 2105
292 2178
292 2184
292 2207
292 2210
292 2211
292 2223
292 2224
292 2227
292 2238
292 2242
292 2244
293 362
293 430
293 582
293 634
293 706
293 887
293 1080
293 1168
293 1549
293 1556
293 1842
293 1905
293 1910
293 1994
294 302
294 312
294 327
294 399
294 405
294 415
294 417
294 425
294 441
294 475
294 481
294 486
294 505
294 511
294 579
294 586
294 648
294 659
294 678
294 687
294 700
294 711
294 723
294 741
294 778
294 787
294 806
294 826
294 867
294 883
294 938
294 947
294 953
294 954
294 960
294 971
294 1005
294 1009
294 1046
294 1056
294 1070
294 1094
294 1129
294 1133
294 1137
294 1249
294 1265
294 1280
294 1322
294 1338
294 1394
294 1406
294 1429
294 1441
294 1475
294 1492
294 1493
294 1511
294 1522
294 1526
294 1554
294 1579
294 1638
294 1647
294 1667
294 1669
294 1755
294 1759
294 1792
294 1799
294 1802
294 1803
294 1859
294 1889
294 1892
294 1908
294 1912
294 1930
294 1960
294 1968
294 1969
294 1987
294 1994
294 2014
294 2028
294 2041
294 2074
294 2085
294 2110
294 2118
294 2162
294 2177
294 2197
294 2219
295 299
295 384
295 406
295 474
295 504
295 522
295 527
295 599
295 635
295 648
295 720
295 736
295 738
295 794
295 795
295 799
295 846
295 900
295 920
295 924
295 938
295 969
295 1000
295 1066
295 1112
295 1125
295 1147
295 1173
295 1204
295 1227
295 1283
295 1312
295 1318
295 1356
295 1377
295 1382
295 1391
295 1395
295 1414
295 1439
295 1440
295 1463
295 1612
295 1616
295 1632
295 1640
295 1658
295 1707
295 1709
295 1721
295 1732
295 1743
295 1783
295 1800
295 1818
295 1827
295 1838
295 1858
295 1908
295 1911
295 1992
295 2015
295 2043
295 2050
295 2091
295 2102
295 2104
295 2107
295 2126
295 2138
295 2162
295 2174
295 2176
295 2177
295 2191
295 2204
295 2232
295 2235
295 2236
296 552
296 699
296 723
296 858
296 960
296 1000
296 1096
296 1226
296 1286
296 1308
296 1310
296 1349
296 1514
296 1669
296 1762
296 1803
296 1807
296 1818
296 1838
296 1859
296 1867
296 1904
296 1926
296 1938
296 1968
296 2131
297 336
297 352
297 381
297 389
297 408
297 414
297 421
297 478
297 517
297 533
297 541
297 569
297 575
297 585
297 607
297 610
297 625
297 631
297 646
297 665
297 679
297 682
297 716
297 743
297 744
297 746
297 776
297 778
297 780
297 783
297 801
297 805
297 819
297 825
297 843
297 844
297 847
297 848
297 859
297 865
297 913
297 922
297 937
297 963
297 965
297 979
297 992
297 1017
297 1059
297 1075
297 1104
297 1158
297 1180
297 1190
297 1200
297 1201
297 1223
297 1258
297 1262
297 1274
297 1282
297 1292
297 1298
297 1323
297 1340
297 1365
297 1404
297 1419
297 1421
297 1425
297 1430
297 1440
297 1448
297 1459
297 1460
297 1492
297 1512
297 1546
297 1567
297 1634
297 1636
297 1654
297 1662
297 1664
297 1665
297 1673
297 1679
297 1690
297 1701
297 1723
297 1730
297 1755
297 1782
297 1812
297 1817
297 1818
297 1832
297 1895
297 1902
297 1904
297 1923
297 1930
297 1931
297 1937
297 1947
297 1962
297 2008
297 2040
297 2053
297 2061
297 2063
297 2069
297 2129
297 2153
297 2155
297 2169
297 2171
297 2173
297 2193
297 2206
298 368
298 441
298 446
298 494
298 560
298 579
298 668
298 688
298 695
298 700
298 710
298 726
298 737
298 740
298 760
298 835
298 947
298 1053
298 1092
298 1131
298 1143
298 1179
298 1217
298 1221
298 1235
298 1264
298 1283
298 1367
298 1414
298 1467
298 1549
298 1572
298 1579
298 1615
298 1651
298 1731
298 1745
298 1774
298 1850
298 1855
298 1859
298 1874
298 1892
298 1958
298 1987
298 2099
298 2118
298 2162
298 2177
299 312
299 332
299 344
299 374
299 377
299 406
299 408
299 447
299 478
299 481
299 504
299 505
299 541
299 568
299 588
299 616
299 643
299 645
299 657
299 670
299 701
299 720
299 755
299 819
299 827
299 850
299 858
299 920
299 957
299 973
299 990
299 1020
299 1043
299 1053
299 1058
299 1071
299 1140
299 1195
299 1236
299 1277
299 1322
299 1364
299 1367
299 1385
299 1387
299 1424
299 1450
299 1474
299 1520
299 1532
299 1533
299 1555
299 1587
299 1589
299 1632
299 1634
299 1709
299 1715
299 1732
299 1743
299 1802
299 1818
299 1835
299 1911
299 1932
299 2026
299 2069
299 2076
299 2091
299 2117
299 2120
299 2174
300 320
300 362
300 406
300 413
300 419
300 487
300 506
300 512
300 513
300 521
300 539
300 663
300 669
300 671
300 701
300 731
300 746
300 893
300 919
300 930
300 940
300 948
300 967
300 973
300 985
300 1005
300 1011
300 1067
300 1079
300 1106
300 1122
300 1133
300 1137
300 1152
300 1154
300 1167
300 1178
300 1245
300 1251
300 1264
300 1270
300 1304
300 1347
300 1351
300 1359
300 1391
300 1394
300 1402
300 1410
300 1414
300 1426
300 1428
300 1438
300 1510
300 1547
300 1609
300 1626
300 1635
300 1704
300 1705
300 1709
300 1711
300 1721
300 1735
300 1783
300 1822
300 1888
300 1889
300 1911
300 1927
300 1938
300 1966
300 1972
300 1976
300 1983
300 2034
300 2041
300 2083
300 2096
300 2098
300 2101
300 2110
300 2115
300 2116
300 2120
300 2124
300 2129
300 2141
300 2146
300 2179
300 2189
300 2205
300 2232
301 314
301 333
301 372
301 378
301 404
301 465
301 476
301 480
301 541
301 576
301 610
301 612
301 622
301 625
301 646
301 665
301 682
301 705
301 780
301 895
301 918
301 924
301 983
301 1054
301 1059
301 1068
301 1091
301 1128
301 1142
301 1158
301 1223
301 1244
301 1253
301 1270
301 1271
301 1289
301 1311
301 1393
301 1410
301 1444
301 1448
301 1458
301 1470
301 1511
301 1558
301 1612
301 1625
301 1656
301 1673
301 1690
301 1706
301 1720
301 1751
301 1753
301 1763
301 1768
301 1802
301 1804
301 1805
301 1846
301 1860
301 1863
301 1864
301 1883
301 1890
301 1893
301 1902
301 1916
301 1923
301 1931
301 1947
301 1955
301 1993
301 2009
301 2011
301 2037
301 2040
301 2042
301 2069
301 2072
301 2095
301 2104
301 2168
301 2248
301 2249
302 317
302 320
302 326
302 327
302 339
302 358
302 362
302 368
302 377
302 386
302 405
302 410
302 413
302 416
302 418
302 419
302 425
302 426
302 427
302 468
302 469
302 474
302 477
302 478
302 479
302 486
302 487
302 494
302 505
302 514
302 517
302 518
302 525
302 526
302 528
302 532
302 540
302 565
302 579
302 582
302 586
302 587
302 596
302 606
302 610
302 620
302 624
302 642
302 645
302 656
302 663
302 678
302 694
302 707
302 711
302 723
302 724
302 740
302 741
302 746
302 749
302 763
302 765
302 767
302 780
302 784
302 786
302 803
302 806
302 826
302 848
302 869
302 872
302 873
302 895
302 911
302 916
302 918
302 924
302 935
302 952
302 953
302 971
302 976
302 978
302 979
302 980
302 984
302 987
302 1006
302 1010
302 1029
302 1033
302 1037
302 1038
302 1043
302 1052
302 1056
302 1058
302 1061
302 1062
302 1064
302 1065
302 1070
302 1078
302 1083
302 1086
302 1090
302 1098
302 1099
302 1100
302 1106
302 1112
302 1114
302 1118
302 1119
302 1132
302 1136
302 1154
302 1173
302 1209
302 1222
302 1227
302 1246
302 1251
302 1255
302 1266
302 1270
302 1274
302 1277
302 1283
302 1299
302 1325
302 1327
302 1336
302 1354
302 1365
302 1372
302 1380
302 1393
302 1399
302 1401
302 1406
302 1409
302 1413
302 1414
302 1425
302 1428
302 1434
302 1440
302 1442
302 1447
302 1454
302 1459
302 1468
302 1476
302 1493
302 1498
302 1507
302 1510
302 1524
302 1527
302 1532
302 1540
302 1564
302 1565
302 1569
302 1576
302 1579
302 1581
302 1584
302 1589
302 1591
302 1596
302 1602
302 1603
302 1607
302 1619
302 1626
302 1630
302 1633
302 1638
302 1647
302 1656
302 1667
302 1669
302 1670
302 1679
302 1680
302 1694
302 1704
302 1705
302 1709
302 1711
302 1717
302 1726
302 1739
302 1741
302 1759
302 1774
302 1788
302 1791
302 1796
302 1799
302 1804
302 1816
302 1817
302 1818
302 1822
302 1829
302 1859
302 1878
302 1888
302 1892
302 1897
302 1898
302 1903
302 1908
302 1910
302 1912
302 1923
302 1931
302 1938
302 1950
302 1959
302 1960
302 1962
302 1964
302 1969
302 1974
302 1975
302 1982
302 1988
302 1989
302 2001
302 2006
302 2022
302 2025
302 2026
302 2031
302 2035
302 2042
302 2085
302 2087
302 2097
302 2099
302 2100
302 2104
302 2115
302 2120
302 2123
302 2124
302 2127
302 2129
302 2134
302 2139
302 2141
302 2147
302 2152
302 2157
302 2185
302 2188
302 2189
302 2194
302 2200
302 2230
302 2231
303 359
303 714
303 1162
303 1254
303 1326
303 1341
303 1494
303 1724
303 1833
303 2237
304 382
304 612
304 619
304 958
304 1060
304 1263
304 1491
304 1551
304 1563
304 1606
304 1698
304 1714
304 1757
304 2075
305 316
305 370
305 413
305 415
305 416
305 424
305 430
305 444
305 481
305 505
305 507
305 511
305 515
305 517
305 528
305 575
305 582
305 596
305 608
305 622
305 623
305 627
305 633
305 647
305 679
305 680
305 720
305 723
305 731
305 765
305 767
305 778
305 803
305 830
305 839
305 843
305 877
305 881
305 890
305 917
305 920
305 924
305 947
305 979
305 990
305 1009
305 1019
305 1024
305 1029
305 1046
305 1065
305 1075
305 1099
305 1103
305 1106
305 1126
305 1152
305 1169
305 1174
305 1187
305 1215
305 1220
305 1224
305 1226
305 1237
305 1246
305 1266
305 1280
305 1304
305 1337
305 1344
305 1365
305 1367
305 1368
305 1384
305 1408
305 1429
305 1431
305 1440
305 1443
305 1453
305 1459
305 1467
305 1468
305 1507
305 1512
305 1537
305 1643
305 1704
305 1748
305 1755
305 1788
305 1799
305 1802
305 1803
305 1804
305 1818
305 1836
305 1887
305 1890
305 1892
305 1912
305 1928
305 1948
305 1987
305 1988
305 1992
305 2006
305 2031
305 2034
305 2041
305 2049
305 2080
305 2088
305 2131
305 2139
305 2183
305 2191
305 2197
305 2225
305 2246
305 2248
306 329
306 398
306 418
306 460
306 579
306 629
306 639
306 641
306 749
306 790
306 836
306 923
306 996
306 1083
306 1193
306 1213
306 1361
306 1390
306 1727
306 1775
306 1910
306 2182
306 2188
306 2241
307 417
307 524
307 787
307 871
307 1094
307 1313
307 1445
307 1483
307 1506
307 1824
307 2069
307 2102
308 326
308 328
308 353
308 364
308 372
308 378
308 406
308 473
308 493
308 519
308 538
308 541
308 553
308 556
308 567
308 580
308 581
308 646
308 653
308 682
308 700
308 705
308 780
308 798
308 818
308 819
308 825
308 832
308 844
308 852
308 865
308 951
308 1029
308 1066
308 1088
308 1111
308 1124
308 1164
308 1182
308 1200
308 1220
308 1243
308 1244
308 1274
308 1279
308 1298
308 1311
308 1324
308 1342
308 1384
308 1425
308 1456
308 1469
308 1471
308 1499
308 1593
308 1605
308 1643
308 1654
308 1656
308 1665
308 1673
308 1690
308 1706
308 1730
308 1747
308 1753
308 1754
308 1755
308 1772
308 1828
308 1840
308 1869
308 1878
308 1940
308 1969
308 1977
308 2040
308 2064
308 2070
308 2139
308 2167
308 2168
308 2190
308 2197
308 2200
308 2233
309 324
309 350
309 391
309 399
309 405
309 407
309 419
309 424
309 425
309 428
309 434
309 488
309 493
309 512
309 528
309 539
309 547
309 573
309 587
309 593
309 628
309 637
309 642
309 699
309 701
309 702
309 707
309 710
309 712
309 717
309 723
309 731
309 746
309 785
309 787
309 810
309 811
309 839
309 877
309 896
309 897
309 907
309 929
309 954
309 973
309 987
309 990
309 1005
309 1015
309 1033
309 1046
309 1063
309 1065
309 1066
309 1067
309 1075
309 1081
309 1100
309 1106
309 1116
309 1122
309 1132
309 1135
309 1136
309 1137
309 1139
309 1152
309 1178
309 1218
309 1222
309 1235
309 1239
309 1245
309 1264
309 1266
309 1270
309 1285
309 1300
309 1309
309 1314
309 1322
309 1329
309 1336
309 1346
309 1370
309 1372
309 1375
309 1393
309 1394
309 1402
309 1428
309 1432
309 1438
309 1442
309 1453
309 1472
309 1489
309 1569
309 1572
309 1584
309 1592
309 1626
309 1628
309 1630
309 1705
309 1722
309 1726
309 1736
309 1739
309 1745
309 1768
309 1769
309 1790
309 1799
309 1801
309 1802
309 1822
309 1830
309 1836
309 1849
309 1850
309 1853
309 1885
309 1889
309 1892
309 1910
309 1912
309 1938
309 1960
309 1962
309 1966
309 2021
309 2035
309 2041
309 2047
309 2089
309 2094
309 2096
309 2110
309 2115
309 2123
309 2134
309 2141
309 2170
309 2179
309 2189
310 333
310 358
310 576
310 599
310 607
310 741
310 812
310 817
310 847
310 848
310 865
310 922
310 969
310 1055
310 1240
310 1253
310 1273
310 1305
310 1311
310 1353
310 1355
310 1444
310 1445
310 1448
310 1460
310 1492
310 1546
310 1567
310 1574
310 1580
310 1730
310 1761
310 1797
310 1875
310 1883
310 1901
310 1902
310 1909
310 2037
310 2106
310 2159
310 2171
310 2206
310 2238
311 411
311 519
311 675
311 728
311 912
311 1698
311 2044
311 2075
311 2230
312 326
312 350
312 353
312 364
312 366
312 374
312 381
312 406
312 408
312 414
312 531
312 556
312 563
312 576
312 647
312 657
312 659
312 664
312 670
312 679
312 700
312 701
312 712
312 716
312 721
312 743
312 755
312 808
312 818
312 819
312 825
312 844
312 847
312 848
312 850
312 852
312 865
312 890
312 893
312 920
312 922
312 925
312 934
312 953
312 969
312 1029
312 1038
312 1062
312 1068
312 1071
312 1079
312 1084
312 1097
312 1109
312 1111
312 1200
312 1223
312 1240
312 1241
312 1245
312 1279
312 1280
312 1289
312 1334
312 1387
312 1408
312 1424
312 1431
312 1448
312 1470
312 1483
312 1558
312 1566
312 1567
312 1605
312 1622
312 1634
312 1643
312 1665
312 1673
312 1679
312 1701
312 1703
312 1723
312 1755
312 1802
312 1803
312 1848
312 1902
312 1903
312 1923
312 1929
312 1977
312 1995
312 2023
312 2042
312 2066
312 2091
312 2100
312 2109
312 2169
312 2197
312 2200
312 2206
312 2213
312 2222
312 2248
313 327
313 329
313 377
313 379
313 382
313 384
313 391
313 399
313 401
313 407
313 419
313 431
313 448
313 463
313 479
313 488
313 493
313 500
313 522
313 532
313 548
313 550
313 594
313 603
313 628
313 636
313 637
313 656
313 684
313 704
313 713
313 736
313 774
313 785
313 787
313 795
313 832
313 837
313 864
313 906
313 924
313 935
313 938
313 954
313 960
313 1000
313 1013
313 1020
313 1066
313 1116
313 1132
313 1154
313 1169
313 1186
313 1212
313 1220
313 1225
313 1227
313 1230
313 1261
313 1285
313 1287
313 1299
313 1311
313 1318
313 1319
313 1322
313 1332
313 1358
313 1361
313 1363
313 1364
313 1375
313 1391
313 1406
313 1413
313 1424
313 1443
313 1460
313 1463
313 1469
313 1474
313 1486
313 1488
313 1504
313 1510
313 1518
313 1522
313 1526
313 1530
313 1540
313 1554
313 1569
313 1596
313 1647
313 1658
313 1660
313 1670
313 1692
313 1735
313 1803
313 1818
313 1827
313 1829
313 1838
313 1852
313 1866
313 1881
313 1894
313 1900
313 1908
313 1934
313 1975
313 1985
313 1998
313 2005
313 2010
313 2018
313 2025
313 2036
313 2050
313 2051
313 2086
313 2089
313 2104
313 2127
313 2144
313 2153
313 2175
313 2177
313 2186
313 2198
313 2222
313 2235
314 353
314 476
314 480
314 486
314 541
314 556
314 569
314 620
314 622
314 625
314 705
314 716
314 743
314 812
314 825
314 847
314 906
314 919
314 924
314 969
314 1052
314 1062
314 1066
314 1200
314 1230
314 1244
314 1255
314 1298
314 1305
314 1365
314 1369
314 1431
314 1447
314 1448
314 1458
314 1470
314 1483
314 1511
314 1596
314 1612
314 1625
314 1654
314 1665
314 1673
314 1679
314 1690
314 1706
314 1747
314 1753
314 1755
314 1756
314 1763
314 1772
314 1802
314 1805
314 1808
314 1809
314 1818
314 1866
314 1883
314 1899
314 1947
314 1959
314 1962
314 2040
314 2072
314 2095
314 2100
314 2104
314 2133
314 2168
314 2197
315 2182
316 323
316 329
316 352
316 377
316 384
316 399
316 406
316 407
316 419
316 428
316 441
316 443
316 454
316 479
316 518
316 522
316 525
316 536
316 579
316 587
316 594
316 600
316 627
316 629
316 633
316 637
316 674
316 680
316 684
316 702
316 705
316 706
316 737
316 760
316 773
316 787
316 795
316 807
316 830
316 834
316 839
316 872
316 881
316 897
316 911
316 918
316 938
316 941
316 944
316 947
316 954
316 955
316 960
316 981
316 984
316 1006
316 1010
316 1015
316 1020
316 1029
316 1042
316 1046
316 1066
316 1075
316 1096
316 1108
316 1116
316 1125
316 1127
316 1132
316 1138
316 1143
316 1171
316 1179
316 1193
316 1205
316 1221
316 1222
316 1226
316 1235
316 1247
316 1285
316 1299
316 1310
316 1320
316 1322
316 1332
316 1335
316 1356
316 1358
316 1359
316 1361
316 1363
316 1371
316 1393
316 1397
316 1413
316 1414
316 1420
316 1421
316 1432
316 1443
316 1450
316 1454
316 1460
316 1463
316 1467
316 1472
316 1476
316 1489
316 1492
316 1504
316 1510
316 1518
316 1522
316 1530
316 1565
316 1569
316 1575
316 1576
316 1577
316 1598
316 1640
316 1670
316 1699
316 1722
316 1726
316 1735
316 1744
316 1746
316 1769
316 1783
316 1794
316 1799
316 1803
316 1807
316 1818
316 1825
316 1829
316 1831
316 1850
316 1866
316 1883
316 1908
316 1910
316 1926
316 1951
316 1953
316 1958
316 1966
316 2003
316 2018
316 2021
316 2027
316 2048
316 2086
316 2089
316 2091
316 2092
316 2099
316 2101
316 2110
316 2118
316 2127
316 2134
316 2136
316 2143
316 2195
316 2198
316 2201
316 2216
316 2243
317 340
317 361
317 402
317 426
317 474
317 479
317 489
317 516
317 552
317 586
317 603
317 606
317 620
317 718
317 723
317 765
317 769
317 780
317 826
317 924
317 935
317 1038
317 1062
317 1083
317 1098
317 1118
317 1136
317 1255
317 1266
317 1289
317 1290
317 1312
317 1318
317 1322
317 1332
317 1354
317 1420
317 1476
317 1492
317 1499
317 1554
317 1591
317 1603
317 1630
317 1646
317 1673
317 1716
317 1763
317 1775
317 1804
317 1818
317 1822
317 1870
317 1931
317 1989
317 2100
317 2104
317 2139
317 2157
317 2175
317 2185
317 2188
317 2200
317 2235
318 325
318 344
318 481
318 617
318 887
318 1013
318 1019
318 1134
318 1185
318 1238
318 1332
318 1478
318 1480
318 1610
318 1678
318 1766
318 1818
318 1911
318 2076
318 2108
319 340
319 406
319 433
319 447
319 461
319 462
319 463
319 489
319 504
319 588
319 617
319 628
319 660
319 795
319 871
319 906
319 938
319 957
319 977
319 1040
319 1059
319 1066
319 1134
319 1212
319 1240
319 1332
319 1334
319 1358
319 1391
319 1401
319 1424
319 1436
319 1463
319 1474
319 1484
319 1485
319 1488
319 1497
319 1518
319 1577
319 1678
319 1745
319 1771
319 1818
319 1827
319 1979
319 1987
319 2043
319 2051
319 2104
319 2139
319 2148
319 2161
319 2186
320 327
320 339
320 362
320 405
320 406
320 410
320 419
320 422
320 438
320 460
320 485
320 513
320 536
320 539
320 567
320 582
320 587
320 681
320 699
320 705
320 706
320 709
320 713
320 734
320 740
320 773
320 777
320 839
320 905
320 919
320 936
320 940
320 955
320 990
320 1006
320 1011
320 1015
320 1033
320 1053
320 1081
320 1100
320 1133
320 1137
320 1168
320 1174
320 1212
320 1222
320 1226
320 1260
320 1264
320 1265
320 1304
320 1308
320 1329
320 1336
320 1344
320 1347
320 1359
320 1387
320 1390
320 1393
320 1398
320 1399
320 1402
320 1414
320 1426
320 1435
320 1450
320 1476
320 1507
320 1547
320 1569
320 1628
320 1640
320 1695
320 1700
320 1704
320 1705
320 1709
320 1711
320 1721
320 1745
320 1754
320 1759
320 1783
320 1787
320 1788
320 1794
320 1795
320 1799
320 1801
320 1818
320 1840
320 1867
320 1902
320 1911
320 1932
320 1976
320 2034
320 2035
320 2086
320 2098
320 2103
320 2110
320 2118
320 2120
320 2129
320 2141
320 2146
320 2189
320 2201
320 2205
320 2232
320 2246
321 871
321 1529
321 1593
321 1814
322 749
322 996
322 1083
323 337
323 403
323 419
323 454
323 494
323 510
323 579
323 641
323 655
323 737
323 873
323 887
323 1015
323 1100
323 1116
323 1222
323 1235
323 1335
323 1363
323 1375
323 1474
323 1498
323 1565
323 1598
323 1722
323 1744
323 1749
323 1774
323 1794
323 1796
323 1958
323 1964
323 2004
323 2136
323 2188
323 2216
323 2241
323 2243
324 344
324 368
324 405
324 407
324 419
324 425
324 443
324 489
324 536
324 552
324 573
324 605
324 684
324 823
324 896
324 904
324 923
324 930
324 954
324 1015
324 1053
324 1067
324 1081
324 1115
324 1139
324 1152
324 1171
324 1178
324 1226
324 1230
324 1241
324 1309
324 1312
324 1356
324 1394
324 1453
324 1472
324 1540
324 1626
324 1731
324 1739
324 1748
324 1762
324 1779
324 1799
324 1801
324 1881
324 1889
324 1892
324 1932
324 1966
324 1974
324 1990
324 2031
324 2041
324 2115
324 2118
324 2123
324 2141
324 2175
324 2189
324 2201
325 406
325 463
325 472
325 478
325 542
325 617
325 643
325 662
325 699
325 720
325 795
325 873
325 886
325 920
325 923
325 961
325 980
325 984
325 1009
325 1024
325 1056
325 1058
325 1080
325 1100
325 1134
325 1185
325 1230
325 1236
325 1277
325 1332
325 1378
325 1382
325 1385
325 1397
325 1409
325 1421
325 1434
325 1480
325 1533
325 1586
325 1589
325 1610
325 1632
325 1641
325 1678
325 1688
325 1796
325 1818
325 1855
325 1876
325 1908
325 1990
325 2012
325 2051
325 2081
325 2107
325 2108
325 2121
325 2148
326 328
326 344
326 350
326 358
326 372
326 414
326 418
326 422
326 485
326 500
326 533
326 537
326 552
326 556
326 576
326 625
326 646
326 649
326 682
326 696
326 697
326 705
326 708
326 712
326 773
326 824
326 825
326 844
326 847
326 848
326 893
326 894
326 900
326 905
326 922
326 924
326 965
326 976
326 983
326 987
326 1017
326 1029
326 1054
326 1063
326 1066
326 1121
326 1142
326 1154
326 1173
326 1180
326 1204
326 1220
326 1271
326 1286
326 1293
326 1301
326 1308
326 1354
326 1370
326 1410
326 1430
326 1431
326 1463
326 1483
326 1492
326 1524
326 1526
326 1538
326 1554
326 1642
326 1673
326 1701
326 1711
326 1716
326 1747
326 1755
326 1761
326 1768
326 1772
326 1785
326 1789
326 1799
326 1802
326 1805
326 1809
326 1818
326 1837
326 1848
326 1866
326 1878
326 1880
326 1883
326 1902
326 1904
326 1911
326 1923
326 1934
326 1969
326 1975
326 1977
326 1993
326 2010
326 2026
326 2037
326 2046
326 2100
326 2173
326 2190
326 2197
326 2200
326 2206
327 356
327 369
327 394
327 399
327 413
327 430
327 452
327 454
327 511
327 518
327 526
327 540
327 545
327 547
327 594
327 617
327 627
327 637
327 656
327 674
327 702
327 709
327 711
327 723
327 729
327 737
327 741
327 757
327 773
327 784
327 811
327 867
327 872
327 888
327 941
327 947
327 955
327 960
327 979
327 1015
327 1019
327 1020
327 1024
327 1029
327 1043
327 1046
327 1075
327 1096
327 1133
327 1165
327 1169
327 1205
327 1280
327 1283
327 1304
327 1356
327 1358
327 1394
327 1406
327 1414
327 1426
327 1441
327 1486
327 1575
327 1578
327 1579
327 1619
327 1630
327 1632
327 1669
327 1694
327 1709
327 1711
327 1722
327 1735
327 1788
327 1799
327 1802
327 1803
327 1849
327 1852
327 1859
327 1888
327 1889
327 1891
327 1892
327 1903
327 1908
327 1934
327 2047
327 2086
327 2099
327 2110
327 2127
327 2131
327 2134
327 2186
327 2204
327 2205
328 352
328 353
328 354
328 374
328 406
328 424
328 437
328 478
328 519
328 521
328 528
328 538
328 565
328 575
328 581
328 610
328 631
328 653
328 670
328 701
328 705
328 725
328 727
328 741
328 772
328 783
328 798
328 839
328 844
328 848
328 852
328 869
328 913
328 951
328 970
328 977
328 979
328 983
328 990
328 992
328 1062
328 1071
328 1088
328 1130
328 1160
328 1164
328 1185
328 1243
328 1256
328 1274
328 1279
328 1348
328 1365
328 1387
328 1424
328 1429
328 1459
328 1468
328 1480
328 1499
328 1596
328 1612
328 1638
328 1656
328 1713
328 1753
328 1768
328 1809
328 1825
328 1840
328 1853
328 1872
328 1878
328 1893
328 1934
328 1948
328 1962
328 1963
328 1969
328 1975
328 1977
328 1983
328 2006
328 2020
328 2070
328 2088
328 2153
328 2183
328 2186
328 2235
329 384
329 398
329 488
329 518
329 579
329 594
329 637
329 639
329 690
329 749
329 790
329 834
329 954
329 960
329 996
329 1020
329 1083
329 1127
329 1193
329 1213
329 1218
329 1228
329 1299
329 1322
329 1338
329 1358
329 1361
329 1363
329 1375
329 1389
329 1390
329 1413
329 1443
329 1530
329 1670
329 1727
329 1735
329 1775
329 1908
329 2027
329 2048
329 2049
329 2086
329 2089
329 2127
329 2131
329 2188
330 382
330 595
330 638
330 658
330 817
330 1007
330 1230
330 1275
330 1341
330 1373
330 1386
330 1411
330 1477
330 1509
330 1582
330 1856
330 2196
331 332
331 337
331 360
331 364
331 383
331 406
331 453
331 461
331 462
331 472
331 473
331 476
331 485
331 491
331 524
331 548
331 553
331 567
331 569
331 596
331 601
331 646
331 653
331 682
331 699
331 712
331 737
331 812
331 819
331 825
331 831
331 859
331 861
331 889
331 906
331 925
331 934
331 937
331 942
331 957
331 1029
331 1066
331 1107
331 1155
331 1176
331 1182
331 1233
331 1242
331 1247
331 1255
331 1267
331 1277
331 1290
331 1342
331 1370
331 1384
331 1391
331 1415
331 1431
331 1461
331 1470
331 1480
331 1501
331 1505
331 1506
331 1681
331 1700
331 1720
331 1747
331 1755
331 1758
331 1772
331 1774
331 1818
331 1824
331 1837
331 1847
331 1866
331 1875
331 1883
331 1886
331 1894
331 1942
331 1984
331 1992
331 2036
331 2056
331 2065
331 2069
331 2087
331 2090
331 2091
331 2133
331 2146
331 2160
331 2172
331 2187
331 2190
331 2197
331 2200
331 2202
331 2233
331 2235
332 344
332 351
332 356
332 377
332 384
332 406
332 422
332 446
332 472
332 481
332 486
332 494
332 513
332 514
332 517
332 525
332 536
332 606
332 624
332 629
332 643
332 699
332 711
332 720
332 722
332 723
332 724
332 729
332 741
332 756
332 773
332 783
332 790
332 795
332 828
332 830
332 880
332 886
332 910
332 911
332 920
332 923
332 938
332 941
332 942
332 984
332 1006
332 1009
332 1035
332 1044
332 1048
332 1056
332 1100
332 1104
332 1119
332 1129
332 1133
332 1137
332 1168
332 1169
332 1225
332 1227
332 1232
332 1236
332 1265
332 1274
332 1277
332 1283
332 1304
332 1322
332 1327
332 1338
332 1349
332 1369
332 1370
332 1378
332 1392
332 1397
332 1409
332 1413
332 1414
332 1421
332 1434
332 1450
332 1467
332 1473
332 1474
332 1486
332 1487
332 1491
332 1493
332 1500
332 1503
332 1507
332 1520
332 1532
332 1533
332 1545
332 1586
332 1589
332 1600
332 1613
332 1616
332 1628
332 1632
332 1641
332 1643
332 1646
332 1695
332 1697
332 1709
332 1711
332 1720
332 1721
332 1732
332 1743
332 1759
332 1774
332 1782
332 1783
332 1788
332 1796
332 1813
332 1817
332 1818
332 1835
332 1849
332 1859
332 1863
332 1875
332 1876
332 1878
332 1911
332 1930
332 1952
332 1965
332 1981
332 1990
332 1994
332 2012
332 2026
332 2052
332 2065
332 2069
332 2081
332 2098
332 2110
332 2117
332 2120
332 2121
332 2129
332 2131
332 2133
332 2146
332 2147
332 2148
332 2158
332 2174
332 2205
332 2225
333 350
333 353
333 372
333 400
333 408
333 531
333 556
333 576
333 580
333 581
333 599
333 607
333 625
333 633
333 646
333 647
333 665
333 679
333 743
333 763
333 801
333 806
333 825
333 831
333 844
333 847
333 848
333 865
333 895
333 905
333 918
333 920
333 935
333 951
333 983
333 992
333 1029
333 1030
333 1062
333 1079
333 1097
333 1111
333 1142
333 1158
333 1240
333 1244
333 1253
333 1270
333 1273
333 1277
333 1288
333 1290
333 1298
333 1311
333 1334
333 1370
333 1373
333 1393
333 1436
333 1448
333 1456
333 1460
333 1473
333 1492
333 1512
333 1546
333 1562
333 1566
333 1574
333 1580
333 1609
333 1634
333 1635
333 1642
333 1656
333 1662
333 1665
333 1673
333 1679
333 1701
333 1706
333 1723
333 1732
333 1753
333 1756
333 1761
333 1797
333 1802
333 1805
333 1837
333 1875
333 1899
333 1901
333 1902
333 1904
333 1923
333 1955
333 1969
333 1977
333 1995
333 2037
333 2040
333 2042
333 2069
333 2072
333 2100
333 2124
333 2168
333 2169
333 2171
333 2206
333 2248
334 399
334 402
334 403
334 405
334 417
334 433
334 479
334 494
334 518
334 545
334 608
334 614
334 628
334 656
334 723
334 724
334 729
334 835
334 918
334 923
334 938
334 941
334 943
334 954
334 1006
334 1043
334 1044
334 1049
334 1075
334 1103
334 1134
334 1166
334 1205
334 1266
334 1269
334 1276
334 1301
334 1314
334 1364
334 1368
334 1369
334 1429
334 1450
334 1474
334 1488
334 1527
334 1540
334 1561
334 1618
334 1678
334 1795
334 1803
334 1806
334 1818
334 1825
334 1891
334 1959
334 2043
334 2046
334 2073
334 2091
334 2107
334 2139
334 2148
334 2175
334 2186
334 2231
335 416
335 509
335 519
335 570
335 598
335 638
335 673
335 721
335 742
335 753
335 782
335 912
335 950
335 978
335 1012
335 1045
335 1082
335 1157
335 1201
335 1203
335 1373
335 1423
335 1479
335 1529
335 1539
335 1573
335 1582
335 1614
335 1668
335 1800
335 1833
335 1942
335 1973
335 1999
335 2045
335 2104
335 2105
335 2130
335 2227
336 343
336 389
336 541
336 607
336 610
336 631
336 665
336 699
336 780
336 809
336 844
336 847
336 848
336 922
336 1029
336 1054
336 1069
336 1073
336 1109
336 1128
336 1191
336 1290
336 1298
336 1311
336 1316
336 1334
336 1353
336 1355
336 1460
336 1564
336 1577
336 1634
336 1654
336 1730
336 1753
336 1761
336 1797
336 1860
336 1863
336 1875
336 1896
336 1901
336 1904
336 1947
336 1962
336 2040
336 2043
336 2100
336 2104
336 2190
336 2206
336 2248
337 344
337 360
337 406
337 479
337 510
337 522
337 579
337 699
337 872
337 873
337 887
337 894
337 925
337 942
337 957
337 1046
337 1112
337 1143
337 1212
337 1327
337 1332
337 1415
337 1550
337 1720
337 1743
337 1774
337 1827
337 2029
337 2136
337 2174
337 2176
339 343
339 353
339 407
339 434
339 465
339 476
339 499
339 501
339 530
339 536
339 594
339 642
339 698
339 707
339 710
339 733
339 746
339 764
339 786
339 831
339 834
339 960
339 984
339 988
339 1015
339 1035
339 1040
339 1053
339 1065
339 1112
339 1116
339 1136
339 1160
339 1189
339 1239
339 1243
339 1264
339 1304
339 1309
339 1311
339 1324
339 1336
339 1372
339 1384
339 1392
339 1434
339 1436
339 1437
339 1463
339 1556
339 1565
339 1589
339 1596
339 1607
339 1613
339 1628
339 1633
339 1637
339 1647
339 1705
339 1721
339 1739
339 1749
339 1759
339 1769
339 1772
339 1774
339 1790
339 1796
339 1805
339 1836
339 1849
339 1850
339 1869
339 1892
339 1917
339 1965
339 1967
339 1970
339 1974
339 1980
339 1985
339 2012
339 2024
339 2028
339 2035
339 2043
339 2102
339 2110
339 2123
339 2134
339 2156
339 2157
339 2186
339 2189
339 2192
339 2194
340 352
340 353
340 370
340 416
340 431
340 478
340 500
340 528
340 565
340 608
340 680
340 705
340 708
340 744
340 767
340 783
340 803
340 844
340 848
340 912
340 924
340 939
340 979
340 982
340 992
340 1009
340 1016
340 1130
340 1170
340 1204
340 1223
340 1246
340 1317
340 1332
340 1333
340 1340
340 1365
340 1374
340 1383
340 1408
340 1419
340 1424
340 1443
340 1448
340 1459
340 1468
340 1482
340 1526
340 1566
340 1673
340 1707
340 1709
340 1786
340 1806
340 1812
340 1853
340 1878
340 1924
340 1928
340 1934
340 1962
340 1975
340 1989
340 2006
340 2103
340 2139
340 2181
340 2235
341 417
341 552
341 624
341 641
341 734
341 886
341 1019
341 1104
341 1346
341 1421
341 1554
341 1579
341 1619
341 1628
341 1688
341 1855
341 1863
341 2089
341 2099
341 2137
342 769
342 1928
343 501
343 541
343 599
343 607
343 665
343 705
343 738
343 780
343 831
343 847
343 937
343 1026
343 1040
343 1112
343 1191
343 1268
343 1273
343 1298
343 1311
343 1313
343 1316
343 1334
343 1353
343 1425
343 1445
343 1460
343 1471
343 1638
343 1654
343 1657
343 1708
343 1805
343 1837
343 1849
343 1875
343 1940
343 1962
343 1967
343 2043
343 2107
343 2171
343 2202
344 377
344 384
344 386
344 391
344 406
344 410
344 418
344 420
344 428
344 441
344 447
344 460
344 463
344 472
344 478
344 479
344 481
344 486
344 500
344 502
344 504
344 510
344 514
344 516
344 522
344 525
344 532
344 537
344 568
344 579
344 588
344 591
344 593
344 594
344 603
344 610
344 643
344 645
344 649
344 692
344 695
344 699
344 710
344 720
344 736
344 737
344 738
344 741
344 757
344 764
344 773
344 797
344 806
344 824
344 827
344 831
344 859
344 868
344 873
344 894
344 900
344 920
344 938
344 940
344 954
344 957
344 965
344 976
344 1015
344 1017
344 1046
344 1053
344 1057
344 1058
344 1063
344 1112
344 1117
344 1151
344 1154
344 1155
344 1179
344 1180
344 1212
344 1227
344 1230
344 1233
344 1236
344 1241
344 1249
344 1268
344 1290
344 1307
344 1314
344 1322
344 1335
344 1349
344 1360
344 1369
344 1370
344 1385
344 1389
344 1391
344 1397
344 1401
344 1409
344 1429
344 1432
344 1434
344 1446
344 1454
344 1463
344 1474
344 1478
344 1486
344 1488
344 1489
344 1492
344 1498
344 1520
344 1532
344 1533
344 1538
344 1540
344 1545
344 1554
344 1600
344 1607
344 1610
344 1613
344 1616
344 1624
344 1631
344 1632
344 1640
344 1641
344 1646
344 1647
344 1692
344 1709
344 1715
344 1716
344 1732
344 1736
344 1743
344 1765
344 1770
344 1771
344 1774
344 1789
344 1818
344 1819
344 1870
344 1871
344 1878
344 1881
344 1901
344 1908
344 1949
344 1952
344 1964
344 1974
344 1979
344 1994
344 2004
344 2010
344 2012
344 2015
344 2016
344 2026
344 2028
344 2043
344 2055
344 2076
344 2091
344 2099
344 2102
344 2104
344 2134
344 2147
344 2156
344 2158
344 2159
344 2161
344 2174
344 2182
345 486
345 503
345 518
345 563
345 642
345 669
345 723
345 897
345 915
345 947
345 953
345 987
345 1043
345 1132
345 1141
345 1176
345 1208
345 1236
345 1246
345 1270
345 1344
345 1369
345 1441
345 1527
345 1593
345 1625
345 1630
345 1638
345 1906
345 1929
345 1968
345 2037
345 2083
345 2157
346 363
346 373
346 427
346 595
346 652
346 814
346 914
346 1082
346 1101
346 1194
346 1198
346 1275
346 1287
346 1315
346 1330
346 1386
346 1411
346 1491
346 1509
346 1542
346 1608
346 1650
346 1687
346 1714
346 1717
346 1884
346 1998
346 1999
346 2000
346 2054
346 2128
346 2150
346 2223
347 385
347 579
347 1295
347 1329
347 1594
347 1773
347 2098
348 354
348 355
348 357
348 398
348 402
348 487
348 498
348 506
348 515
348 530
348 609
348 650
348 694
348 723
348 727
348 732
348 733
348 745
348 747
348 748
348 816
348 834
348 878
348 916
348 945
348 955
348 988
348 1019
348 1047
348 1099
348 1100
348 1118
348 1126
348 1135
348 1159
348 1160
348 1167
348 1171
348 1174
348 1229
348 1251
348 1265
348 1328
348 1347
348 1359
348 1400
348 1402
348 1417
348 1420
348 1537
348 1547
348 1556
348 1559
348 1633
348 1721
348 1773
348 1779
348 1791
348 1938
348 1970
348 2032
348 2138
348 2142
348 2151
348 2192
348 2246
349 1209
350 353
350 364
350 372
350 374
350 381
350 400
350 402
350 412
350 414
350 465
350 528
350 531
350 553
350 556
350 563
350 576
350 580
350 596
350 646
350 682
350 712
350 716
350 808
350 818
350 825
350 844
350 847
350 848
350 860
350 865
350 893
350 923
350 963
350 969
350 973
350 1029
350 1038
350 1059
350 1062
350 1066
350 1073
350 1079
350 1097
350 1111
350 1185
350 1223
350 1251
350 1289
350 1311
350 1340
350 1354
350 1384
350 1410
350 1425
350 1448
350 1504
350 1512
350 1524
350 1538
350 1566
350 1567
350 1569
350 1616
350 1622
350 1637
350 1642
350 1643
350 1656
350 1665
350 1678
350 1701
350 1711
350 1720
350 1753
350 1802
350 1836
350 1848
350 1866
350 1883
350 1902
350 1923
350 1969
350 1977
350 1995
350 1996
350 2009
350 2036
350 2042
350 2083
350 2100
350 2109
350 2133
350 2169
350 2248
351 472
351 478
351 494
351 500
351 622
351 643
351 697
351 720
351 722
351 729
351 737
351 880
351 911
351 923
351 961
351 1006
351 1009
351 1028
351 1044
351 1051
351 1100
351 1154
351 1168
351 1217
351 1221
351 1277
351 1290
351 1304
351 1349
351 1397
351 1409
351 1434
351 1450
351 1454
351 1473
351 1474
351 1487
351 1510
351 1545
351 1569
351 1600
351 1607
351 1613
351 1628
351 1688
351 1753
351 1796
351 1818
351 1835
351 1938
351 1974
351 2012
351 2068
351 2107
351 2148
352 366
352 370
352 389
352 402
352 414
352 421
352 424
352 429
352 478
352 504
352 507
352 512
352 527
352 528
352 556
352 557
352 565
352 580
352 581
352 589
352 608
352 609
352 633
352 647
352 657
352 664
352 678
352 699
352 716
352 736
352 744
352 755
352 767
352 769
352 776
352 783
352 798
352 801
352 829
352 833
352 835
352 839
352 843
352 852
352 869
352 880
352 892
352 907
352 912
352 913
352 918
352 935
352 938
352 939
352 951
352 977
352 979
352 982
352 990
352 992
352 1005
352 1009
352 1016
352 1046
352 1097
352 1103
352 1116
352 1124
352 1130
352 1143
352 1169
352 1170
352 1173
352 1174
352 1181
352 1187
352 1200
352 1204
352 1223
352 1230
352 1231
352 1237
352 1243
352 1246
352 1258
352 1262
352 1265
352 1269
352 1270
352 1276
352 1281
352 1282
352 1292
352 1301
352 1312
352 1321
352 1332
352 1333
352 1337
352 1340
352 1343
352 1365
352 1369
352 1374
352 1383
352 1404
352 1408
352 1413
352 1419
352 1424
352 1426
352 1429
352 1443
352 1448
352 1449
352 1452
352 1459
352 1463
352 1468
352 1482
352 1499
352 1507
352 1510
352 1541
352 1562
352 1584
352 1600
352 1607
352 1609
352 1643
352 1656
352 1662
352 1679
352 1707
352 1713
352 1719
352 1746
352 1748
352 1754
352 1763
352 1771
352 1782
352 1795
352 1802
352 1806
352 1810
352 1812
352 1818
352 1845
352 1853
352 1854
352 1878
352 1880
352 1895
352 1916
352 1919
352 1923
352 1924
352 1927
352 1928
352 1931
352 1939
352 1948
352 1963
352 1969
352 1975
352 1977
352 1989
352 1995
352 2006
352 2010
352 2042
352 2046
352 2063
352 2070
352 2073
352 2103
352 2115
352 2117
352 2125
352 2145
352 2147
352 2153
352 2155
352 2179
352 2181
352 2183
352 2191
352 2193
352 2230
352 2235
353 364
353 366
353 374
353 378
353 400
353 405
353 408
353 414
353 419
353 455
353 464
353 465
353 531
353 540
353 556
353 576
353 581
353 603
353 607
353 608
353 612
353 646
353 653
353 664
353 665
353 679
353 682
353 696
353 698
353 712
353 740
353 743
353 746
353 806
353 808
353 818
353 819
353 832
353 839
353 844
353 847
353 848
353 852
353 865
353 893
353 951
353 969
353 980
353 983
353 992
353 993
353 1029
353 1030
353 1038
353 1050
353 1052
353 1062
353 1064
353 1066
353 1068
353 1071
353 1073
353 1079
353 1084
353 1087
353 1089
353 1097
353 1111
353 1112
353 1147
353 1158
353 1173
353 1189
353 1223
353 1240
353 1249
353 1253
353 1260
353 1272
353 1279
353 1289
353 1311
353 1333
353 1334
353 1336
353 1342
353 1348
353 1354
353 1370
353 1383
353 1392
353 1410
353 1425
353 1430
353 1436
353 1444
353 1448
353 1454
353 1456
353 1460
353 1483
353 1488
353 1494
353 1499
353 1504
353 1512
353 1546
353 1558
353 1564
353 1566
353 1567
353 1569
353 1593
353 1596
353 1607
353 1613
353 1622
353 1634
353 1642
353 1643
353 1647
353 1656
353 1679
353 1701
353 1703
353 1705
353 1723
353 1730
353 1751
353 1761
353 1768
353 1772
353 1790
353 1797
353 1802
353 1804
353 1805
353 1809
353 1836
353 1848
353 1850
353 1853
353 1864
353 1877
353 1883
353 1892
353 1899
353 1902
353 1916
353 1917
353 1923
353 1947
353 1959
353 1967
353 1969
353 1977
353 1985
353 1995
353 1996
353 2001
353 2009
353 2036
353 2040
353 2042
353 2065
353 2066
353 2100
353 2109
353 2137
353 2168
353 2182
353 2186
353 2206
353 2213
353 2244
353 2246
353 2248
354 357
354 460
354 690
354 694
354 725
354 745
354 798
354 816
354 869
354 878
354 985
354 988
354 996
354 1047
354 1071
354 1088
354 1150
354 1160
354 1164
354 1167
354 1274
354 1402
354 1429
354 1559
354 1576
354 1594
354 1768
354 1788
354 1799
354 1840
354 1963
354 1969
354 2031
354 2032
355 398
355 460
355 699
355 749
355 945
355 994
355 996
355 1080
355 1102
355 1174
355 1213
355 1361
355 1390
355 1420
355 1629
355 1727
355 1735
355 1741
355 1759
355 1775
355 1938
355 2142
355 2188
356 386
356 406
356 487
356 511
356 514
356 525
356 559
356 579
356 634
356 667
356 671
356 699
356 706
356 741
356 757
356 798
356 801
356 826
356 830
356 858
356 872
356 976
356 984
356 1006
356 1028
356 1046
356 1048
356 1056
356 1088
356 1143
356 1165
356 1169
356 1205
356 1220
356 1241
356 1327
356 1345
356 1349
356 1356
356 1450
356 1475
356 1500
356 1503
356 1533
356 1537
356 1550
356 1570
356 1576
356 1586
356 1589
356 1600
356 1613
356 1641
356 1646
356 1694
356 1726
356 1732
356 1739
356 1751
356 1803
356 1855
356 1859
356 1905
356 1931
356 1952
356 1964
356 1981
356 2015
356 2023
356 2048
356 2069
356 2085
356 2110
356 2118
356 2131
356 2136
356 2142
356 2158
356 2161
356 2182
356 2205
356 2208
357 362
357 424
357 437
357 487
357 498
357 506
357 515
357 528
357 592
357 650
357 670
357 671
357 694
357 703
357 723
357 725
357 745
357 748
357 765
357 816
357 820
357 838
357 878
357 936
357 945
357 985
357 988
357 989
357 1022
357 1071
357 1086
357 1099
357 1126
357 1164
357 1167
357 1228
357 1229
357 1251
357 1347
357 1359
357 1400
357 1402
357 1405
357 1556
357 1559
357 1576
357 1638
357 1750
357 1788
357 1799
357 1830
357 1840
357 1961
357 1988
357 2032
357 2230
358 383
358 386
358 461
358 469
358 476
358 479
358 526
358 576
358 586
358 599
358 606
358 620
358 643
358 699
358 737
358 765
358 780
358 806
358 826
358 861
358 871
358 874
358 881
358 889
358 899
358 924
358 938
358 987
358 1029
358 1030
358 1038
358 1057
358 1062
358 1136
358 1176
358 1179
358 1255
358 1265
358 1266
358 1278
358 1283
358 1335
358 1355
358 1401
358 1414
358 1454
358 1501
358 1603
358 1630
358 1669
358 1673
358 1705
358 1756
358 1758
358 1775
358 1805
358 1816
358 1822
358 1910
358 1949
358 2100
358 2101
358 2104
358 2121
358 2157
358 2185
358 2200
358 2202
358 2236
359 371
359 484
359 492
359 495
359 509
359 519
359 623
359 715
359 782
359 875
359 912
359 950
359 1012
359 1034
359 1060
359 1074
359 1157
359 1201
359 1321
359 1326
359 1341
359 1386
359 1423
359 1509
359 1529
359 1539
359 1552
359 1573
359 1614
359 1668
359 1685
359 1687
359 1784
359 1884
359 1907
359 1915
359 2045
359 2075
359 2130
359 2210
359 2221
359 2238
359 2248
360 406
360 453
360 463
360 510
360 535
360 548
360 579
360 601
360 662
360 699
360 757
360 873
360 887
360 925
360 942
360 957
360 1125
360 1180
360 1230
360 1233
360 1247
360 1294
360 1327
360 1346
360 1390
360 1600
360 1700
360 1720
360 1743
360 1771
360 1774
360 1827
360 2012
360 2029
360 2043
360 2087
360 2148
360 2174
360 2176
360 2205
360 2216
360 2241
361 492
361 550
361 598
361 638
361 769
361 793
361 815
361 852
361 856
361 912
361 928
361 958
361 965
361 1034
361 1060
361 1091
361 1093
361 1177
361 1275
361 1362
361 1373
361 1386
361 1477
361 1509
361 1551
361 1595
361 1652
361 1673
361 1683
361 1684
361 1725
361 1808
361 1907
361 1908
361 1945
361 1973
361 2005
361 2075
361 2178
361 2227
362 386
362 405
362 418
362 424
362 427
362 428
362 443
362 460
362 477
362 494
362 506
362 510
362 511
362 513
362 515
362 525
362 527
362 536
362 539
362 544
362 579
362 592
362 639
362 650
362 655
362 690
362 694
362 695
362 699
362 703
362 730
362 741
362 746
362 748
362 749
362 768
362 790
362 816
362 820
362 872
362 873
362 887
362 895
362 911
362 923
362 927
362 936
362 945
362 947
362 962
362 973
362 985
362 989
362 990
362 994
362 996
362 1006
362 1015
362 1028
362 1047
362 1100
362 1120
362 1139
362 1154
362 1159
362 1167
362 1168
362 1171
362 1193
362 1197
362 1205
362 1218
362 1236
362 1265
362 1280
362 1283
362 1304
362 1335
362 1346
362 1347
362 1359
362 1361
362 1389
362 1390
362 1393
362 1397
362 1400
362 1402
362 1414
362 1435
362 1449
362 1486
362 1490
362 1510
362 1540
362 1547
362 1549
362 1556
362 1565
362 1569
362 1594
362 1651
362 1675
362 1711
362 1770
362 1775
362 1779
362 1799
362 1801
362 1803
362 1807
362 1830
362 1831
362 1851
362 1859
362 1887
362 1892
362 1897
362 1905
362 1920
362 1938
362 1950
362 1961
362 1966
362 1976
362 1994
362 2016
362 2031
362 2032
362 2034
362 2067
362 2089
362 2091
362 2097
362 2098
362 2099
362 2110
362 2115
362 2118
362 2120
362 2125
362 2147
362 2165
362 2212
363 401
363 435
363 478
363 492
363 495
363 509
363 514
363 550
363 595
363 598
363 610
363 621
363 623
363 654
363 738
363 822
363 870
363 912
363 950
363 978
363 1012
363 1027
363 1082
363 1095
363 1148
363 1196
363 1249
363 1275
363 1277
363 1286
363 1319
363 1330
363 1370
363 1373
363 1386
363 1411
363 1465
363 1536
363 1616
363 1621
363 1648
363 1650
363 1668
363 1672
363 1687
363 1724
363 1736
363 1757
363 1767
363 1778
363 1833
363 1879
363 1884
363 1915
363 1921
363 1944
363 2017
363 2044
363 2075
363 2105
363 2135
363 2210
363 2215
363 2238
363 2244
364 366
364 374
364 400
364 408
364 414
364 455
364 465
364 528
364 531
364 553
364 556
364 567
364 576
364 607
364 647
364 665
364 679
364 689
364 696
364 712
364 732
364 743
364 762
364 808
364 818
364 832
364 844
364 847
364 848
364 852
364 865
364 880
364 893
364 963
364 969
364 1029
364 1038
364 1052
364 1062
364 1066
364 1073
364 1079
364 1084
364 1089
364 1097
364 1111
364 1160
364 1189
364 1240
364 1241
364 1279
364 1289
364 1321
364 1334
364 1348
364 1410
364 1425
364 1430
364 1436
364 1444
364 1456
364 1460
364 1483
364 1501
364 1504
364 1512
364 1526
364 1546
364 1558
364 1566
364 1567
364 1578
364 1580
364 1593
364 1605
364 1622
364 1625
364 1638
364 1642
364 1679
364 1690
364 1701
364 1703
364 1718
364 1748
364 1768
364 1791
364 1797
364 1809
364 1848
364 1899
364 1902
364 1917
364 1923
364 1929
364 1937
364 1940
364 1947
364 1967
364 1977
364 1995
364 2036
364 2040
364 2042
364 2064
364 2066
364 2087
364 2088
364 2090
364 2100
364 2109
364 2129
364 2162
364 2168
364 2169
364 2190
364 2206
364 2213
364 2248
365 435
365 550
365 638
365 721
365 875
365 1034
365 1148
365 1190
365 1275
365 1291
365 1366
365 1423
365 1614
365 1784
365 1821
365 1938
365 2130
366 374
366 389
366 421
366 455
366 465
366 507
366 519
366 553
366 598
366 608
366 664
366 716
366 744
366 818
366 833
366 978
366 1016
366 1029
366 1062
366 1073
366 1084
366 1111
366 1149
366 1170
366 1181
366 1187
366 1200
366 1223
366 1231
366 1282
366 1289
366 1333
366 1374
366 1383
366 1404
366 1425
366 1448
366 1471
366 1482
366 1504
366 1521
366 1538
366 1567
366 1643
366 1656
366 1665
366 1673
366 1747
366 1763
366 1806
366 1848
366 1877
366 1916
366 1924
366 1928
366 1931
366 1948
366 1962
366 1967
366 2036
366 2042
366 2109
366 2145
367 392
367 398
367 460
367 579
367 629
367 887
367 996
367 1004
367 1102
367 1338
367 1389
367 1398
367 1649
367 1826
367 1935
367 1994
367 2188
368 391
368 397
368 443
368 452
368 474
368 525
368 529
368 545
368 588
368 593
368 596
368 607
368 627
368 639
368 659
368 668
368 674
368 699
368 700
368 707
368 741
368 826
368 857
368 866
368 898
368 902
368 934
368 955
368 1008
368 1010
368 1029
368 1033
368 1053
368 1065
368 1078
368 1084
368 1111
368 1131
368 1137
368 1143
368 1222
368 1235
368 1245
368 1280
368 1283
368 1285
368 1365
368 1367
368 1375
368 1414
368 1431
368 1474
368 1549
368 1564
368 1569
368 1592
368 1600
368 1603
368 1692
368 1739
368 1742
368 1745
368 1769
368 1783
368 1800
368 1828
368 1858
368 1885
368 1892
368 1903
368 1909
368 1940
368 2029
368 2089
368 2118
368 2188
368 2197
368 2222
369 410
369 432
369 481
369 499
369 514
369 525
369 545
369 579
369 617
369 663
369 674
369 699
369 723
369 773
369 811
369 828
369 954
369 1019
369 1024
369 1059
369 1125
369 1283
369 1338
369 1503
369 1547
369 1594
369 1646
369 1783
369 1803
369 1849
369 1994
369 2055
369 2143
369 2165
370 389
370 413
370 415
370 416
370 421
370 431
370 487
370 507
370 512
370 515
370 538
370 608
370 622
370 627
370 633
370 647
370 670
370 680
370 690
370 723
370 724
370 744
370 765
370 778
370 780
370 783
370 798
370 825
370 826
370 833
370 835
370 869
370 877
370 892
370 907
370 939
370 948
370 963
370 967
370 990
370 1036
370 1071
370 1077
370 1086
370 1097
370 1103
370 1152
370 1164
370 1169
370 1170
370 1174
370 1181
370 1187
370 1225
370 1226
370 1229
370 1231
370 1237
370 1249
370 1251
370 1256
370 1270
370 1282
370 1292
370 1304
370 1333
370 1337
370 1343
370 1369
370 1383
370 1399
370 1408
370 1419
370 1448
370 1452
370 1467
370 1482
370 1526
370 1562
370 1576
370 1630
370 1638
370 1662
370 1679
370 1704
370 1707
370 1711
370 1723
370 1799
370 1802
370 1806
370 1812
370 1817
370 1825
370 1836
370 1853
370 1854
370 1890
370 1895
370 1916
370 1924
370 1927
370 1928
370 1931
370 1932
370 1948
370 1975
370 1983
370 1988
370 2006
370 2031
370 2034
370 2080
370 2083
370 2141
370 2145
370 2179
370 2225
370 2230
370 2235
371 570
371 598
371 638
371 640
371 654
371 721
371 793
371 875
371 950
371 1007
371 1012
371 1034
371 1275
371 1373
371 1381
371 1386
371 1411
371 1423
371 1495
371 1509
371 1529
371 1539
371 1552
371 1614
371 1644
371 1668
371 1811
371 2059
371 2130
371 2135
371 2238
372 400
372 411
372 456
372 473
372 480
372 531
372 541
372 556
372 625
372 646
372 664
372 679
372 682
372 689
372 696
372 705
372 712
372 769
372 776
372 801
372 819
372 825
372 839
372 847
372 852
372 865
372 905
372 935
372 1008
372 1029
372 1050
372 1066
372 1068
372 1077
372 1097
372 1142
372 1148
372 1220
372 1244
372 1253
372 1260
372 1288
372 1410
372 1436
372 1452
372 1460
372 1483
372 1491
372 1512
372 1562
372 1580
372 1584
372 1642
372 1690
372 1704
372 1723
372 1747
372 1753
372 1772
372 1799
372 1802
372 1809
372 1810
372 1824
372 1848
372 1923
372 1955
372 1995
372 2042
372 2075
372 2095
372 2100
372 2169
372 2171
372 2190
372 2197
372 2200
372 2206
372 2233
373 482
373 495
373 522
373 717
373 751
373 796
373 815
373 974
373 1012
373 1021
373 1034
373 1157
373 1166
373 1275
373 1306
373 1315
373 1373
373 1386
373 1411
373 1427
373 1477
373 1509
373 1582
373 1583
373 1602
373 1698
373 1868
373 2002
373 2057
373 2075
373 2130
373 2242
374 400
374 408
374 417
374 455
374 465
374 503
374 531
374 533
374 556
374 576
374 578
374 609
374 620
374 647
374 657
374 664
374 670
374 684
374 700
374 701
374 712
374 732
374 743
374 755
374 780
374 796
374 808
374 818
374 819
374 844
374 847
374 848
374 850
374 852
374 865
374 866
374 874
374 893
374 906
374 920
374 969
374 973
374 1029
374 1030
374 1038
374 1052
374 1054
374 1059
374 1062
374 1064
374 1068
374 1071
374 1073
374 1079
374 1084
374 1089
374 1090
374 1097
374 1111
374 1119
374 1140
374 1158
374 1176
374 1189
374 1237
374 1240
374 1260
374 1279
374 1311
374 1320
374 1334
374 1384
374 1387
374 1404
374 1425
374 1436
374 1444
374 1459
374 1460
374 1471
374 1483
374 1504
374 1506
374 1512
374 1517
374 1524
374 1538
374 1546
374 1555
374 1558
374 1566
374 1567
374 1577
374 1593
374 1605
374 1612
374 1622
374 1634
374 1642
374 1643
374 1656
374 1690
374 1701
374 1703
374 1706
374 1723
374 1739
374 1768
374 1797
374 1809
374 1818
374 1853
374 1899
374 1902
374 1916
374 1917
374 1923
374 1932
374 1936
374 1940
374 1947
374 1959
374 1977
374 1995
374 2010
374 2036
374 2037
374 2042
374 2062
374 2065
374 2066
374 2079
374 2090
374 2100
374 2109
374 2168
374 2171
374 2206
374 2213
374 2248
375 450
375 509
375 570
375 575
375 640
375 814
375 843
375 875
375 912
375 978
375 1034
375 1166
375 1190
375 1203
375 1258
375 1262
375 1330
375 1373
375 1427
375 1434
375 1509
375 1539
375 1636
375 1668
375 1672
375 1685
375 1884
375 2164
376 961
376 1876
377 384
377 391
377 397
377 406
377 407
377 418
377 455
377 479
377 481
377 488
377 502
377 514
377 516
377 522
377 537
377 588
377 591
377 594
377 617
377 645
377 649
377 692
377 699
377 720
377 757
377 795
377 818
377 832
377 887
377 894
377 900
377 920
377 938
377 954
377 957
377 960
377 976
377 1020
377 1029
377 1033
377 1046
377 1058
377 1112
377 1116
377 1149
377 1154
377 1191
377 1212
377 1233
377 1236
377 1238
377 1247
377 1285
377 1294
377 1322
377 1332
377 1334
377 1358
377 1363
377 1382
377 1385
377 1397
377 1406
377 1413
377 1443
377 1446
377 1460
377 1474
377 1486
377 1488
377 1499
377 1504
377 1510
377 1518
377 1520
377 1522
377 1532
377 1569
377 1575
377 1616
377 1646
377 1647
377 1670
377 1700
377 1709
377 1721
377 1732
377 1743
377 1774
377 1818
377 1858
377 1866
377 1870
377 1901
377 1908
377 1911
377 1952
377 2001
377 2010
377 2012
377 2028
377 2043
377 2065
377 2086
377 2089
377 2118
377 2127
377 2158
377 2159
377 2174
377 2198
377 2202
377 2205
377 2206
377 2231
378 381
378 414
378 417
378 446
378 465
378 473
378 478
378 553
378 556
378 574
378 600
378 643
378 720
378 762
378 832
378 852
378 880
378 889
378 938
378 969
378 1054
378 1059
378 1089
378 1100
378 1107
378 1272
378 1290
378 1392
378 1434
378 1450
378 1473
378 1558
378 1628
378 1656
378 1809
378 1813
378 1818
378 1828
378 1835
378 1877
378 1984
378 2009
378 2064
378 2065
378 2069
378 2091
378 2121
378 2133
378 2202
378 2248
379 410
379 418
379 526
379 548
379 575
379 579
379 656
379 681
379 778
379 847
379 864
379 872
379 873
379 894
379 1061
379 1088
379 1103
379 1211
379 1212
379 1220
379 1391
379 1469
379 1486
379 1571
379 1658
379 1692
379 1700
379 1783
379 1818
379 1838
379 1852
379 1870
379 2051
379 2063
379 2177
379 2206
380 551
380 654
380 1072
380 1163
380 1306
380 1427
380 2061
380 2207
381 406
381 417
381 449
381 481
381 553
381 607
381 643
381 737
381 762
381 771
381 788
381 818
381 825
381 831
381 847
381 889
381 902
381 919
381 923
381 938
381 1008
381 1011
381 1018
381 1029
381 1033
381 1038
381 1040
381 1054
381 1055
381 1059
381 1084
381 1089
381 1107
381 1154
381 1155
381 1162
381 1176
381 1230
381 1268
381 1289
381 1355
381 1421
381 1423
381 1483
381 1506
381 1634
381 1644
381 1659
381 1702
381 1706
381 1713
381 1721
381 1755
381 1758
381 1761
381 1765
381 1809
381 1818
381 1837
381 1866
381 1877
381 1909
381 1940
381 1962
381 1967
381 1992
381 1995
381 2008
381 2023
381 2052
381 2119
381 2137
381 2146
381 2168
381 2206
381 2235
382 401
382 412
382 550
382 610
382 636
382 691
382 704
382 729
382 753
382 774
382 782
382 817
382 853
382 863
382 906
382 956
382 1007
382 1034
382 1101
382 1148
382 1163
382 1275
382 1287
382 1330
382 1373
382 1386
382 1411
382 1509
382 1551
382 1563
382 1568
382 1620
382 1644
382 1668
382 1676
382 1685
382 1717
382 1720
382 1814
382 1839
382 1900
382 1971
382 1986
382 2149
382 2223
383 401
383 476
383 480
383 484
383 485
383 491
383 541
383 576
383 615
383 622
383 669
383 712
383 737
383 767
383 809
383 825
383 848
383 866
383 906
383 924
383 925
383 1021
383 1040
383 1064
383 1066
383 1068
383 1111
383 1128
383 1142
383 1158
383 1204
383 1271
383 1278
383 1305
383 1311
383 1353
383 1415
383 1424
383 1444
383 1456
383 1458
383 1511
383 1548
383 1605
383 1643
383 1673
383 1690
383 1706
383 1708
383 1746
383 1751
383 1753
383 1756
383 1785
383 1802
383 1805
383 1809
383 1860
383 1863
383 1867
383 1883
383 1901
383 1909
383 1921
383 1939
383 1949
383 1955
383 1993
383 2036
383 2069
383 2072
383 2139
383 2168
383 2197
383 2248
384 406
384 472
384 474
384 481
384 488
384 502
384 504
384 522
384 526
384 537
384 565
384 577
384 588
384 591
384 594
384 596
384 610
384 643
384 645
384 649
384 692
384 699
384 700
384 720
384 727
384 786
384 795
384 797
384 827
384 832
384 868
384 881
384 916
384 917
384 920
384 938
384 947
384 954
384 960
384 976
384 1009
384 1020
384 1029
384 1033
384 1057
384 1059
384 1065
384 1112
384 1116
384 1118
384 1161
384 1193
384 1212
384 1283
384 1312
384 1322
384 1327
384 1358
384 1360
384 1363
384 1367
384 1384
384 1385
384 1401
384 1406
384 1424
384 1429
384 1443
384 1446
384 1460
384 1474
384 1478
384 1511
384 1518
384 1545
384 1565
384 1570
384 1575
384 1587
384 1613
384 1630
384 1641
384 1646
384 1670
384 1692
384 1709
384 1726
384 1755
384 1783
384 1795
384 1818
384 1859
384 1862
384 1870
384 1908
384 1911
384 1912
384 1949
384 1952
384 1964
384 1987
384 2004
384 2015
384 2052
384 2089
384 2091
384 2127
384 2158
384 2162
384 2166
384 2197
384 2222
385 579
385 768
385 898
385 1209
385 1844
385 2099
386 416
386 418
386 419
386 428
386 441
386 479
386 486
386 500
386 525
386 529
386 532
386 545
386 552
386 560
386 595
386 656
386 677
386 695
386 702
386 706
386 729
386 741
386 768
386 773
386 811
386 831
386 872
386 947
386 1013
386 1015
386 1033
386 1046
386 1053
386 1138
386 1154
386 1227
386 1241
386 1322
386 1345
386 1349
386 1375
386 1380
386 1399
386 1486
386 1498
386 1540
386 1594
386 1611
386 1619
386 1651
386 1669
386 1692
386 1739
386 1741
386 1752
386 1818
386 1867
386 1875
386 1920
386 1994
386 2025
386 2068
386 2115
386 2147
386 2153
386 2165
386 2216
387 411
387 451
387 484
387 509
387 750
387 814
387 865
387 875
387 912
387 965
387 978
387 1045
387 1066
387 1157
387 1315
387 1330
387 1366
387 1479
387 1509
387 1595
387 1620
387 1668
387 1672
387 1821
387 1823
387 2075
387 2164
387 2223
388 406
388 417
388 524
388 553
388 577
388 700
388 812
388 871
388 890
388 1018
388 1055
388 1094
388 1191
388 1242
388 1245
388 1268
388 1312
388 1313
388 1342
388 1431
388 1441
388 1445
388 1470
388 1755
388 1824
388 1828
388 1894
388 1911
388 1942
388 2003
388 2023
388 2160
388 2162
388 2197
388 2222
388 2246
389 608
389 610
389 646
389 665
389 716
389 832
389 844
389 847
389 865
389 912
389 983
389 1016
389 1029
389 1057
389 1097
389 1109
389 1124
389 1158
389 1187
389 1200
389 1242
389 1244
389 1298
389 1316
389 1404
389 1448
389 1460
389 1482
389 1499
389 1538
389 1558
389 1577
389 1634
389 1643
389 1654
389 1665
389 1673
389 1679
389 1730
389 1753
389 1806
389 1817
389 1853
389 1860
389 1896
389 1916
389 1962
389 2145
389 2168
389 2206
389 2248
390 401
390 550
390 675
390 676
390 751
390 854
390 912
390 1315
390 1330
390 1386
390 1481
390 1529
390 1612
390 1698
390 1764
390 1833
390 2075
391 479
391 554
391 559
391 588
391 591
391 603
391 610
391 635
391 645
391 707
391 713
391 736
391 738
391 785
391 844
391 848
391 866
391 897
391 898
391 900
391 902
391 920
391 924
391 937
391 981
391 987
391 1015
391 1033
391 1048
391 1063
391 1066
391 1078
391 1133
391 1136
391 1147
391 1173
391 1174
391 1204
391 1222
391 1235
391 1236
391 1239
391 1261
391 1277
391 1377
391 1382
391 1401
391 1434
391 1463
391 1469
391 1474
391 1486
391 1492
391 1554
391 1564
391 1611
391 1616
391 1639
391 1689
391 1692
391 1745
391 1797
391 1800
391 1818
391 1838
391 1852
391 1858
391 1893
391 1909
391 1962
391 1985
391 2043
391 2050
391 2074
391 2089
391 2104
391 2139
391 2174
391 2186
391 2191
391 2232
391 2235
392 579
392 586
392 606
392 629
392 687
392 1004
392 1083
392 1338
392 1389
392 1649
392 1770
392 1775
392 2188
393 638
393 654
393 714
393 875
393 950
393 1034
393 1465
393 1502
393 2238
394 399
394 441
394 547
394 588
394 637
394 674
394 702
394 787
394 810
394 826
394 867
394 872
394 873
394 954
394 995
394 1000
394 1006
394 1033
394 1078
394 1220
394 1241
394 1285
394 1396
394 1522
394 1578
394 1692
394 1694
394 1741
394 1792
394 1817
394 1859
394 1889
394 1911
394 2003
394 2047
394 2055
394 2208
395 403
395 417
395 462
395 561
395 569
395 630
395 646
395 737
395 762
395 832
395 868
395 874
395 889
395 902
395 1008
395 1018
395 1029
395 1033
395 1046
395 1054
395 1057
395 1066
395 1089
395 1107
395 1238
395 1242
395 1253
395 1272
395 1273
395 1353
395 1354
395 1356
395 1376
395 1397
395 1447
395 1483
395 1506
395 1558
395 1564
395 1570
395 1627
395 1645
395 1671
395 1681
395 1706
395 1718
395 1720
395 1818
395 1824
395 1837
395 1902
395 1940
395 1962
395 1992
395 2052
395 2056
395 2069
395 2072
395 2087
395 2090
395 2146
395 2160
395 2185
395 2202
395 2231
395 2249
396 870
396 1767
396 2135
397 415
397 417
397 447
397 462
397 466
397 491
397 500
397 501
397 517
397 524
397 535
397 576
397 643
397 645
397 662
397 697
397 722
397 736
397 737
397 818
397 832
397 861
397 871
397 881
397 886
397 899
397 910
397 925
397 937
397 938
397 1018
397 1029
397 1040
397 1046
397 1049
397 1054
397 1057
397 1073
397 1084
397 1094
397 1111
397 1119
397 1232
397 1236
397 1238
397 1242
397 1252
397 1255
397 1272
397 1290
397 1320
397 1324
397 1339
397 1356
397 1370
397 1376
397 1385
397 1386
397 1411
397 1421
397 1431
397 1506
397 1558
397 1564
397 1570
397 1605
397 1641
397 1654
397 1668
397 1671
397 1708
397 1720
397 1721
397 1730
397 1756
397 1813
397 1818
397 1824
397 1863
397 1875
397 1894
397 1904
397 1916
397 1922
397 1936
397 1942
397 2036
397 2069
397 2072
397 2090
397 2137
397 2156
397 2160
397 2185
397 2206
397 2233
397 2236
397 2249
398 460
398 579
398 606
398 629
398 639
398 641
398 655
398 749
398 790
398 836
398 923
398 994
398 996
398 1004
398 1083
398 1102
398 1171
398 1193
398 1213
398 1218
398 1338
398 1359
398 1361
398 1389
398 1390
398 1393
398 1398
398 1516
398 1649
398 1727
398 1775
398 1876
398 1910
398 2016
398 2049
398 2147
398 2151
398 2176
398 2188
399 407
399 418
399 419
399 426
399 431
399 432
399 447
399 479
399 486
399 488
399 493
399 511
399 518
399 539
399 585
399 607
399 608
399 656
399 684
399 699
399 723
399 773
399 787
399 790
399 794
399 800
399 810
399 830
399 941
399 954
399 963
399 1010
399 1019
399 1046
399 1048
399 1075
399 1118
399 1132
399 1179
399 1234
399 1235
399 1241
399 1247
399 1284
399 1294
399 1299
399 1300
399 1310
399 1314
399 1363
399 1369
399 1399
399 1414
399 1444
399 1467
399 1486
399 1500
399 1506
399 1512
399 1517
399 1522
399 1578
399 1579
399 1594
399 1638
399 1642
399 1658
399 1703
399 1722
399 1741
399 1759
399 1762
399 1783
399 1794
399 1803
399 1809
399 1818
399 1829
399 1878
399 1881
399 1938
399 1955
399 1965
399 1998
399 2003
399 2004
399 2018
399 2072
399 2076
399 2099
399 2101
399 2110
399 2118
399 2138
399 2144
399 2165
399 2177
399 2189
399 2194
399 2195
399 2205
399 2234
400 503
400 531
400 556
400 646
400 656
400 679
400 705
400 712
400 769
400 776
400 783
400 788
400 801
400 808
400 825
400 844
400 847
400 852
400 865
400 893
400 969
400 983
400 1029
400 1038
400 1062
400 1079
400 1142
400 1240
400 1253
400 1288
400 1369
400 1410
400 1425
400 1430
400 1436
400 1456
400 1483
400 1512
400 1562
400 1566
400 1580
400 1593
400 1642
400 1690
400 1701
400 1723
400 1802
400 1809
400 1810
400 1818
400 1847
400 1902
400 1923
400 1933
400 1995
400 2042
400 2095
400 2100
400 2169
400 2190
400 2206
400 2247
400 2248
401 412
401 484
401 550
401 636
401 675
401 751
401 774
401 854
401 884
401 906
401 1023
401 1330
401 1481
401 1502
401 1612
401 1698
401 1764
401 1833
401 1900
401 2017
401 2044
401 2075
401 2149
402 406
402 424
402 478
402 489
402 528
402 575
402 609
402 633
402 755
402 763
402 769
402 776
402 778
402 801
402 825
402 839
402 865
402 935
402 945
402 953
402 955
402 979
402 992
402 1019
402 1029
402 1043
402 1061
402 1077
402 1099
402 1103
402 1118
402 1122
402 1130
402 1157
402 1166
402 1174
402 1246
402 1270
402 1282
402 1288
402 1301
402 1365
402 1394
402 1420
402 1438
402 1452
402 1459
402 1488
402 1499
402 1527
402 1562
402 1566
402 1622
402 1629
402 1658
402 1661
402 1662
402 1701
402 1713
402 1723
402 1748
402 1750
402 1754
402 1768
402 1795
402 1799
402 1802
402 1810
402 1818
402 1836
402 1853
402 1899
402 1923
402 1938
402 2006
402 2009
402 2010
402 2020
402 2124
402 2142
402 2148
402 2161
402 2169
402 2175
402 2183
402 2246
403 407
403 454
403 494
403 614
403 672
403 706
403 709
403 810
403 1010
403 1051
403 1066
403 1104
403 1212
403 1230
403 1257
403 1358
403 1363
403 1570
403 1612
403 1629
403 1678
403 1722
403 1744
403 1746
403 1774
403 1794
403 1870
403 1910
403 2043
403 2086
403 2089
403 2136
403 2148
403 2204
404 414
404 607
404 625
404 1016
404 1068
404 1223
404 1244
404 1253
404 1322
404 1373
404 1673
404 1753
404 1916
404 1955
404 2095
404 2193
405 406
405 414
405 419
405 425
405 441
405 448
405 452
405 460
405 486
405 489
405 494
405 536
405 539
405 545
405 547
405 549
405 560
405 600
405 634
405 642
405 646
405 668
405 672
405 677
405 702
405 703
405 706
405 724
405 734
405 740
405 746
405 838
405 844
405 869
405 898
405 904
405 923
405 938
405 947
405 967
405 976
405 996
405 1006
405 1010
405 1015
405 1033
405 1046
405 1065
405 1081
405 1100
405 1106
405 1129
405 1141
405 1143
405 1168
405 1208
405 1213
405 1222
405 1228
405 1269
405 1272
405 1280
405 1285
405 1286
405 1308
405 1309
405 1310
405 1322
405 1329
405 1346
405 1348
405 1363
405 1369
405 1371
405 1372
405 1385
405 1393
405 1394
405 1432
405 1433
405 1442
405 1467
405 1472
405 1476
405 1489
405 1498
405 1540
405 1584
405 1594
405 1626
405 1628
405 1630
405 1649
405 1663
405 1709
405 1722
405 1741
405 1769
405 1775
405 1788
405 1794
405 1799
405 1818
405 1831
405 1885
405 1889
405 1892
405 1912
405 1938
405 1952
405 1960
405 1972
405 1974
405 1994
405 2012
405 2042
405 2047
405 2049
405 2086
405 2089
405 2115
405 2118
405 2123
405 2141
405 2145
405 2148
405 2170
405 2175
405 2182
405 2189
405 2209
406 410
406 417
406 429
406 437
406 438
406 439
406 444
406 461
406 472
406 474
406 481
406 483
406 494
406 503
406 504
406 514
406 517
406 522
406 526
406 527
406 536
406 538
406 543
406 547
406 548
406 552
406 557
406 567
406 574
406 576
406 577
406 578
406 581
406 588
406 591
406 596
406 603
406 607
406 610
406 617
406 627
406 633
406 645
406 653
406 655
406 656
406 662
406 695
406 700
406 702
406 720
406 737
406 755
406 757
406 763
406 773
406 777
406 786
406 787
406 798
406 803
406 806
406 813
406 830
406 832
406 833
406 839
406 841
406 852
406 869
406 871
406 873
406 880
406 881
406 887
406 889
406 894
406 895
406 898
406 900
406 905
406 920
406 924
406 925
406 934
406 937
406 938
406 942
406 951
406 961
406 970
406 982
406 983
406 990
406 1006
406 1009
406 1010
406 1015
406 1029
406 1044
406 1046
406 1056
406 1058
406 1059
406 1063
406 1068
406 1075
406 1088
406 1090
406 1094
406 1103
406 1107
406 1109
406 1117
406 1125
406 1128
406 1141
406 1155
406 1164
406 1180
406 1185
406 1212
406 1230
406 1232
406 1233
406 1235
406 1236
406 1241
406 1243
406 1247
406 1256
406 1262
406 1264
406 1266
406 1274
406 1275
406 1276
406 1277
406 1279
406 1280
406 1304
406 1307
406 1312
406 1317
406 1318
406 1321
406 1322
406 1348
406 1349
406 1355
406 1358
406 1364
406 1367
406 1378
406 1382
406 1384
406 1385
406 1395
406 1397
406 1401
406 1408
406 1409
406 1413
406 1421
406 1424
406 1425
406 1429
406 1431
406 1434
406 1459
406 1470
406 1474
406 1476
406 1480
406 1485
406 1488
406 1492
406 1499
406 1533
406 1534
406 1545
406 1550
406 1569
406 1576
406 1591
406 1607
406 1610
406 1622
406 1626
406 1640
406 1641
406 1647
406 1656
406 1658
406 1659
406 1669
406 1679
406 1688
406 1692
406 1695
406 1709
406 1711
406 1713
406 1715
406 1716
406 1720
406 1732
406 1743
406 1744
406 1746
406 1754
406 1755
406 1762
406 1765
406 1768
406 1774
406 1787
406 1795
406 1799
406 1804
406 1807
406 1824
406 1828
406 1840
406 1847
406 1848
406 1853
406 1862
406 1863
406 1870
406 1872
406 1875
406 1883
406 1889
406 1890
406 1894
406 1903
406 1911
406 1914
406 1916
406 1917
406 1928
406 1934
406 1963
406 1964
406 1969
406 1977
406 1992
406 2012
406 2014
406 2015
406 2020
406 2023
406 2043
406 2063
406 2065
406 2069
406 2070
406 2081
406 2088
406 2091
406 2102
406 2104
406 2108
406 2121
406 2148
406 2158
406 2160
406 2161
406 2166
406 2174
406 2175
406 2183
406 2204
406 2206
406 2222
406 2233
406 2235
407 419
407 422
407 431
407 486
407 522
407 547
407 594
407 600
407 637
407 684
407 702
407 706
407 709
407 810
407 838
407 887
407 954
407 960
407 1132
407 1212
407 1218
407 1226
407 1227
407 1235
407 1239
407 1285
407 1322
407 1335
407 1358
407 1363
407 1413
407 1443
407 1460
407 1530
407 1653
407 1722
407 1735
407 1744
407 1780
407 1790
407 1794
407 1799
407 1825
407 1866
407 1889
407 1908
407 2047
407 2086
407 2089
407 2134
407 2136
407 2144
407 2189
407 2201
407 2204
408 417
408 449
408 478
408 533
408 569
408 580
408 607
408 623
408 657
408 670
408 679
408 701
408 705
408 712
408 755
408 796
408 819
408 825
408 826
408 847
408 850
408 865
408 963
408 992
408 1029
408 1066
408 1071
408 1074
408 1107
408 1148
408 1203
408 1254
408 1355
408 1387
408 1429
408 1460
408 1483
408 1512
408 1566
408 1634
408 1639
408 1642
408 1652
408 1664
408 1679
408 1695
408 1706
408 1723
408 1753
408 1755
408 1772
408 1802
408 1818
408 1878
408 1923
408 1932
408 1940
408 1975
408 2010
408 2026
408 2053
408 2069
408 2100
408 2120
408 2168
408 2169
408 2173
408 2190
408 2197
408 2206
408 2230
409 1172
409 1370
409 1584
409 1719
410 418
410 424
410 472
410 479
410 486
410 489
410 500
410 552
410 586
410 594
410 610
410 645
410 656
410 673
410 681
410 684
410 738
410 746
410 773
410 794
410 797
410 806
410 839
410 846
410 847
410 900
410 915
410 918
410 924
410 938
410 940
410 941
410 944
410 954
410 960
410 984
410 1006
410 1017
410 1019
410 1043
410 1046
410 1061
410 1063
410 1180
410 1211
410 1212
410 1220
410 1230
410 1241
410 1249
410 1276
410 1317
410 1318
410 1369
410 1370
410 1393
410 1411
410 1476
410 1486
410 1492
410 1495
410 1499
410 1512
410 1541
410 1554
410 1616
410 1640
410 1647
410 1658
410 1700
410 1741
410 1748
410 1771
410 1795
410 1799
410 1818
410 1827
410 1838
410 1878
410 1880
410 1934
410 1989
410 2003
410 2010
410 2018
410 2032
410 2041
410 2046
410 2048
410 2051
410 2073
410 2103
410 2104
410 2107
410 2127
410 2143
410 2153
410 2165
410 2167
410 2175
410 2195
410 2206
410 2246
411 415
411 484
411 495
411 509
411 519
411 619
411 623
411 646
411 654
411 683
411 753
411 782
411 825
411 875
411 884
411 893
411 912
411 928
411 943
411 963
411 978
411 986
411 1012
411 1034
411 1045
411 1050
411 1105
411 1148
411 1157
411 1163
411 1188
411 1190
411 1196
411 1201
411 1254
411 1386
411 1410
411 1419
411 1423
411 1531
411 1539
411 1595
411 1602
411 1614
411 1668
411 1687
411 1698
411 1701
411 1706
411 1723
411 1751
411 1755
411 1821
411 1833
411 1873
411 1969
411 2045
411 2059
411 2061
411 2075
411 2105
411 2130
411 2164
411 2210
411 2247
412 492
412 519
412 550
412 675
412 875
412 905
412 928
412 943
412 950
412 1101
412 1157
412 1188
412 1275
412 1386
412 1411
412 1423
412 1465
412 1529
412 1552
412 1553
412 1566
412 1652
412 1687
412 1698
412 1784
412 1833
412 1996
412 2106
412 2114
412 2135
412 2149
413 415
413 416
413 434
413 517
413 559
413 582
413 585
413 608
413 624
413 633
413 663
413 669
413 680
413 723
413 724
413 734
413 763
413 795
413 826
413 847
413 869
413 947
413 995
413 1006
413 1019
413 1029
413 1124
413 1133
413 1154
413 1174
413 1270
413 1286
413 1304
413 1308
413 1340
413 1344
413 1368
413 1372
413 1394
413 1399
413 1440
413 1467
413 1507
413 1526
413 1578
413 1591
413 1618
413 1662
413 1669
413 1711
413 1721
413 1739
413 1741
413 1753
413 1788
413 1802
413 1804
413 1817
413 1876
413 1888
413 1890
413 1898
413 1930
413 1975
413 1988
413 2034
413 2063
413 2080
413 2098
413 2139
413 2145
413 2148
413 2225
414 417
414 421
414 473
414 478
414 531
414 556
414 580
414 582
414 625
414 643
414 646
414 678
414 705
414 743
414 818
414 826
414 832
414 852
414 865
414 880
414 941
414 948
414 953
414 1064
414 1068
414 1104
414 1111
414 1223
414 1227
414 1249
414 1365
414 1374
414 1408
414 1440
414 1448
414 1473
414 1507
414 1511
414 1512
414 1538
414 1558
414 1566
414 1605
414 1642
414 1643
414 1645
414 1656
414 1701
414 1723
414 1753
414 1782
414 1923
414 1929
414 1937
414 1975
414 1977
414 1989
414 2040
414 2043
414 2133
414 2153
414 2173
414 2193
414 2200
414 2213
415 427
415 429
415 481
415 487
415 505
415 524
415 545
415 608
415 624
415 627
415 633
415 651
415 679
415 711
415 719
415 720
415 723
415 794
415 828
415 832
415 835
415 839
415 872
415 1013
415 1040
415 1103
415 1129
415 1156
415 1167
415 1169
415 1220
415 1225
415 1246
415 1280
415 1304
415 1365
415 1386
415 1445
415 1459
415 1467
415 1475
415 1488
415 1522
415 1579
415 1600
415 1618
415 1702
415 1704
415 1711
415 1713
415 1721
415 1763
415 1821
415 1825
415 1887
415 1890
415 1903
415 1962
415 1987
415 1992
415 2018
415 2025
415 2034
415 2085
415 2099
415 2119
415 2131
415 2157
415 2171
415 2191
415 2203
416 419
416 469
416 472
416 479
416 527
416 552
416 603
416 635
416 642
416 669
416 680
416 767
416 769
416 801
416 880
416 897
416 924
416 979
416 987
416 1010
416 1043
416 1103
416 1125
416 1147
416 1154
416 1159
416 1173
416 1174
416 1204
416 1226
416 1230
416 1322
416 1391
416 1424
416 1484
416 1486
416 1647
416 1800
416 1802
416 1818
416 1820
416 1858
416 1878
416 1880
416 1962
416 1989
416 2022
416 2050
416 2083
416 2104
416 2110
416 2139
416 2181
416 2189
416 2191
416 2232
417 446
417 460
417 461
417 462
417 465
417 473
417 500
417 501
417 542
417 553
417 574
417 578
417 596
417 607
417 614
417 620
417 643
417 646
417 672
417 697
417 705
417 706
417 720
417 729
417 737
417 743
417 764
417 767
417 780
417 806
417 828
417 861
417 871
417 874
417 880
417 886
417 890
417 895
417 899
417 918
417 922
417 923
417 930
417 938
417 949
417 963
417 969
417 979
417 980
417 1009
417 1021
417 1029
417 1038
417 1054
417 1058
417 1059
417 1089
417 1094
417 1100
417 1104
417 1109
417 1111
417 1119
417 1134
417 1164
417 1222
417 1232
417 1236
417 1253
417 1277
417 1299
417 1313
417 1322
417 1339
417 1370
417 1376
417 1378
417 1385
417 1409
417 1421
417 1431
417 1445
417 1450
417 1459
417 1471
417 1473
417 1501
417 1506
417 1510
417 1512
417 1532
417 1533
417 1538
417 1545
417 1558
417 1577
417 1587
417 1589
417 1607
417 1613
417 1624
417 1628
417 1641
417 1656
417 1665
417 1669
417 1671
417 1673
417 1732
417 1744
417 1753
417 1768
417 1809
417 1813
417 1817
417 1818
417 1824
417 1829
417 1835
417 1846
417 1863
417 1889
417 1894
417 1904
417 1909
417 1916
417 1917
417 1922
417 1927
417 1936
417 1942
417 1949
417 1950
417 1955
417 1992
417 2003
417 2009
417 2038
417 2043
417 2051
417 2069
417 2072
417 2085
417 2090
417 2091
417 2100
417 2108
417 2117
417 2118
417 2133
417 2137
417 2148
417 2160
417 2161
417 2166
417 2173
417 2185
417 2187
417 2213
417 2236
418 424
418 425
418 429
418 431
418 452
418 460
418 479
418 486
418 500
418 510
418 528
418 546
418 552
418 560
418 563
418 569
418 576
418 579
418 587
418 588
418 594
418 607
418 610
418 618
418 633
418 639
418 645
418 647
418 651
418 656
418 684
418 695
418 696
418 699
418 708
418 736
418 737
418 741
418 749
418 768
418 771
418 773
418 796
418 799
418 806
418 811
418 816
418 824
418 839
418 868
418 873
418 895
418 900
418 905
418 919
418 924
418 940
418 979
418 996
418 1006
418 1008
418 1029
418 1045
418 1056
418 1066
418 1090
418 1118
418 1154
418 1174
418 1212
418 1227
418 1235
418 1241
418 1247
418 1249
418 1268
418 1293
418 1294
418 1312
418 1332
418 1340
418 1354
418 1358
418 1361
418 1364
418 1365
418 1369
418 1375
418 1393
418 1395
418 1408
418 1443
418 1459
418 1467
418 1474
418 1492
418 1507
418 1518
418 1532
418 1554
418 1575
418 1577
418 1596
418 1611
418 1612
418 1616
418 1625
418 1647
418 1658
418 1692
418 1695
418 1719
418 1721
418 1741
418 1743
418 1755
418 1760
418 1765
418 1780
418 1818
418 1820
418 1838
418 1871
418 1878
418 1880
418 1883
418 1908
418 1910
418 1911
418 1934
418 1940
418 1948
418 1949
418 1974
418 1975
418 2022
418 2025
418 2026
418 2032
418 2043
418 2087
418 2099
418 2103
418 2104
418 2119
418 2127
418 2161
418 2165
418 2174
418 2175
418 2190
418 2204
418 2231
418 2235
418 2246
419 425
419 441
419 443
419 479
419 517
419 518
419 525
419 532
419 536
419 552
419 573
419 587
419 612
419 656
419 690
419 701
419 740
419 741
419 787
419 806
419 838
419 887
419 895
419 897
419 903
419 923
419 942
419 954
419 962
419 969
419 976
419 1015
419 1046
419 1053
419 1067
419 1073
419 1081
419 1114
419 1115
419 1129
419 1132
419 1136
419 1137
419 1139
419 1152
419 1154
419 1171
419 1178
419 1222
419 1226
419 1235
419 1239
419 1241
419 1269
419 1309
419 1322
419 1336
419 1369
419 1375
419 1387
419 1390
419 1393
419 1394
419 1414
419 1429
419 1432
419 1438
419 1442
419 1453
419 1486
419 1488
419 1504
419 1517
419 1540
419 1565
419 1569
419 1594
419 1596
419 1626
419 1628
419 1646
419 1647
419 1651
419 1653
419 1663
419 1705
419 1731
419 1745
419 1748
419 1751
419 1759
419 1762
419 1769
419 1779
419 1788
419 1790
419 1795
419 1799
419 1801
419 1807
419 1818
419 1829
419 1849
419 1850
419 1878
419 1881
419 1885
419 1889
419 1892
419 1920
419 1932
419 1938
419 1950
419 1974
419 1994
419 2026
419 2029
419 2031
419 2032
419 2041
419 2068
419 2089
419 2094
419 2096
419 2115
419 2123
419 2136
419 2139
419 2140
419 2141
419 2143
419 2165
419 2175
419 2186
419 2189
419 2194
419 2201
420 429
420 441
420 483
420 529
420 537
420 568
420 577
420 662
420 699
420 741
420 760
420 867
420 872
420 938
420 1015
420 1112
420 1222
420 1230
420 1247
420 1294
420 1312
420 1395
420 1401
420 1475
420 1486
420 1520
420 1578
420 1601
420 1639
420 1658
420 1692
420 1694
420 1709
420 1715
420 1740
420 1743
420 1792
420 1870
420 2076
420 2159
420 2174
420 2208
420 2249
421 507
421 556
421 581
421 598
421 608
421 665
421 716
421 777
421 809
421 844
421 847
421 848
421 913
421 951
421 963
421 1016
421 1097
421 1187
421 1200
421 1223
421 1298
421 1311
421 1316
421 1404
421 1448
421 1482
421 1566
421 1634
421 1638
421 1643
421 1645
421 1652
421 1654
421 1665
421 1679
421 1701
421 1704
421 1730
421 1806
421 1853
421 1923
421 1924
421 2095
421 2145
421 2169
421 2170
421 2173
421 2190
421 2206
422 454
422 485
422 600
422 642
422 668
422 681
422 699
422 710
422 723
422 756
422 760
422 773
422 790
422 830
422 847
422 882
422 892
422 941
422 962
422 973
422 981
422 987
422 996
422 1042
422 1053
422 1063
422 1065
422 1100
422 1133
422 1137
422 1197
422 1207
422 1225
422 1264
422 1285
422 1308
422 1336
422 1371
422 1372
422 1375
422 1378
422 1425
422 1450
422 1453
422 1493
422 1507
422 1516
422 1569
422 1628
422 1632
422 1697
422 1700
422 1705
422 1711
422 1732
422 1749
422 1774
422 1780
422 1799
422 1835
422 1840
422 1850
422 1885
422 1889
422 1926
422 1931
422 1960
422 1972
422 2012
422 2021
422 2035
422 2046
422 2047
422 2062
422 2110
422 2111
422 2115
422 2134
422 2161
422 2189
422 2206
423 519
423 551
423 556
423 583
423 602
423 865
423 912
423 1050
423 1163
423 1306
423 1381
423 1525
423 1606
423 1617
423 1636
423 1689
423 1978
423 1995
423 2061
423 2150
423 2207
423 2217
423 2248
424 448
424 472
424 478
424 489
424 500
424 528
424 546
424 552
424 575
424 609
424 610
424 632
424 633
424 646
424 647
424 694
424 696
424 705
424 723
424 746
424 747
424 755
424 763
424 769
424 772
424 776
424 778
424 801
424 816
424 839
424 844
424 848
424 865
424 892
424 905
424 913
424 915
424 918
424 924
424 935
424 973
424 979
424 992
424 1005
424 1009
424 1033
424 1070
424 1106
424 1115
424 1122
424 1133
424 1143
424 1160
424 1174
424 1218
424 1228
424 1246
424 1249
424 1282
424 1283
424 1288
424 1304
424 1310
424 1316
424 1321
424 1322
424 1328
424 1333
424 1335
424 1348
424 1359
424 1365
424 1399
424 1408
424 1420
424 1428
424 1443
424 1454
424 1459
424 1468
424 1499
424 1510
424 1514
424 1562
424 1565
424 1607
424 1639
424 1658
424 1704
424 1705
424 1713
424 1721
424 1736
424 1748
424 1783
424 1794
424 1795
424 1799
424 1802
424 1810
424 1818
424 1853
424 1878
424 1902
424 1908
424 1928
424 1934
424 1938
424 1948
424 1969
424 1975
424 1995
424 2006
424 2010
424 2018
424 2020
424 2032
424 2051
424 2099
424 2104
424 2141
424 2153
424 2175
424 2181
424 2183
424 2198
425 441
425 452
425 474
425 479
425 488
425 489
425 494
425 500
425 560
425 574
425 579
425 594
425 614
425 631
425 634
425 645
425 648
425 656
425 659
425 702
425 711
425 740
425 741
425 746
425 897
425 947
425 953
425 971
425 987
425 1009
425 1010
425 1015
425 1044
425 1046
425 1053
425 1057
425 1089
425 1100
425 1111
425 1129
425 1133
425 1137
425 1143
425 1179
425 1264
425 1283
425 1309
425 1322
425 1364
425 1367
425 1370
425 1414
425 1425
425 1437
425 1442
425 1454
425 1474
425 1517
425 1549
425 1554
425 1560
425 1569
425 1579
425 1592
425 1722
425 1745
425 1747
425 1755
425 1769
425 1783
425 1788
425 1799
425 1831
425 1859
425 1892
425 1903
425 1912
425 1949
425 1950
425 1960
425 1974
425 2049
425 2068
425 2074
425 2077
425 2085
425 2089
425 2099
425 2118
425 2123
425 2132
425 2134
425 2154
425 2188
425 2189
425 2197
425 2201
425 2222
426 469
426 479
426 499
426 505
426 514
426 525
426 552
426 606
426 651
426 669
426 699
426 734
426 741
426 765
426 783
426 784
426 800
426 826
426 872
426 923
426 924
426 954
426 996
426 1037
426 1083
426 1098
426 1103
426 1129
426 1132
426 1136
426 1154
426 1222
426 1225
426 1255
426 1266
426 1286
426 1308
426 1310
426 1354
426 1399
426 1406
426 1443
426 1527
426 1589
426 1591
426 1603
426 1630
426 1653
426 1663
426 1669
426 1741
426 1775
426 1803
426 1804
426 1822
426 1845
426 1878
426 1891
426 1904
426 1910
426 1931
426 1934
426 1975
426 2025
426 2100
426 2145
426 2157
426 2185
426 2188
427 460
427 486
427 500
427 505
427 517
427 525
427 565
427 569
427 579
427 607
427 610
427 694
427 723
427 738
427 741
427 816
427 826
427 831
427 844
427 902
427 938
427 942
427 953
427 1006
427 1008
427 1046
427 1059
427 1066
427 1070
427 1086
427 1107
427 1114
427 1129
427 1154
427 1169
427 1268
427 1274
427 1283
427 1288
427 1369
427 1399
427 1425
427 1474
427 1483
427 1554
427 1581
427 1619
427 1667
427 1672
427 1687
427 1700
427 1704
427 1717
427 1755
427 1765
427 1772
427 1796
427 1799
427 1818
427 1878
427 1912
427 1938
427 1940
427 2006
427 2023
427 2032
427 2072
427 2074
427 2077
427 2085
427 2087
427 2097
427 2119
427 2146
427 2165
428 441
428 448
428 452
428 522
428 525
428 560
428 737
428 741
428 768
428 867
428 938
428 941
428 1015
428 1033
428 1046
428 1048
428 1100
428 1138
428 1169
428 1179
428 1221
428 1227
428 1241
428 1294
428 1335
428 1345
428 1397
428 1472
428 1486
428 1487
428 1565
428 1579
428 1594
428 1628
428 1631
428 1651
428 1669
428 1739
428 1762
428 1794
428 1920
428 1926
428 2051
428 2068
428 2091
428 2099
428 2182
428 2195
429 438
429 460
429 500
429 522
429 527
429 545
429 552
429 553
429 567
429 576
429 588
429 603
429 635
429 651
429 696
429 699
429 738
429 741
429 771
429 785
429 812
429 824
429 848
429 873
429 905
429 919
429 1000
429 1009
429 1018
429 1030
429 1033
429 1090
429 1121
429 1125
429 1143
429 1147
429 1173
429 1180
429 1204
429 1226
429 1240
429 1283
429 1293
429 1312
429 1332
429 1342
429 1358
429 1376
429 1382
429 1395
429 1416
429 1420
429 1439
429 1441
429 1443
429 1474
429 1488
429 1492
429 1569
429 1603
429 1611
429 1616
429 1637
429 1639
429 1647
429 1692
429 1740
429 1745
429 1783
429 1787
429 1799
429 1800
429 1852
429 1858
429 1871
429 1878
429 1880
429 1911
429 1934
429 1949
429 1975
429 1994
429 1998
429 2018
429 2025
429 2043
429 2050
429 2071
429 2104
429 2146
429 2165
429 2175
429 2191
429 2208
429 2231
429 2232
429 2235
429 2246
430 460
430 511
430 513
430 525
430 539
430 627
430 650
430 656
430 663
430 665
430 669
430 684
430 699
430 718
430 723
430 734
430 737
430 763
430 765
430 773
430 794
430 811
430 813
430 823
430 828
430 848
430 858
430 867
430 941
430 944
430 953
430 955
430 995
430 999
430 1010
430 1015
430 1046
430 1048
430 1053
430 1075
430 1133
430 1152
430 1195
430 1205
430 1225
430 1228
430 1229
430 1280
430 1286
430 1308
430 1310
430 1345
430 1352
430 1389
430 1393
430 1398
430 1399
430 1486
430 1499
430 1517
430 1554
430 1576
430 1649
430 1663
430 1711
430 1721
430 1741
430 1773
430 1779
430 1802
430 1803
430 1845
430 1849
430 1891
430 1938
430 1994
430 1996
430 2018
430 2032
430 2048
430 2101
430 2147
430 2151
430 2165
431 479
431 493
431 500
431 505
431 511
431 526
431 552
431 567
431 594
431 603
431 609
431 610
431 627
431 628
431 656
431 684
431 685
431 709
431 713
431 736
431 773
431 785
431 787
431 795
431 811
431 839
431 852
431 924
431 940
431 954
431 960
431 979
431 992
431 1103
431 1181
431 1225
431 1261
431 1280
431 1281
431 1284
431 1293
431 1317
431 1332
431 1365
431 1393
431 1408
431 1413
431 1416
431 1419
431 1443
431 1454
431 1459
431 1463
431 1468
431 1469
431 1596
431 1610
431 1656
431 1658
431 1678
431 1719
431 1768
431 1771
431 1795
431 1803
431 1812
431 1817
431 1818
431 1820
431 1827
431 1838
431 1853
431 1878
431 1880
431 1881
431 1902
431 1934
431 1975
431 1989
431 2006
431 2009
431 2018
431 2022
431 2026
431 2051
431 2101
431 2102
431 2104
431 2144
431 2147
431 2153
431 2161
431 2177
431 2186
431 2209
431 2212
431 2235
431 2246
432 441
432 454
432 539
432 540
432 545
432 577
432 585
432 615
432 617
432 627
432 757
432 787
432 816
432 828
432 887
432 923
432 960
432 967
432 1019
432 1024
432 1080
432 1179
432 1227
432 1283
432 1294
432 1349
432 1382
432 1398
432 1414
432 1432
432 1474
432 1489
432 1493
432 1507
432 1522
432 1560
432 1575
432 1581
432 1584
432 1603
432 1653
432 1658
432 1700
432 1739
432 1774
432 1965
432 1974
432 1982
432 1988
432 2003
432 2012
432 2072
432 2076
432 2101
432 2118
432 2134
432 2177
432 2194
432 2216
433 799
433 894
433 1000
433 1134
433 1269
433 1332
433 1377
433 1474
433 1497
433 1554
433 1607
433 1616
433 1678
433 1818
433 1827
433 2043
433 2176
433 2186
434 573
434 632
434 642
434 746
434 892
434 987
434 1067
434 1106
434 1122
434 1136
434 1218
434 1222
434 1239
434 1264
434 1266
434 1298
434 1309
434 1336
434 1372
434 1428
434 1432
434 1630
434 1633
434 1705
434 1741
434 1754
434 1849
434 1850
434 1889
434 1912
434 1919
434 1931
434 1932
434 1938
434 1972
434 2035
434 2047
434 2086
434 2170
434 2189
435 488
435 492
435 497
435 509
435 522
435 550
435 594
435 751
435 788
435 822
435 908
435 1007
435 1030
435 1034
435 1093
435 1196
435 1269
435 1315
435 1319
435 1330
435 1381
435 1502
435 1509
435 1542
435 1684
435 1692
435 1778
435 1814
435 1833
435 1908
435 1946
435 2078
435 2221
435 2237
437 487
437 538
437 565
437 581
437 609
437 653
437 670
437 671
437 706
437 725
437 727
437 732
437 765
437 783
437 798
437 845
437 869
437 877
437 892
437 907
437 948
437 951
437 970
437 979
437 983
437 985
437 987
437 1005
437 1047
437 1071
437 1086
437 1088
437 1124
437 1137
437 1150
437 1160
437 1164
437 1187
437 1256
437 1270
437 1274
437 1279
437 1329
437 1351
437 1365
437 1432
437 1453
437 1499
437 1576
437 1609
437 1634
437 1638
437 1679
437 1704
437 1713
437 1788
437 1806
437 1840
437 1872
437 1895
437 1927
437 1937
437 1963
437 1969
437 1988
437 2034
437 2070
437 2088
437 2169
437 2228
437 2230
438 526
438 527
438 545
438 553
438 567
438 574
438 576
438 677
438 696
438 702
438 711
438 771
438 773
438 777
438 778
438 785
438 794
438 812
438 838
438 848
438 905
438 919
438 920
438 937
438 1000
438 1018
438 1029
438 1030
438 1141
438 1226
438 1227
438 1241
438 1307
438 1312
438 1317
438 1342
438 1375
438 1382
438 1395
438 1429
438 1436
438 1441
438 1567
438 1569
438 1579
438 1584
438 1594
438 1611
438 1658
438 1692
438 1754
438 1787
438 1799
438 1818
438 1852
438 1864
438 1880
438 1947
438 1960
438 1975
438 1994
438 2011
438 2023
438 2050
438 2051
438 2085
438 2153
438 2181
438 2190
438 2204
438 2232
438 2243
438 2246
439 461
439 501
439 610
439 631
439 737
439 861
439 899
439 938
439 1021
439 1431
439 1497
439 1501
439 1925
439 1932
439 1955
439 2052
439 2069
439 2185
439 2187
440 518
440 834
440 838
440 945
440 1228
440 1406
440 1443
440 1735
440 2031
440 2048
440 2089
441 443
441 452
441 460
441 516
441 525
441 560
441 579
441 617
441 695
441 699
441 706
441 726
441 741
441 947
441 953
441 971
441 981
441 992
441 1006
441 1015
441 1042
441 1046
441 1080
441 1085
441 1108
441 1120
441 1133
441 1138
441 1179
441 1226
441 1227
441 1345
441 1349
441 1368
441 1372
441 1378
441 1382
441 1393
441 1395
441 1396
441 1398
441 1414
441 1432
441 1454
441 1474
441 1475
441 1489
441 1507
441 1540
441 1578
441 1619
441 1651
441 1675
441 1692
441 1731
441 1739
441 1745
441 1762
441 1765
441 1799
441 1831
441 1842
441 1920
441 1951
441 1974
441 1990
441 1994
441 2012
441 2089
441 2091
441 2099
441 2104
441 2118
441 2131
441 2134
441 2147
441 2165
441 2208
442 512
442 573
442 580
442 608
442 723
442 731
442 765
442 843
442 869
442 877
442 878
442 907
442 948
442 960
442 966
442 1005
442 1047
442 1067
442 1081
442 1106
442 1139
442 1154
442 1160
442 1164
442 1178
442 1237
442 1270
442 1309
442 1321
442 1325
442 1351
442 1374
442 1429
442 1432
442 1438
442 1507
442 1572
442 1576
442 1609
442 1626
442 1713
442 1739
442 1774
442 1782
442 1791
442 1801
442 1822
442 1854
442 1919
442 1932
442 1937
442 1966
442 2040
442 2115
442 2116
442 2124
442 2141
442 2153
442 2168
442 2179
442 2183
443 494
443 525
443 573
443 684
443 695
443 741
443 966
443 976
443 1015
443 1042
443 1067
443 1081
443 1139
443 1171
443 1174
443 1221
443 1265
443 1349
443 1375
443 1414
443 1486
443 1540
443 1628
443 1651
443 1731
443 1779
443 1801
443 1881
443 1889
443 1920
443 1932
443 1974
443 1994
443 2031
443 2068
443 2115
443 2123
443 2147
443 2157
443 2188
444 577
444 617
444 731
444 778
444 883
444 947
444 992
444 1065
444 1103
444 1304
444 1367
444 1382
444 1408
444 1579
444 1678
444 1788
444 1799
444 1802
444 1818
444 1892
444 1903
444 1928
444 2026
444 2108
444 2177
445 515
445 732
445 754
445 772
445 781
445 930
445 948
445 1005
445 1077
445 1126
445 1150
445 1160
445 1297
445 1609
445 1635
445 1638
445 1661
445 1791
445 1793
445 1887
445 1906
445 1937
445 1961
445 2124
445 2179
445 2218
445 2228
446 462
446 478
446 524
446 531
446 561
446 567
446 576
446 607
446 620
446 622
446 643
446 844
446 861
446 866
446 871
446 889
446 906
446 925
446 963
446 1029
446 1054
446 1059
446 1111
446 1119
446 1144
446 1242
446 1244
446 1267
446 1277
446 1290
446 1339
446 1370
446 1372
446 1376
446 1411
446 1431
446 1532
446 1567
446 1574
446 1596
446 1605
446 1645
446 1671
446 1681
446 1718
446 1743
446 1747
446 1755
446 1761
446 1765
446 1805
446 1809
446 1813
446 1818
446 1855
446 1866
446 1877
446 1883
446 1902
446 1947
446 1959
446 1995
446 2069
446 2095
446 2125
446 2146
446 2166
446 2174
446 2185
446 2206
446 2213
446 2249
447 462
447 472
447 505
447 516
447 645
447 662
447 720
447 736
447 737
447 787
447 795
447 832
447 847
447 880
447 886
447 894
447 938
447 940
447 957
447 1009
447 1018
447 1046
447 1057
447 1058
447 1059
447 1119
447 1230
447 1236
447 1241
447 1242
447 1322
447 1376
447 1414
447 1434
447 1486
447 1508
447 1520
447 1564
447 1688
447 1743
447 1746
447 1799
447 1818
447 1827
447 2003
447 2043
447 2076
447 2104
447 2107
447 2117
447 2137
447 2160
447 2174
448 1015
448 1120
448 1249
448 1432
448 1607
448 1647
448 1669
448 1892
448 1926
449 497
449 509
449 551
449 571
449 623
449 658
449 902
449 1008
449 1029
449 1033
449 1073
449 1084
449 1254
449 1553
449 1614
449 1859
449 1921
449 1940
449 2008
449 2075
449 2244
450 492
450 562
450 580
450 583
450 678
450 884
450 1249
450 1292
450 1307
450 1386
450 1427
450 1535
450 1573
450 1582
450 1636
450 1645
450 1668
450 1682
450 1687
450 1776
450 1833
450 1856
450 1873
450 1907
450 1973
450 1996
450 2038
450 2045
450 2135
450 2227
450 2242
451 464
451 497
451 509
451 519
451 601
451 621
451 640
451 714
451 736
451 753
451 774
451 779
451 814
451 815
451 817
451 832
451 849
451 853
451 908
451 928
451 938
451 943
451 965
451 975
451 978
451 1012
451 1031
451 1045
451 1074
451 1157
451 1188
451 1196
451 1254
451 1263
451 1275
451 1287
451 1315
451 1386
451 1410
451 1491
451 1536
451 1542
451 1578
451 1668
451 1698
451 1754
451 1784
451 1818
451 1821
451 1833
451 1841
451 1868
451 1873
451 1879
451 1884
451 1915
451 1945
451 1973
451 2042
451 2045
451 2075
451 2082
451 2135
451 2227
452 460
452 474
452 510
452 522
452 560
452 579
452 588
452 630
452 642
452 659
452 668
452 702
452 710
452 717
452 740
452 741
452 873
452 947
452 987
452 1046
452 1092
452 1143
452 1179
452 1241
452 1283
452 1300
452 1309
452 1322
452 1329
452 1332
452 1372
452 1396
452 1414
452 1454
452 1594
452 1699
452 1739
452 1745
452 1749
452 1799
452 1818
452 1827
452 1831
452 1892
452 1910
452 1919
452 1920
452 1951
452 1974
452 1994
452 2029
452 2047
452 2068
452 2089
452 2091
452 2099
452 2118
452 2123
452 2188
452 2189
452 2216
453 548
453 787
453 831
453 886
453 925
453 949
453 1837
454 463
454 494
454 510
454 536
454 681
454 702
454 706
454 737
454 791
454 873
454 887
454 923
454 1046
454 1096
454 1100
454 1294
454 1335
454 1474
454 1493
454 1628
454 1700
454 1722
454 1739
454 1744
454 1749
454 1759
454 1771
454 1774
454 1783
454 1794
454 1796
454 1850
454 2012
454 2110
454 2111
454 2118
454 2134
454 2136
454 2201
455 461
455 465
455 527
455 553
455 556
455 578
455 607
455 612
455 625
455 664
455 700
455 729
455 737
455 780
455 808
455 818
455 832
455 861
455 874
455 890
455 899
455 924
455 969
455 1029
455 1030
455 1034
455 1038
455 1040
455 1046
455 1054
455 1062
455 1073
455 1084
455 1107
455 1111
455 1176
455 1240
455 1241
455 1244
455 1249
455 1268
455 1311
455 1342
455 1376
455 1430
455 1471
455 1480
455 1483
455 1488
455 1538
455 1545
455 1558
455 1567
455 1593
455 1605
455 1616
455 1647
455 1720
455 1736
455 1768
455 1809
455 1813
455 1818
455 1828
455 1875
455 1917
455 1949
455 2001
455 2010
455 2036
455 2042
455 2066
455 2087
455 2090
455 2100
455 2104
455 2160
455 2195
455 2197
455 2213
455 2249
456 517
456 1220
456 1274
456 1510
456 1704
457 1085
457 1675
457 1994
458 486
458 535
458 673
458 742
458 1082
458 1491
458 1585
458 1942
458 1999
458 2172
459 644
460 478
460 500
460 546
460 552
460 560
460 568
460 579
460 587
460 624
460 629
460 634
460 641
460 687
460 696
460 706
460 708
460 749
460 763
460 773
460 800
460 834
460 836
460 882
460 887
460 898
460 923
460 953
460 960
460 971
460 981
460 996
460 1004
460 1006
460 1080
460 1083
460 1099
460 1102
460 1120
460 1154
460 1156
460 1225
460 1227
460 1235
460 1241
460 1310
460 1332
460 1338
460 1346
460 1347
460 1361
460 1365
460 1375
460 1382
460 1389
460 1391
460 1396
460 1398
460 1439
460 1454
460 1463
460 1489
460 1526
460 1569
460 1603
460 1616
460 1628
460 1649
460 1655
460 1675
460 1686
460 1688
460 1692
460 1721
460 1722
460 1727
460 1769
460 1775
460 1826
460 1876
460 1885
460 1934
460 1935
460 1994
460 2012
460 2025
460 2031
460 2034
460 2049
460 2074
460 2091
460 2097
460 2104
460 2110
460 2134
460 2151
460 2157
460 2186
460 2188
460 2216
461 462
461 491
461 501
461 524
461 535
461 548
461 607
461 612
461 643
461 697
461 737
461 861
461 871
461 874
461 881
461 890
461 899
461 938
461 957
461 1026
461 1030
461 1057
461 1059
461 1062
461 1202
461 1232
461 1242
461 1278
461 1298
461 1334
461 1339
461 1370
461 1376
461 1431
461 1445
461 1460
461 1488
461 1501
461 1506
461 1596
461 1671
461 1706
461 1708
461 1765
461 1824
461 1894
461 1925
461 1936
461 1949
461 2023
461 2052
461 2069
461 2087
461 2185
461 2187
461 2202
461 2236
462 491
462 524
462 561
462 643
462 697
462 737
462 743
462 874
462 1008
462 1018
462 1057
462 1119
462 1233
462 1242
462 1247
462 1255
462 1339
462 1353
462 1356
462 1370
462 1376
462 1415
462 1431
462 1488
462 1506
462 1570
462 1671
462 1707
462 1718
462 1720
462 1774
462 1894
462 1916
462 1936
462 1942
462 1949
462 2069
462 2100
462 2160
462 2166
462 2173
462 2236
462 2249
463 489
463 504
463 588
463 603
463 628
463 680
463 685
463 713
463 767
463 785
463 795
463 827
463 915
463 920
463 938
463 977
463 1118
463 1318
463 1332
463 1364
463 1377
463 1391
463 1424
463 1463
463 1474
463 1484
463 1485
463 1532
463 1610
463 1632
463 1658
463 1771
463 1774
463 1818
463 1827
463 1838
463 1849
463 1939
463 2012
463 2139
463 2148
463 2209
464 774
464 1074
464 1833
464 2014
464 2075
465 476
465 503
465 553
465 556
465 631
465 689
465 699
465 714
465 735
465 743
465 762
465 808
465 818
465 832
465 844
465 848
465 969
465 984
465 1029
465 1054
465 1059
465 1062
465 1066
465 1073
465 1089
465 1111
465 1223
465 1240
465 1289
465 1311
465 1334
465 1364
465 1421
465 1436
465 1504
465 1558
465 1596
465 1605
465 1607
465 1647
465 1656
465 1706
465 1720
465 1730
465 1747
465 1751
465 1772
465 1790
465 1805
465 1841
465 1848
465 1866
465 1869
465 1877
465 1883
465 1917
465 1923
465 1946
465 1962
465 1967
465 1995
465 2036
465 2042
465 2043
465 2109
465 2186
465 2213
466 601
466 643
466 1491
466 1606
466 1650
466 1676
466 2078
467 1841
467 1996
467 2014
468 486
468 656
468 678
468 826
468 883
468 953
468 1061
468 1307
468 1323
468 1324
468 1365
468 1369
468 1432
468 1493
468 1527
468 1697
468 1700
468 1802
468 1859
468 1898
468 1968
468 2097
469 474
469 479
469 526
469 552
469 586
469 606
469 610
469 620
469 628
469 635
469 656
469 723
469 738
469 765
469 780
469 794
469 800
469 806
469 826
469 846
469 894
469 900
469 913
469 924
469 935
469 938
469 1038
469 1062
469 1098
469 1118
469 1136
469 1255
469 1266
469 1267
469 1289
469 1290
469 1312
469 1322
469 1332
469 1372
469 1406
469 1420
469 1492
469 1554
469 1591
469 1603
469 1616
469 1630
469 1646
469 1685
469 1695
469 1775
469 1795
469 1818
469 1822
469 1827
469 1931
469 1989
469 2100
469 2104
469 2127
469 2139
469 2153
469 2157
469 2175
469 2176
469 2185
469 2188
469 2200
469 2235
470 521
472 478
472 481
472 486
472 514
472 517
472 528
472 536
472 568
472 592
472 610
472 624
472 633
472 643
472 647
472 708
472 712
472 720
472 722
472 734
472 738
472 744
472 746
472 764
472 806
472 824
472 847
472 880
472 886
472 910
472 911
472 920
472 923
472 924
472 925
472 935
472 938
472 953
472 960
472 969
472 984
472 1006
472 1009
472 1027
472 1029
472 1043
472 1056
472 1058
472 1066
472 1089
472 1100
472 1103
472 1104
472 1119
472 1225
472 1230
472 1232
472 1236
472 1260
472 1277
472 1288
472 1322
472 1340
472 1365
472 1378
472 1408
472 1409
472 1434
472 1450
472 1474
472 1508
472 1533
472 1545
472 1607
472 1613
472 1628
472 1632
472 1647
472 1681
472 1688
472 1732
472 1746
472 1759
472 1782
472 1799
472 1802
472 1813
472 1818
472 1832
472 1835
472 1838
472 1863
472 1870
472 1904
472 1930
472 1948
472 1981
472 1990
472 1994
472 2006
472 2009
472 2012
472 2038
472 2065
472 2069
472 2081
472 2091
472 2117
472 2121
472 2125
472 2127
472 2133
472 2137
472 2148
472 2190
472 2193
472 2194
472 2231
473 485
473 543
473 548
473 574
473 622
473 643
473 646
473 682
473 689
473 712
473 720
473 791
473 806
473 831
473 847
473 859
473 886
473 937
473 938
473 957
473 960
473 1009
473 1029
473 1040
473 1057
473 1066
473 1078
473 1104
473 1107
473 1182
473 1255
473 1260
473 1290
473 1342
473 1373
473 1388
473 1392
473 1431
473 1434
473 1450
473 1469
473 1471
473 1483
473 1504
473 1545
473 1643
473 1747
473 1765
473 1772
473 1809
473 1813
473 1869
473 1942
473 1982
473 2065
473 2121
473 2133
473 2167
473 2173
473 2190
473 2197
473 2200
473 2233
474 479
474 481
474 511
474 516
474 522
474 552
474 560
474 577
474 596
474 606
474 627
474 635
474 642
474 645
474 648
474 700
474 711
474 720
474 731
474 738
474 778
474 806
474 831
474 841
474 873
474 883
474 894
474 897
474 900
474 917
474 920
474 938
474 941
474 947
474 953
474 957
474 1029
474 1065
474 1078
474 1094
474 1109
474 1117
474 1118
474 1125
474 1137
474 1138
474 1212
474 1247
474 1280
474 1304
474 1312
474 1322
474 1358
474 1367
474 1384
474 1397
474 1420
474 1431
474 1453
474 1463
474 1474
474 1485
474 1511
474 1554
474 1579
474 1613
474 1639
474 1646
474 1709
474 1743
474 1745
474 1746
474 1788
474 1803
474 1828
474 1838
474 1859
474 1870
474 1885
474 1890
474 1892
474 1902
474 1903
474 1911
474 1912
474 1949
474 1979
474 1987
474 2004
474 2029
474 2072
474 2085
474 2102
474 2104
474 2162
474 2174
474 2177
474 2188
474 2191
474 2200
474 2232
475 482
475 497
475 519
475 621
475 625
475 648
475 714
475 753
475 1007
475 1073
475 1093
475 1142
475 1162
475 1252
475 1326
475 1408
475 1451
475 1491
475 1495
475 1496
475 1579
475 1582
475 1648
475 1712
475 1729
475 1833
475 1839
475 1841
475 1921
475 1945
475 1977
475 1987
475 2014
475 2075
475 2122
475 2180
475 2211
475 2237
476 480
476 485
476 491
476 541
476 576
476 580
476 588
476 607
476 609
476 615
476 622
476 625
476 646
476 669
476 705
476 712
476 737
476 767
476 808
476 812
476 825
476 831
476 847
476 852
476 865
476 889
476 899
476 906
476 919
476 924
476 1021
476 1029
476 1054
476 1064
476 1066
476 1068
476 1111
476 1142
476 1158
476 1173
476 1174
476 1176
476 1200
476 1204
476 1230
476 1244
476 1260
476 1271
476 1289
476 1305
476 1311
476 1325
476 1353
476 1355
476 1370
476 1388
476 1415
476 1421
476 1424
476 1436
476 1444
476 1447
476 1448
476 1456
476 1458
476 1460
476 1470
476 1473
476 1476
476 1483
476 1511
476 1524
476 1566
476 1567
476 1574
476 1612
476 1625
476 1634
476 1643
476 1656
476 1673
476 1690
476 1695
476 1706
476 1711
476 1720
476 1721
476 1746
476 1751
476 1753
476 1755
476 1756
476 1763
476 1772
476 1785
476 1797
476 1802
476 1804
476 1805
476 1809
476 1818
476 1837
476 1853
476 1857
476 1860
476 1863
476 1867
476 1877
476 1883
476 1899
476 1916
476 1931
476 1939
476 1947
476 1955
476 1959
476 1960
476 1962
476 1967
476 1993
476 2011
476 2036
476 2037
476 2040
476 2043
476 2065
476 2069
476 2072
476 2078
476 2082
476 2095
476 2104
476 2110
476 2139
476 2146
476 2168
476 2181
476 2191
476 2197
476 2216
476 2233
476 2248
477 512
477 730
477 848
477 944
477 1046
477 1096
477 1122
477 1218
477 1449
477 1629
477 1722
477 1783
477 1822
477 1962
477 2032
477 2116
478 485
478 517
478 522
478 528
478 536
478 537
478 542
478 592
478 609
478 624
478 633
478 643
478 645
478 647
478 693
478 720
478 736
478 744
478 769
478 776
478 801
478 825
478 839
478 880
478 894
478 906
478 913
478 920
478 922
478 935
478 938
478 939
478 957
478 969
478 979
478 982
478 992
478 1006
478 1009
478 1058
478 1066
478 1068
478 1103
478 1107
478 1119
478 1140
478 1169
478 1220
478 1225
478 1230
478 1232
478 1246
478 1247
478 1269
478 1277
478 1282
478 1292
478 1294
478 1308
478 1322
478 1325
478 1340
478 1349
478 1365
478 1378
478 1383
478 1385
478 1391
478 1408
478 1409
478 1419
478 1429
478 1430
478 1434
478 1450
478 1459
478 1473
478 1474
478 1486
478 1524
478 1532
478 1607
478 1616
478 1632
478 1634
478 1641
478 1681
478 1700
478 1711
478 1713
478 1720
478 1723
478 1732
478 1741
478 1763
478 1768
478 1774
478 1802
478 1813
478 1818
478 1835
478 1848
478 1853
478 1889
478 1904
478 1924
478 1928
478 1948
478 1963
478 1990
478 2006
478 2009
478 2020
478 2037
478 2051
478 2062
478 2065
478 2117
478 2125
478 2127
478 2133
478 2148
478 2153
478 2161
478 2173
478 2181
478 2183
478 2205
478 2206
479 483
479 488
479 500
479 504
479 510
479 522
479 526
479 527
479 540
479 552
479 567
479 568
479 586
479 594
479 603
479 606
479 610
479 612
479 620
479 635
479 636
479 645
479 649
479 656
479 684
479 708
479 713
479 737
479 738
479 741
479 771
479 773
479 774
479 780
479 785
479 795
479 799
479 801
479 806
479 811
479 820
479 826
479 832
479 839
479 852
479 861
479 873
479 894
479 895
479 898
479 900
479 915
479 920
479 924
479 935
479 954
479 967
479 979
479 1010
479 1020
479 1029
479 1038
479 1043
479 1046
479 1059
479 1062
479 1066
479 1090
479 1117
479 1121
479 1132
479 1136
479 1147
479 1154
479 1161
479 1173
479 1179
479 1180
479 1205
479 1212
479 1233
479 1235
479 1241
479 1247
479 1249
479 1261
479 1269
479 1293
479 1294
479 1314
479 1322
479 1332
479 1338
479 1340
479 1358
479 1364
479 1365
479 1369
479 1377
479 1382
479 1397
479 1416
479 1420
479 1424
479 1429
479 1439
479 1443
479 1460
479 1463
479 1469
479 1474
479 1492
479 1497
479 1504
479 1518
479 1540
479 1554
479 1569
479 1581
479 1596
479 1603
479 1616
479 1621
479 1630
479 1632
479 1639
479 1647
479 1658
479 1669
479 1700
479 1705
479 1706
479 1707
479 1736
479 1743
479 1771
479 1794
479 1795
479 1800
479 1816
479 1818
479 1829
479 1838
479 1847
479 1858
479 1866
479 1880
479 1903
479 1908
479 1910
479 1928
479 1955
479 1975
479 1980
479 2010
479 2012
479 2026
479 2043
479 2050
479 2100
479 2104
479 2127
479 2139
479 2147
479 2153
479 2157
479 2174
479 2175
479 2176
479 2185
479 2186
479 2191
479 2200
479 2232
479 2235
479 2246
480 485
480 504
480 524
480 541
480 576
480 625
480 682
480 705
480 712
480 925
480 1053
480 1058
480 1073
480 1128
480 1145
480 1271
480 1298
480 1425
480 1448
480 1471
480 1511
480 1574
480 1673
480 1706
480 1720
480 1751
480 1805
480 1846
480 1860
480 1883
480 1904
480 1955
480 2012
480 2065
480 2072
480 2160
481 504
481 516
481 559
481 577
481 579
481 588
481 591
481 596
481 639
481 641
481 643
481 645
481 652
481 655
481 700
481 731
481 785
481 797
481 820
481 827
481 832
481 855
481 883
481 890
481 917
481 920
481 938
481 947
481 953
481 976
481 1009
481 1020
481 1029
481 1040
481 1094
481 1117
481 1151
481 1155
481 1169
481 1263
481 1280
481 1304
481 1307
481 1322
481 1325
481 1337
481 1346
481 1360
481 1367
481 1384
481 1385
481 1389
481 1401
481 1408
481 1424
481 1425
481 1429
481 1431
481 1471
481 1474
481 1511
481 1533
481 1598
481 1613
481 1643
481 1646
481 1693
481 1715
481 1721
481 1729
481 1732
481 1755
481 1768
481 1788
481 1818
481 1828
481 1837
481 1859
481 1863
481 1870
481 1892
481 1911
481 1912
481 1948
481 1949
481 1964
481 1979
481 1987
481 2000
481 2004
481 2015
481 2023
481 2043
481 2128
481 2131
481 2158
481 2162
481 2177
481 2188
481 2197
481 2222
481 2248
482 661
482 765
482 856
482 986
482 1275
482 1315
482 1373
482 1427
482 1434
482 1491
482 1509
482 1582
482 1687
482 1808
482 1841
482 1875
482 1978
482 2075
482 2122
482 2127
483 486
483 516
483 569
483 577
483 586
483 610
483 765
483 826
483 847
483 900
483 1083
483 1098
483 1106
483 1112
483 1218
483 1266
483 1307
483 1391
483 1492
483 1532
483 1554
483 1591
483 1603
483 1630
483 1632
483 1709
483 1715
483 1743
483 1768
483 1772
483 1775
483 1818
483 1853
483 1931
483 2070
483 2100
483 2104
483 2127
483 2157
483 2167
483 2174
483 2188
484 562
484 673
484 875
484 884
484 1034
484 1074
484 1105
484 1157
484 1166
484 1381
484 1411
484 1502
484 1614
484 1808
484 1903
484 2130
484 2221
485 576
485 603
485 646
485 663
485 669
485 679
485 681
485 682
485 689
485 712
485 734
485 832
485 847
485 893
485 919
485 922
485 1006
485 1029
485 1079
485 1133
485 1211
485 1260
485 1316
485 1342
485 1355
485 1376
485 1410
485 1425
485 1436
485 1471
485 1476
485 1483
485 1524
485 1532
485 1695
485 1700
485 1711
485 1747
485 1753
485 1765
485 1785
485 1809
485 1818
485 1866
485 1888
485 1936
485 2036
485 2037
485 2065
485 2160
485 2171
485 2190
485 2197
485 2200
485 2206
485 2233
486 505
486 506
486 510
486 511
486 518
486 525
486 540
486 541
486 569
486 572
486 576
486 579
486 585
486 587
486 602
486 610
486 627
486 656
486 669
486 682
486 711
486 723
486 727
486 729
486 734
486 738
486 742
486 746
486 753
486 755
486 786
486 787
486 810
486 811
486 826
486 847
486 853
486 869
486 880
486 882
486 883
486 924
486 931
486 938
486 942
486 953
486 954
486 969
486 971
486 990
486 1010
486 1019
486 1031
486 1043
486 1045
486 1046
486 1053
486 1061
486 1073
486 1080
486 1086
486 1088
486 1095
486 1103
486 1119
486 1132
486 1142
486 1183
486 1225
486 1228
486 1230
486 1252
486 1256
486 1258
486 1277
486 1291
486 1299
486 1307
486 1318
486 1322
486 1323
486 1332
486 1338
486 1356
486 1357
486 1365
486 1369
486 1375
486 1391
486 1393
486 1396
486 1410
486 1413
486 1434
486 1442
486 1450
486 1486
486 1489
486 1493
486 1507
486 1510
486 1514
486 1516
486 1517
486 1527
486 1540
486 1544
486 1575
486 1581
486 1585
486 1602
486 1622
486 1630
486 1638
486 1641
486 1662
486 1669
486 1697
486 1708
486 1735
486 1741
486 1768
486 1772
486 1788
486 1799
486 1802
486 1803
486 1813
486 1817
486 1818
486 1829
486 1832
486 1833
486 1838
486 1841
486 1859
486 1866
486 1888
486 1893
486 1898
486 1903
486 1906
486 1908
486 1912
486 1920
486 1921
486 1931
486 1933
486 1934
486 1938
486 1964
486 1968
486 1969
486 1988
486 2003
486 2009
486 2010
486 2026
486 2027
486 2055
486 2070
486 2072
486 2083
486 2086
486 2089
486 2098
486 2099
486 2100
486 2102
486 2110
486 2121
486 2133
486 2134
486 2141
486 2157
486 2167
486 2175
486 2184
486 2188
486 2203
486 2234
487 512
487 521
487 528
487 608
487 609
487 663
487 670
487 723
487 724
487 734
487 745
487 746
487 765
487 801
487 816
487 850
487 869
487 893
487 907
487 967
487 973
487 1013
487 1019
487 1071
487 1077
487 1086
487 1103
487 1112
487 1133
487 1135
487 1139
487 1187
487 1195
487 1229
487 1251
487 1270
487 1280
487 1284
487 1288
487 1359
487 1393
487 1394
487 1399
487 1402
487 1410
487 1417
487 1463
487 1517
487 1537
487 1576
487 1638
487 1658
487 1663
487 1711
487 1739
487 1741
487 1748
487 1773
487 1799
487 1802
487 1803
487 1806
487 1812
487 1817
487 1878
487 1938
487 1969
487 2006
487 2032
487 2083
487 2095
487 2124
487 2141
487 2145
487 2151
487 2230
488 500
488 518
488 532
488 594
488 612
488 637
488 656
488 658
488 785
488 787
488 795
488 861
488 897
488 954
488 1020
488 1073
488 1132
488 1161
488 1212
488 1269
488 1299
488 1322
488 1332
488 1358
488 1364
488 1369
488 1406
488 1424
488 1460
488 1504
488 1509
488 1518
488 1522
488 1554
488 1596
488 1706
488 1709
488 1795
488 1829
488 1837
488 1858
488 1908
488 1936
488 1946
488 1985
488 2003
488 2018
488 2027
488 2086
488 2089
488 2127
488 2186
488 2202
489 504
489 546
489 684
489 740
489 895
489 915
489 918
489 924
489 1010
489 1066
489 1246
489 1249
489 1364
489 1391
489 1424
489 1428
489 1430
489 1442
489 1484
489 1486
489 1640
489 1709
489 1771
489 1795
489 1827
489 1831
489 1878
489 1892
489 1989
489 2018
489 2022
489 2028
489 2073
489 2107
489 2123
489 2161
489 2167
489 2186
489 2245
490 536
490 880
490 923
490 961
490 1028
490 1044
490 1087
490 1168
490 1230
490 1277
490 1390
490 1641
490 1688
490 1876
490 2091
491 699
491 925
491 957
491 1107
491 1145
491 1411
491 1415
491 1473
491 1720
491 1756
491 1758
491 1771
491 1863
491 1984
491 2172
491 2216
491 2248
492 497
492 508
492 519
492 534
492 551
492 558
492 562
492 621
492 623
492 673
492 675
492 691
492 704
492 753
492 779
492 815
492 822
492 853
492 854
492 875
492 908
492 912
492 928
492 931
492 956
492 959
492 972
492 1034
492 1045
492 1095
492 1148
492 1153
492 1162
492 1163
492 1188
492 1196
492 1234
492 1250
492 1252
492 1254
492 1275
492 1287
492 1306
492 1315
492 1330
492 1358
492 1381
492 1386
492 1423
492 1465
492 1477
492 1509
492 1519
492 1529
492 1539
492 1551
492 1553
492 1561
492 1563
492 1573
492 1585
492 1608
492 1620
492 1636
492 1668
492 1676
492 1685
492 1687
492 1698
492 1712
492 1717
492 1757
492 1764
492 1778
492 1814
492 1818
492 1821
492 1833
492 1834
492 1884
492 1900
492 1907
492 1915
492 1921
492 1944
492 1946
492 1971
492 1973
492 2002
492 2007
492 2017
492 2044
492 2061
492 2078
492 2087
492 2105
492 2106
492 2112
492 2150
492 2152
492 2180
492 2211
492 2221
492 2224
492 2237
492 2238
492 2242
493 505
493 567
493 581
493 603
493 622
493 627
493 628
493 684
493 713
493 773
493 787
493 811
493 852
493 913
493 924
493 951
493 954
493 960
493 992
493 1015
493 1132
493 1141
493 1220
493 1261
493 1269
493 1279
493 1280
493 1293
493 1301
493 1311
493 1317
493 1322
493 1324
493 1340
493 1358
493 1369
493 1382
493 1416
493 1419
493 1463
493 1647
493 1656
493 1771
493 1795
493 1803
493 1818
493 1838
493 1849
493 1853
493 1878
493 1881
493 1975
493 1980
493 1989
493 2006
493 2009
493 2018
493 2020
493 2103
493 2104
493 2144
493 2153
493 2177
494 510
494 536
494 542
494 613
494 614
494 617
494 643
494 662
494 672
494 706
494 720
494 729
494 757
494 791
494 795
494 868
494 873
494 911
494 923
494 1009
494 1024
494 1028
494 1044
494 1049
494 1051
494 1056
494 1086
494 1100
494 1104
494 1129
494 1171
494 1283
494 1335
494 1421
494 1432
494 1473
494 1474
494 1486
494 1487
494 1493
494 1545
494 1589
494 1611
494 1628
494 1651
494 1697
494 1739
494 1744
494 1749
494 1774
494 1783
494 1790
494 1794
494 1796
494 1846
494 1855
494 1863
494 1898
494 1917
494 2043
494 2089
494 2091
494 2118
494 2134
494 2136
494 2161
494 2206
494 2216
495 497
495 519
495 562
495 570
495 598
495 646
495 675
495 750
495 753
495 782
495 815
495 854
495 875
495 956
495 959
495 978
495 1012
495 1045
495 1050
495 1072
495 1095
495 1142
495 1148
495 1153
495 1157
495 1163
495 1241
495 1254
495 1275
495 1287
495 1330
495 1373
495 1379
495 1423
495 1477
495 1509
495 1525
495 1539
495 1551
495 1561
495 1583
495 1620
495 1621
495 1636
495 1668
495 1672
495 1676
495 1682
495 1685
495 1784
495 1821
495 1907
495 1915
495 1973
495 2002
495 2007
495 2075
495 2082
495 2130
495 2135
495 2178
495 2180
495 2184
495 2210
495 2211
495 2221
495 2224
495 2227
495 2242
495 2244
496 721
496 775
496 926
496 950
496 1529
497 519
497 550
497 551
497 602
497 638
497 673
497 691
497 714
497 753
497 817
497 840
497 853
497 854
497 959
497 1007
497 1045
497 1095
497 1101
497 1148
497 1157
497 1162
497 1206
497 1252
497 1275
497 1306
497 1326
497 1373
497 1386
497 1411
497 1494
497 1502
497 1531
497 1535
497 1552
497 1561
497 1602
497 1614
497 1648
497 1672
497 1684
497 1698
497 1712
497 1833
497 1841
497 1907
497 1913
497 1921
497 1944
497 1945
497 1946
497 1971
497 1996
497 2014
497 2017
497 2057
497 2112
497 2122
497 2130
497 2211
497 2221
497 2237
497 2238
498 506
498 515
498 579
498 587
498 690
498 745
498 816
498 872
498 985
498 988
498 1056
498 1126
498 1402
498 1405
498 1849
498 2031
498 2032
498 2124
499 688
499 702
499 734
499 784
499 826
499 828
499 867
499 878
499 888
499 917
499 977
499 1003
499 1075
499 1129
499 1169
499 1178
499 1229
499 1286
499 1298
499 1308
499 1310
499 1329
499 1426
499 1554
499 1603
499 1654
499 1663
499 1673
499 1722
499 1741
499 1832
499 1845
499 1849
499 1932
499 1965
499 2025
499 2047
499 2098
499 2110
499 2134
499 2157
499 2233
499 2234
500 504
500 505
500 516
500 517
500 552
500 560
500 588
500 594
500 610
500 622
500 645
500 647
500 651
500 656
500 662
500 696
500 736
500 738
500 768
500 771
500 773
500 780
500 795
500 812
500 824
500 832
500 839
500 873
500 880
500 881
500 889
500 894
500 900
500 905
500 915
500 920
500 923
500 938
500 954
500 971
500 979
500 1006
500 1008
500 1009
500 1058
500 1059
500 1066
500 1090
500 1121
500 1154
500 1174
500 1189
500 1192
500 1212
500 1225
500 1227
500 1238
500 1241
500 1272
500 1308
500 1322
500 1332
500 1353
500 1358
500 1365
500 1375
500 1389
500 1391
500 1395
500 1398
500 1420
500 1425
500 1443
500 1459
500 1489
500 1492
500 1510
500 1515
500 1518
500 1554
500 1569
500 1575
500 1603
500 1616
500 1625
500 1637
500 1639
500 1649
500 1686
500 1692
500 1707
500 1721
500 1722
500 1741
500 1753
500 1774
500 1802
500 1813
500 1818
500 1820
500 1862
500 1871
500 1878
500 1880
500 1908
500 1911
500 1920
500 1934
500 1975
500 2022
500 2025
500 2043
500 2068
500 2074
500 2081
500 2089
500 2099
500 2104
500 2110
500 2127
500 2134
500 2157
500 2189
500 2231
500 2246
501 524
501 535
501 612
501 643
501 645
501 736
501 737
501 831
501 861
501 874
501 899
501 938
501 1026
501 1029
501 1040
501 1046
501 1054
501 1057
501 1073
501 1089
501 1100
501 1125
501 1232
501 1242
501 1298
501 1339
501 1370
501 1376
501 1431
501 1563
501 1564
501 1654
501 1671
501 1720
501 1805
501 1818
501 1824
501 1849
501 1863
501 1894
501 1925
501 1962
501 1967
501 1985
501 1992
501 2069
501 2072
501 2160
501 2162
501 2185
501 2202
501 2236
502 537
502 591
502 645
502 655
502 656
502 846
502 887
502 894
502 942
502 957
502 1117
502 1180
502 1212
502 1233
502 1247
502 1385
502 1474
502 1486
502 1520
502 1743
502 1746
502 1774
502 2029
502 2107
502 2108
502 2159
503 556
503 563
503 576
503 580
503 625
503 642
503 682
503 712
503 812
503 819
503 825
503 844
503 847
503 852
503 865
503 897
503 915
503 969
503 979
503 987
503 1029
503 1043
503 1057
503 1064
503 1068
503 1109
503 1111
503 1155
503 1176
503 1208
503 1240
503 1260
503 1270
503 1364
503 1374
503 1425
503 1431
503 1456
503 1460
503 1485
503 1509
503 1527
503 1554
503 1567
503 1593
503 1625
503 1643
503 1673
503 1701
503 1706
503 1720
503 1747
503 1772
503 1797
503 1848
503 1883
503 1902
503 1904
503 1929
503 1947
503 1959
503 1995
503 2037
503 2065
503 2100
503 2162
503 2168
503 2181
503 2197
503 2233
503 2248
504 516
504 524
504 527
504 568
504 577
504 641
504 645
504 655
504 659
504 662
504 699
504 720
504 736
504 773
504 785
504 795
504 831
504 894
504 920
504 923
504 925
504 938
504 957
504 977
504 1009
504 1058
504 1059
504 1066
504 1117
504 1125
504 1145
504 1212
504 1230
504 1277
504 1318
504 1322
504 1349
504 1356
504 1378
504 1385
504 1390
504 1391
504 1397
504 1409
504 1421
504 1424
504 1463
504 1474
504 1484
504 1485
504 1520
504 1532
504 1554
504 1607
504 1613
504 1624
504 1658
504 1672
504 1743
504 1771
504 1818
504 1827
504 1855
504 1870
504 1875
504 1939
504 2012
504 2029
504 2052
504 2104
504 2117
504 2118
504 2123
504 2140
504 2148
504 2161
504 2174
504 2188
504 2204
504 2236
504 2241
505 511
505 514
505 518
505 522
505 525
505 545
505 552
505 569
505 580
505 610
505 627
505 669
505 678
505 699
505 723
505 756
505 783
505 806
505 880
505 898
505 910
505 938
505 953
505 954
505 960
505 1043
505 1098
505 1103
505 1106
505 1132
505 1169
505 1195
505 1218
505 1225
505 1230
505 1266
505 1274
505 1280
505 1307
505 1308
505 1344
505 1369
505 1372
505 1413
505 1510
505 1560
505 1584
505 1589
505 1594
505 1630
505 1645
505 1662
505 1669
505 1700
505 1704
505 1768
505 1772
505 1799
505 1802
505 1803
505 1818
505 1829
505 1838
505 1849
505 1866
505 1867
505 1881
505 1903
505 1910
505 1938
505 2003
505 2006
505 2009
505 2010
505 2020
505 2038
505 2047
505 2062
505 2072
505 2085
505 2134
505 2144
505 2167
505 2177
505 2234
506 513
506 515
506 694
506 723
506 745
506 748
506 816
506 985
506 988
506 989
506 1133
506 1137
506 1167
506 1229
506 1251
506 1329
506 1347
506 1359
506 1400
506 1402
506 1405
506 1426
506 1711
506 1721
506 1897
506 1976
506 1988
506 2031
506 2032
506 2083
506 2098
506 2120
506 2125
506 2151
507 575
507 580
507 582
507 589
507 608
507 716
507 778
507 783
507 798
507 813
507 826
507 835
507 839
507 843
507 872
507 907
507 939
507 953
507 963
507 970
507 990
507 1006
507 1016
507 1097
507 1103
507 1124
507 1170
507 1187
507 1195
507 1200
507 1223
507 1231
507 1237
507 1258
507 1282
507 1292
507 1333
507 1337
507 1374
507 1383
507 1419
507 1448
507 1476
507 1482
507 1562
507 1643
507 1662
507 1679
507 1694
507 1707
507 1782
507 1791
507 1802
507 1806
507 1818
507 1825
507 1840
507 1854
507 1924
507 1927
507 1948
507 1988
507 2006
507 2142
507 2145
507 2169
507 2183
507 2235
508 595
508 601
508 638
508 721
508 735
508 854
508 950
508 959
508 986
508 1007
508 1034
508 1060
508 1093
508 1162
508 1250
508 1263
508 1529
508 1539
508 1582
508 1644
508 1668
508 1778
508 1814
508 1915
508 1933
508 2007
508 2105
509 519
509 570
509 598
509 611
509 619
509 640
509 654
509 721
509 750
509 753
509 782
509 814
509 815
509 868
509 875
509 912
509 928
509 943
509 950
509 959
509 974
509 978
509 986
509 1012
509 1025
509 1031
509 1034
509 1045
509 1050
509 1061
509 1110
509 1148
509 1157
509 1163
509 1188
509 1190
509 1200
509 1201
509 1315
509 1326
509 1330
509 1362
509 1383
509 1423
509 1427
509 1479
509 1491
509 1512
509 1529
509 1531
509 1539
509 1548
509 1552
509 1573
509 1585
509 1614
509 1621
509 1652
509 1668
509 1672
509 1683
509 1685
509 1687
509 1723
509 1737
509 1821
509 1823
509 1833
509 1834
509 1841
509 1866
509 1873
509 1884
509 1909
509 1915
509 1996
509 2054
509 2075
509 2105
509 2130
509 2210
509 2211
509 2227
509 2247
510 514
510 522
510 560
510 579
510 603
510 630
510 639
510 649
510 692
510 710
510 797
510 831
510 868
510 873
510 894
510 976
510 998
510 1004
510 1019
510 1037
510 1042
510 1092
510 1120
510 1121
510 1151
510 1212
510 1213
510 1220
510 1283
510 1309
510 1312
510 1335
510 1346
510 1352
510 1403
510 1413
510 1480
510 1488
510 1498
510 1514
510 1516
510 1554
510 1604
510 1613
510 1646
510 1670
510 1716
510 1744
510 1770
510 1783
510 1807
510 1842
510 1870
510 1910
510 1935
510 1964
510 1974
510 2016
510 2028
510 2029
510 2043
510 2091
510 2099
510 2118
510 2136
510 2231
511 518
511 544
511 545
511 559
511 608
511 610
511 627
511 669
511 684
511 687
511 711
511 721
511 723
511 734
511 746
511 787
511 810
511 920
511 942
511 947
511 950
511 953
511 954
511 960
511 984
511 1000
511 1006
511 1019
511 1046
511 1048
511 1065
511 1075
511 1103
511 1129
511 1195
511 1225
511 1235
511 1241
511 1280
511 1304
511 1307
511 1367
511 1369
511 1372
511 1396
511 1419
511 1492
511 1537
511 1569
511 1579
511 1589
511 1592
511 1646
511 1669
511 1769
511 1772
511 1802
511 1803
511 1829
511 1859
511 1866
511 1867
511 1881
511 1892
511 1903
511 1975
511 2006
511 2018
511 2045
511 2074
511 2077
511 2085
511 2098
511 2099
511 2144
511 2156
511 2165
511 2177
511 2195
511 2203
511 2209
512 521
512 528
512 573
512 593
512 600
512 701
512 702
512 731
512 732
512 754
512 763
512 765
512 769
512 776
512 790
512 839
512 869
512 897
512 907
512 935
512 948
512 967
512 973
512 992
512 1005
512 1010
512 1081
512 1139
512 1160
512 1178
512 1181
512 1223
512 1229
512 1245
512 1246
512 1251
512 1256
512 1283
512 1321
512 1343
512 1346
512 1351
512 1394
512 1400
512 1402
512 1408
512 1438
512 1526
512 1562
512 1576
512 1626
512 1638
512 1662
512 1748
512 1790
512 1799
512 1801
512 1802
512 1836
512 1858
512 1924
512 1928
512 1932
512 1937
512 1938
512 1956
512 1969
512 1983
512 2032
512 2096
512 2115
512 2124
512 2141
512 2179
512 2189
512 2218
513 663
513 699
513 713
513 757
513 826
513 882
513 919
513 995
513 1011
513 1048
513 1103
513 1133
513 1137
513 1195
513 1227
513 1260
513 1294
513 1304
513 1308
513 1329
513 1347
513 1349
513 1359
513 1402
513 1414
513 1426
513 1476
513 1486
513 1526
513 1547
513 1640
513 1695
513 1700
513 1709
513 1711
513 1715
513 1721
513 1773
513 1785
513 1803
513 1850
513 1888
513 1898
513 1911
513 2029
513 2033
513 2065
513 2098
513 2103
513 2110
513 2120
513 2123
513 2146
513 2147
513 2157
513 2205
513 2232
514 517
514 546
514 552
514 622
514 624
514 627
514 651
514 699
514 702
514 718
514 720
514 723
514 724
514 729
514 757
514 760
514 764
514 773
514 803
514 826
514 828
514 858
514 910
514 923
514 938
514 960
514 961
514 984
514 1006
514 1009
514 1013
514 1019
514 1056
514 1100
514 1103
514 1104
514 1119
514 1155
514 1204
514 1225
514 1236
514 1274
514 1277
514 1280
514 1286
514 1304
514 1307
514 1310
514 1332
514 1349
514 1358
514 1380
514 1406
514 1413
514 1429
514 1450
514 1458
514 1474
514 1486
514 1492
514 1493
514 1498
514 1500
514 1503
514 1510
514 1522
514 1575
514 1584
514 1589
514 1603
514 1612
514 1641
514 1653
514 1697
514 1700
514 1704
514 1709
514 1711
514 1721
514 1732
514 1739
514 1741
514 1773
514 1774
514 1796
514 1799
514 1802
514 1803
514 1807
514 1818
514 1827
514 1835
514 1876
514 1903
514 1911
514 1952
514 1965
514 1981
514 2012
514 2020
514 2027
514 2043
514 2091
514 2099
514 2103
514 2107
514 2117
514 2120
514 2134
514 2142
514 2183
514 2205
514 2235
515 544
515 587
515 589
515 745
515 761
515 783
515 927
515 947
515 964
515 985
515 988
515 1103
515 1114
515 1126
515 1150
515 1164
515 1168
515 1187
515 1215
515 1222
515 1231
515 1280
515 1297
515 1304
515 1325
515 1359
515 1393
515 1428
515 1534
515 1594
515 1744
515 1788
515 1799
515 1803
515 1844
515 1851
515 1876
515 1892
515 1938
515 1956
515 1994
515 2008
515 2031
515 2125
515 2192
515 2218
515 2228
516 517
516 560
516 568
516 577
516 586
516 591
516 645
516 662
516 720
516 736
516 787
516 794
516 795
516 841
516 894
516 938
516 1046
516 1058
516 1069
516 1106
516 1112
516 1118
516 1125
516 1139
516 1151
516 1204
516 1212
516 1236
516 1241
516 1247
516 1322
516 1358
516 1385
516 1420
516 1432
516 1443
516 1474
516 1520
516 1532
516 1569
516 1669
516 1715
516 1716
516 1732
516 1738
516 1743
516 1759
516 1816
516 1818
516 1870
516 1979
516 2006
516 2043
516 2076
516 2091
516 2102
516 2115
516 2139
516 2156
516 2159
516 2161
516 2174
517 528
517 536
517 552
517 565
517 582
517 624
517 633
517 722
517 723
517 724
517 729
517 734
517 736
517 810
517 826
517 839
517 843
517 847
517 869
517 880
517 895
517 918
517 923
517 924
517 938
517 942
517 960
517 961
517 973
517 979
517 984
517 1006
517 1009
517 1029
517 1046
517 1054
517 1056
517 1081
517 1086
517 1100
517 1103
517 1119
517 1124
517 1129
517 1139
517 1140
517 1155
517 1195
517 1220
517 1225
517 1244
517 1251
517 1258
517 1262
517 1273
517 1274
517 1292
517 1298
517 1325
517 1340
517 1344
517 1378
517 1399
517 1409
517 1413
517 1421
517 1425
517 1434
517 1440
517 1441
517 1443
517 1459
517 1476
517 1486
517 1493
517 1507
517 1526
517 1578
517 1589
517 1626
517 1628
517 1630
517 1638
517 1642
517 1646
517 1654
517 1656
517 1662
517 1688
517 1704
517 1739
517 1741
517 1759
517 1799
517 1802
517 1817
517 1818
517 1832
517 1840
517 1849
517 1863
517 1875
517 1878
517 1881
517 1890
517 1931
517 1938
517 1965
517 1969
517 1974
517 1975
517 1982
517 1988
517 1990
517 2006
517 2012
517 2034
517 2041
517 2047
517 2063
517 2080
517 2085
517 2086
517 2110
517 2115
517 2117
517 2153
517 2173
517 2175
517 2194
517 2225
518 532
518 545
518 588
518 624
518 637
518 669
518 674
518 678
518 723
518 729
518 734
518 756
518 942
518 954
518 1019
518 1132
518 1225
518 1228
518 1269
518 1285
518 1299
518 1322
518 1344
518 1413
518 1460
518 1510
518 1527
518 1530
518 1575
518 1596
518 1630
518 1647
518 1653
518 1670
518 1735
518 1795
518 1803
518 1825
518 1829
518 1883
518 1908
518 1920
518 2027
518 2083
518 2085
518 2086
518 2089
518 2131
518 2198
519 531
519 538
519 550
519 551
519 556
519 562
519 570
519 581
519 583
519 621
519 623
519 625
519 640
519 646
519 675
519 696
519 714
519 723
519 753
519 789
519 793
519 815
519 854
519 875
519 884
519 912
519 928
519 931
519 950
519 951
519 959
519 978
519 983
519 1031
519 1045
519 1050
519 1088
519 1095
519 1105
519 1110
519 1124
519 1148
519 1157
519 1166
519 1206
519 1244
519 1254
519 1279
519 1302
519 1315
519 1326
519 1330
519 1341
519 1348
519 1362
519 1379
519 1386
519 1423
519 1427
519 1491
519 1494
519 1509
519 1529
519 1531
519 1539
519 1548
519 1551
519 1552
519 1582
519 1583
519 1602
519 1608
519 1617
519 1620
519 1621
519 1632
519 1648
519 1652
519 1656
519 1668
519 1672
519 1676
519 1685
519 1698
519 1733
519 1737
519 1784
519 1821
519 1833
519 1841
519 1873
519 1907
519 1915
519 1921
519 1923
519 1945
519 1963
519 1969
519 1973
519 1977
519 2070
519 2075
519 2135
519 2180
519 2191
519 2210
519 2211
519 2221
519 2227
519 2240
519 2244
520 774
520 1045
520 1602
520 1945
520 2057
521 573
521 593
521 632
521 642
521 702
521 732
521 734
521 740
521 746
521 755
521 801
521 907
521 948
521 960
521 967
521 973
521 990
521 992
521 1005
521 1028
521 1029
521 1067
521 1122
521 1139
521 1140
521 1152
521 1160
521 1164
521 1178
521 1181
521 1218
521 1229
521 1245
521 1251
521 1309
521 1343
521 1346
521 1351
521 1392
521 1394
521 1402
521 1408
521 1428
521 1438
521 1442
521 1544
521 1591
521 1626
521 1638
521 1662
521 1773
521 1799
521 1822
521 1836
521 1888
521 1889
521 1956
521 1988
521 2026
521 2032
521 2047
521 2083
521 2096
521 2115
521 2124
521 2141
521 2145
521 2151
521 2179
522 542
522 563
522 594
522 649
522 768
522 785
522 791
522 795
522 799
522 832
522 873
522 894
522 920
522 954
522 976
522 1015
522 1019
522 1020
522 1033
522 1046
522 1088
522 1116
522 1117
522 1133
522 1191
522 1212
522 1220
522 1222
522 1233
522 1241
522 1247
522 1277
522 1322
522 1332
522 1334
522 1358
522 1363
522 1364
522 1406
522 1409
522 1434
522 1460
522 1488
522 1504
522 1532
522 1554
522 1564
522 1575
522 1594
522 1596
522 1610
522 1632
522 1646
522 1692
522 1716
522 1722
522 1743
522 1818
522 1827
522 1866
522 1870
522 1901
522 1908
522 1911
522 1964
522 2043
522 2081
522 2089
522 2108
522 2117
522 2161
522 2176
522 2231
523 638
523 704
523 957
524 596
524 612
524 645
524 737
524 780
524 787
524 818
524 852
524 862
524 871
524 874
524 925
524 949
524 960
524 1026
524 1058
524 1084
524 1094
524 1104
524 1111
524 1119
524 1145
524 1241
524 1278
524 1294
524 1313
524 1339
524 1370
524 1376
524 1384
524 1385
524 1421
524 1430
524 1431
524 1445
524 1452
524 1471
524 1506
524 1564
524 1570
524 1605
524 1671
524 1688
524 1702
524 1718
524 1720
524 1721
524 1824
524 1858
524 1875
524 1894
524 1909
524 1936
524 1984
524 2003
524 2012
524 2066
524 2069
524 2118
524 2137
524 2140
524 2148
524 2171
524 2202
524 2233
524 2236
524 2249
525 529
525 532
525 542
525 545
525 656
525 674
525 677
525 695
525 699
525 741
525 773
525 783
525 786
525 811
525 872
525 918
525 927
525 938
525 954
525 962
525 981
525 984
525 996
525 1000
525 1006
525 1015
525 1033
525 1042
525 1053
525 1116
525 1138
525 1169
525 1171
525 1179
525 1221
525 1225
525 1310
525 1318
525 1335
525 1345
525 1349
525 1352
525 1361
525 1375
525 1399
525 1413
525 1454
525 1475
525 1486
525 1510
525 1522
525 1540
525 1549
525 1569
525 1586
525 1619
525 1649
525 1651
525 1653
525 1669
525 1731
525 1739
525 1741
525 1818
525 1825
525 1849
525 1881
525 1891
525 1920
525 1926
525 1931
525 1938
525 1965
525 1994
525 2068
525 2074
525 2089
525 2091
525 2099
525 2143
525 2147
525 2156
525 2165
525 2195
525 2198
525 2243
526 567
526 575
526 594
526 600
526 606
526 637
526 702
526 773
526 778
526 780
526 795
526 905
526 924
526 960
526 1038
526 1116
526 1136
526 1266
526 1285
526 1322
526 1358
526 1406
526 1413
526 1443
526 1460
526 1474
526 1575
526 1603
526 1630
526 1658
526 1705
526 1754
526 1787
526 1799
526 1866
526 1889
526 1910
526 2047
526 2051
526 2089
526 2127
526 2157
526 2185
526 2204
527 545
527 552
527 553
527 557
527 567
527 576
527 603
527 635
527 738
527 741
527 771
527 812
527 827
527 905
527 924
527 938
527 977
527 1000
527 1090
527 1121
527 1125
527 1173
527 1180
527 1226
527 1230
527 1247
527 1249
527 1312
527 1318
527 1342
527 1355
527 1370
527 1375
527 1382
527 1395
527 1397
527 1406
527 1439
527 1441
527 1443
527 1474
527 1492
527 1531
527 1611
527 1616
527 1639
527 1673
527 1692
527 1695
527 1722
527 1736
527 1743
527 1745
527 1799
527 1800
527 1818
527 1820
527 1827
527 1852
527 1858
527 1871
527 1911
527 1994
527 2022
527 2026
527 2043
527 2050
527 2104
527 2126
527 2139
527 2160
527 2174
527 2191
527 2232
527 2235
527 2246
528 556
528 565
528 575
528 581
528 585
528 589
528 608
528 609
528 610
528 633
528 646
528 647
528 657
528 670
528 682
528 712
528 723
528 744
528 746
528 755
528 769
528 776
528 783
528 798
528 801
528 803
528 839
528 843
528 844
528 848
528 865
528 869
528 880
528 895
528 907
528 913
528 924
528 935
528 939
528 951
528 970
528 973
528 979
528 983
528 990
528 992
528 1009
528 1016
528 1029
528 1066
528 1071
528 1077
528 1086
528 1088
528 1106
528 1124
528 1130
528 1142
528 1154
528 1164
528 1174
528 1200
528 1229
528 1230
528 1231
528 1237
528 1243
528 1246
528 1249
528 1251
528 1262
528 1270
528 1271
528 1279
528 1282
528 1288
528 1292
528 1293
528 1296
528 1321
528 1325
528 1333
528 1340
528 1348
528 1365
528 1369
528 1383
528 1393
528 1394
528 1399
528 1408
528 1419
528 1420
528 1428
528 1434
528 1438
528 1440
528 1443
528 1459
528 1463
528 1467
528 1468
528 1483
528 1499
528 1507
528 1562
528 1566
528 1576
528 1607
528 1609
528 1634
528 1638
528 1643
528 1656
528 1662
528 1679
528 1701
528 1713
528 1736
528 1741
528 1748
528 1750
528 1754
528 1768
528 1782
528 1799
528 1802
528 1810
528 1812
528 1818
528 1832
528 1838
528 1840
528 1853
528 1862
528 1878
528 1890
528 1893
528 1902
528 1923
528 1924
528 1928
528 1938
528 1948
528 1962
528 1963
528 1969
528 1975
528 1977
528 2006
528 2009
528 2020
528 2022
528 2042
528 2063
528 2070
528 2083
528 2088
528 2104
528 2117
528 2151
528 2153
528 2169
528 2181
528 2183
528 2193
528 2230
528 2235
528 2246
528 2248
529 567
529 568
529 603
529 695
529 741
529 842
529 872
529 960
529 1015
529 1022
529 1033
529 1046
529 1048
529 1053
529 1090
529 1096
529 1221
529 1283
529 1375
529 1414
529 1469
529 1594
529 1640
529 1651
529 1726
529 1783
529 1792
529 1875
529 1904
529 1910
529 1911
529 1920
529 1951
529 1957
529 2147
529 2195
529 2196
529 2208
529 2231
530 579
530 834
530 996
530 1137
530 1336
530 1435
530 1615
530 1633
530 1970
530 2024
530 2035
531 556
531 561
531 647
531 671
531 716
531 755
531 769
531 775
531 776
531 783
531 801
531 808
531 818
531 825
531 852
531 865
531 893
531 925
531 969
531 1062
531 1068
531 1077
531 1079
531 1097
531 1111
531 1142
531 1223
531 1267
531 1288
531 1323
531 1408
531 1410
531 1431
531 1460
531 1484
531 1562
531 1566
531 1567
531 1574
531 1580
531 1584
531 1605
531 1609
531 1645
531 1665
531 1673
531 1701
531 1703
531 1704
531 1723
531 1756
531 1802
531 1810
531 1923
531 1977
531 1995
531 2012
531 2036
531 2042
531 2095
531 2100
531 2169
531 2213
531 2248
532 545
532 610
532 656
532 663
532 697
532 723
532 741
532 786
532 847
532 892
532 895
532 940
532 942
532 954
532 1029
532 1030
532 1033
532 1043
532 1044
532 1057
532 1061
532 1132
532 1154
532 1221
532 1225
532 1299
532 1322
532 1342
532 1358
532 1370
532 1393
532 1406
532 1413
532 1443
532 1460
532 1497
532 1507
532 1510
532 1522
532 1532
532 1540
532 1554
532 1569
532 1575
532 1618
532 1629
532 1630
532 1704
532 1726
532 1735
532 1788
532 1825
532 1827
532 1829
532 1866
532 1903
532 1908
532 1920
532 1960
532 1968
532 1969
532 2027
532 2068
532 2086
532 2089
532 2147
532 2167
532 2200
533 541
533 569
533 574
533 575
533 679
533 705
533 796
533 806
533 825
533 843
533 889
533 913
533 963
533 1008
533 1021
533 1054
533 1066
533 1107
533 1223
533 1258
533 1262
533 1274
533 1340
533 1365
533 1410
533 1418
533 1430
533 1506
533 1512
533 1546
533 1634
533 1664
533 1665
533 1679
533 1723
533 1753
533 1755
533 1802
533 1809
533 1818
533 1847
533 1866
533 2040
533 2045
533 2053
533 2063
533 2087
533 2153
533 2168
533 2169
534 621
534 640
534 714
534 750
534 753
534 776
534 875
534 1082
534 1166
534 1275
534 1315
534 1330
534 1366
534 1386
534 1509
534 1595
534 1620
534 1672
534 1676
534 1685
534 1778
534 1808
534 1903
534 2109
534 2227
535 548
535 561
535 601
535 620
535 699
535 737
535 861
535 899
535 923
535 938
535 942
535 957
535 1026
535 1054
535 1232
535 1238
535 1242
535 1255
535 1267
535 1327
535 1376
535 1431
535 1480
535 1501
535 1589
535 1600
535 1681
535 1720
535 1809
535 1846
535 1875
535 1925
535 1936
535 2023
535 2036
535 2069
535 2148
535 2160
535 2171
535 2185
535 2187
535 2197
536 582
536 624
536 706
536 711
536 740
536 757
536 787
536 839
536 901
536 911
536 920
536 923
536 938
536 961
536 967
536 980
536 981
536 984
536 1006
536 1009
536 1029
536 1046
536 1081
536 1096
536 1100
536 1104
536 1119
536 1138
536 1169
536 1179
536 1230
536 1235
536 1265
536 1277
536 1346
536 1378
536 1399
536 1408
536 1409
536 1421
536 1432
536 1454
536 1476
536 1483
536 1507
536 1549
536 1565
536 1589
536 1591
536 1607
536 1628
536 1656
536 1673
536 1688
536 1722
536 1749
536 1759
536 1774
536 1782
536 1783
536 1794
536 1796
536 1801
536 1817
536 1818
536 1836
536 1876
536 1930
536 1966
536 1974
536 1982
536 1990
536 1994
536 2012
536 2118
536 2123
536 2141
536 2194
537 579
537 591
537 593
537 603
537 609
537 643
537 649
537 692
537 773
537 794
537 797
537 824
537 827
537 868
537 873
537 894
537 900
537 976
537 1017
537 1057
537 1063
537 1112
537 1151
537 1154
537 1180
537 1212
537 1249
537 1307
537 1360
537 1401
537 1434
537 1446
537 1474
537 1498
537 1532
537 1554
537 1613
537 1641
537 1709
537 1715
537 1743
537 1789
537 1870
537 1878
537 1918
537 1952
537 1964
537 1974
537 2015
537 2099
537 2158
537 2174
538 581
538 647
538 653
538 657
538 670
538 723
538 725
538 765
538 783
538 798
538 826
538 869
538 877
538 951
538 970
538 983
538 990
538 1047
538 1071
538 1086
538 1088
538 1150
538 1164
538 1256
538 1270
538 1274
538 1279
538 1302
538 1321
538 1346
538 1499
538 1526
538 1576
538 1602
538 1635
538 1638
538 1733
538 1737
538 1750
538 1788
538 1799
538 1802
538 1840
538 1872
538 1906
538 1915
538 1963
538 1969
538 1977
538 2006
538 2020
538 2070
538 2088
538 2183
538 2230
539 560
539 592
539 607
539 707
539 731
539 787
539 790
539 811
539 813
539 823
539 941
539 944
539 1005
539 1015
539 1024
539 1075
539 1106
539 1118
539 1140
539 1154
539 1205
539 1218
539 1222
539 1229
539 1235
539 1247
539 1270
539 1283
539 1284
539 1294
539 1309
539 1346
539 1387
539 1393
539 1394
539 1399
539 1405
539 1413
539 1414
539 1428
539 1432
539 1441
539 1489
539 1522
539 1526
539 1626
539 1658
539 1700
539 1722
539 1753
539 1762
539 1773
539 1779
539 1783
539 1788
539 1790
539 1794
539 1795
539 1799
539 1850
539 1889
539 1919
539 1932
539 1938
539 1988
539 2003
539 2021
539 2031
539 2032
539 2041
539 2048
539 2072
539 2076
539 2083
539 2094
539 2101
539 2103
539 2118
539 2134
539 2143
539 2165
539 2170
539 2216
540 545
540 594
540 610
540 612
540 617
540 637
540 651
540 674
540 677
540 784
540 786
540 802
540 811
540 861
540 954
540 1000
540 1225
540 1322
540 1364
540 1413
540 1497
540 1498
540 1596
540 1619
540 1637
540 1653
540 1692
540 1706
540 1726
540 1787
540 1795
540 1849
540 1852
540 2025
540 2134
540 2181
540 2235
541 599
541 622
541 625
541 682
541 705
541 709
541 712
541 716
541 734
541 843
541 847
541 848
541 919
541 924
541 1021
541 1026
541 1029
541 1040
541 1066
541 1068
541 1105
541 1111
541 1128
541 1142
541 1191
541 1244
541 1253
541 1258
541 1262
541 1271
541 1274
541 1290
541 1292
541 1298
541 1305
541 1311
541 1329
541 1340
541 1353
541 1369
541 1388
541 1460
541 1483
541 1504
541 1511
541 1558
541 1605
541 1626
541 1654
541 1662
541 1664
541 1665
541 1673
541 1706
541 1730
541 1751
541 1753
541 1756
541 1802
541 1805
541 1832
541 1846
541 1860
541 1863
541 1883
541 1895
541 1916
541 1955
541 2009
541 2036
541 2063
541 2072
541 2100
541 2168
541 2200
541 2248
542 548
542 587
542 614
542 617
542 624
542 643
542 662
542 672
542 706
542 720
542 721
542 729
542 738
542 757
542 760
542 764
542 768
542 891
542 910
542 911
542 923
542 942
542 984
542 987
542 1006
542 1009
542 1030
542 1033
542 1044
542 1046
542 1049
542 1051
542 1056
542 1100
542 1119
542 1137
542 1217
542 1221
542 1230
542 1277
542 1283
542 1349
542 1385
542 1409
542 1421
542 1440
542 1443
542 1454
542 1473
542 1474
542 1476
542 1486
542 1487
542 1543
542 1586
542 1594
542 1600
542 1607
542 1613
542 1632
542 1732
542 1739
542 1744
542 1752
542 1760
542 1774
542 1783
542 1818
542 1835
542 1852
542 1863
542 1917
542 1965
542 1982
542 1990
542 1994
542 2012
542 2043
542 2091
542 2117
542 2118
542 2148
542 2201
543 574
543 712
543 806
543 811
543 848
543 859
543 862
543 934
543 937
543 1066
543 1094
543 1113
543 1155
543 1311
543 1342
543 1392
543 1474
543 1671
543 1720
543 1824
543 1855
543 1865
543 2052
543 2065
543 2108
543 2129
543 2133
543 2187
543 2202
543 2233
544 584
544 639
544 703
544 726
544 927
544 996
544 1075
544 1088
544 1100
544 1114
544 1218
544 1280
544 1304
544 1453
544 1487
544 1508
544 1607
544 1615
544 1675
544 1688
544 1743
544 1788
544 1799
544 1803
544 1851
544 1950
544 2091
544 2097
544 2118
544 2125
544 2174
545 567
545 617
545 674
545 677
545 741
545 771
545 785
545 786
545 794
545 803
545 824
545 828
545 838
545 872
545 905
545 961
545 1000
545 1019
545 1024
545 1030
545 1033
545 1137
545 1141
545 1165
545 1169
545 1195
545 1225
545 1230
545 1239
545 1269
545 1283
545 1312
545 1318
545 1329
545 1342
545 1375
545 1385
545 1395
545 1413
545 1421
545 1441
545 1474
545 1498
545 1503
545 1540
545 1569
545 1570
545 1579
545 1589
545 1611
545 1612
545 1646
545 1653
545 1692
545 1726
545 1783
545 1787
545 1818
545 1829
545 1852
545 1880
545 1903
545 1960
545 1982
545 1994
545 2025
545 2043
545 2050
545 2098
545 2165
545 2200
545 2243
545 2246
546 586
546 635
546 696
546 713
546 771
546 847
546 900
546 905
546 924
546 1045
546 1090
546 1106
546 1218
546 1226
546 1229
546 1310
546 1312
546 1317
546 1332
546 1363
546 1372
546 1375
546 1463
546 1489
546 1492
546 1515
546 1639
546 1816
546 1818
546 1838
546 1858
546 1878
546 1960
546 1975
546 2103
546 2104
546 2107
546 2191
546 2235
547 587
547 600
547 637
547 651
547 668
547 702
547 740
547 802
547 810
547 905
547 954
547 967
547 971
547 1004
547 1033
547 1139
547 1226
547 1264
547 1283
547 1285
547 1290
547 1413
547 1442
547 1443
547 1578
547 1584
547 1626
547 1722
547 1739
547 1769
547 1783
547 1787
547 1794
547 1799
547 1850
547 1889
547 2047
547 2086
547 2089
547 2110
547 2111
547 2115
547 2134
547 2189
548 561
548 601
548 699
548 712
548 766
548 806
548 825
548 847
548 861
548 862
548 923
548 937
548 957
548 1007
548 1029
548 1046
548 1057
548 1066
548 1084
548 1107
548 1113
548 1145
548 1242
548 1267
548 1327
548 1392
548 1431
548 1436
548 1480
548 1506
548 1671
548 1681
548 1708
548 1720
548 1747
548 1753
548 1758
548 1761
548 1852
548 2065
548 2069
548 2087
548 2100
548 2133
548 2160
548 2172
548 2185
548 2190
548 2233
549 642
549 1472
549 1960
550 598
550 604
550 621
550 654
550 673
550 691
550 704
550 714
550 742
550 753
550 774
550 779
550 817
550 847
550 863
550 926
550 950
550 956
550 959
550 965
550 993
550 1023
550 1034
550 1066
550 1074
550 1082
550 1091
550 1095
550 1110
550 1148
550 1206
550 1250
550 1252
550 1263
550 1287
550 1315
550 1319
550 1326
550 1423
550 1451
550 1509
550 1525
550 1529
550 1531
550 1551
550 1553
550 1561
550 1568
550 1608
550 1620
550 1636
550 1644
550 1652
550 1682
550 1684
550 1698
550 1706
550 1724
550 1784
550 1808
550 1821
550 1833
550 1839
550 1884
550 1921
550 1945
550 1946
550 1973
550 1996
550 1999
550 2002
550 2014
550 2113
550 2130
550 2178
551 571
551 595
551 602
551 652
551 661
551 673
551 714
551 723
551 753
551 779
551 789
551 815
551 844
551 860
551 870
551 912
551 928
551 950
551 959
551 969
551 978
551 1012
551 1045
551 1074
551 1101
551 1148
551 1153
551 1163
551 1287
551 1306
551 1330
551 1379
551 1381
551 1386
551 1411
551 1465
551 1491
551 1495
551 1509
551 1529
551 1531
551 1542
551 1567
551 1648
551 1676
551 1685
551 1698
551 1764
551 1767
551 1784
551 1884
551 1907
551 1915
551 1949
551 1971
551 1973
551 1978
551 1999
551 2013
551 2017
551 2060
551 2061
551 2075
551 2105
551 2112
551 2207
551 2211
551 2217
551 2224
551 2226
551 2227
552 553
552 565
552 567
552 569
552 586
552 594
552 603
552 610
552 627
552 633
552 647
552 656
552 669
552 684
552 696
552 723
552 732
552 738
552 755
552 765
552 768
552 769
552 771
552 776
552 785
552 786
552 800
552 801
552 812
552 824
552 826
552 842
552 861
552 872
552 873
552 880
552 882
552 893
552 898
552 900
552 905
552 915
552 924
552 935
552 938
552 954
552 960
552 969
552 979
552 987
552 992
552 1006
552 1008
552 1009
552 1010
552 1013
552 1030
552 1033
552 1044
552 1046
552 1066
552 1078
552 1090
552 1116
552 1117
552 1118
552 1147
552 1154
552 1159
552 1171
552 1173
552 1174
552 1212
552 1227
552 1239
552 1241
552 1261
552 1276
552 1286
552 1293
552 1300
552 1301
552 1308
552 1310
552 1312
552 1322
552 1329
552 1332
552 1340
552 1361
552 1364
552 1365
552 1375
552 1395
552 1399
552 1408
552 1409
552 1410
552 1416
552 1420
552 1434
552 1442
552 1443
552 1459
552 1474
552 1486
552 1489
552 1492
552 1512
552 1526
552 1553
552 1554
552 1569
552 1575
552 1583
552 1591
552 1594
552 1603
552 1611
552 1616
552 1647
552 1658
552 1662
552 1669
552 1692
552 1697
552 1708
552 1721
552 1723
552 1741
552 1742
552 1762
552 1768
552 1779
552 1783
552 1795
552 1799
552 1800
552 1802
552 1803
552 1817
552 1818
552 1820
552 1837
552 1838
552 1852
552 1862
552 1867
552 1871
552 1878
552 1880
552 1904
552 1908
552 1910
552 1911
552 1926
552 1928
552 1934
552 1936
552 1942
552 1949
552 1959
552 1975
552 1985
552 2010
552 2022
552 2025
552 2031
552 2043
552 2051
552 2065
552 2069
552 2089
552 2099
552 2104
552 2110
552 2127
552 2134
552 2153
552 2157
552 2170
552 2171
552 2175
552 2181
552 2186
552 2189
552 2200
552 2231
552 2232
552 2235
552 2246
553 556
553 567
553 576
553 607
553 653
553 689
553 696
553 715
553 743
553 762
553 771
553 785
553 808
553 812
553 818
553 832
553 844
553 848
553 890
553 905
553 934
553 937
553 950
553 1000
553 1017
553 1018
553 1029
553 1030
553 1054
553 1059
553 1062
553 1066
553 1073
553 1089
553 1242
553 1289
553 1305
553 1312
553 1318
553 1334
553 1342
553 1353
553 1355
553 1375
553 1430
553 1441
553 1558
553 1567
553 1569
553 1611
553 1656
553 1665
553 1692
553 1718
553 1720
553 1772
553 1787
553 1818
553 1828
553 1838
553 1852
553 1866
553 1880
553 1883
553 1909
553 1942
553 1947
553 1949
553 1955
553 1959
553 1962
553 1967
553 1996
553 2008
553 2011
553 2036
553 2042
553 2064
553 2087
553 2090
553 2091
553 2121
553 2160
553 2243
553 2246
553 2248
554 1033
554 1078
554 1689
554 2017
554 2075
555 885
555 1346
555 2084
556 580
556 581
556 610
556 626
556 631
556 633
556 646
556 647
556 653
556 665
556 716
556 727
556 732
556 743
556 762
556 778
556 799
556 801
556 818
556 825
556 832
556 844
556 845
556 847
556 848
556 852
556 865
556 890
556 893
556 902
556 935
556 951
556 963
556 969
556 983
556 992
556 1029
556 1030
556 1038
556 1059
556 1062
556 1071
556 1073
556 1079
556 1089
556 1097
556 1111
556 1142
556 1154
556 1158
556 1182
556 1200
556 1223
556 1240
556 1279
556 1288
556 1289
556 1305
556 1321
556 1334
556 1365
556 1384
556 1408
556 1410
556 1448
556 1456
556 1460
556 1468
556 1483
556 1497
556 1512
556 1566
556 1576
556 1593
556 1596
556 1634
556 1635
556 1642
556 1654
556 1656
556 1665
556 1673
556 1678
556 1679
556 1690
556 1701
556 1703
556 1704
556 1706
556 1723
556 1802
556 1899
556 1901
556 1902
556 1917
556 1923
556 1928
556 1948
556 1949
556 1977
556 1995
556 2036
556 2040
556 2042
556 2066
556 2100
556 2121
556 2168
556 2169
556 2175
556 2206
556 2230
556 2248
557 615
557 656
557 669
557 767
557 894
557 1120
557 1180
557 1204
557 1233
557 1247
557 1322
557 1382
557 1424
557 1669
557 1939
557 1980
557 1989
557 2043
557 2139
557 2159
558 601
558 1007
558 1027
558 1163
558 1294
558 1315
558 1330
558 1386
558 1411
558 1561
558 1672
558 1677
558 1685
558 1714
558 1717
558 1907
558 1971
558 2054
558 2075
558 2223
559 607
559 608
559 627
559 667
559 711
559 741
559 757
559 872
559 887
559 890
559 934
559 937
559 947
559 981
559 1015
559 1029
559 1035
559 1044
559 1046
559 1048
559 1073
559 1103
559 1129
559 1165
559 1169
559 1212
559 1235
559 1274
559 1280
559 1322
559 1349
559 1367
559 1431
559 1437
559 1474
559 1492
559 1503
559 1514
559 1554
559 1579
559 1611
559 1646
559 1669
559 1694
559 1741
559 1755
559 1769
559 1792
559 1803
559 1807
559 1818
559 1828
559 1852
559 1859
559 1892
559 1903
559 1987
559 2012
559 2023
559 2074
559 2077
559 2080
559 2085
559 2131
559 2165
559 2195
559 2197
559 2205
560 579
560 588
560 622
560 630
560 641
560 659
560 668
560 702
560 740
560 741
560 816
560 855
560 873
560 895
560 897
560 905
560 911
560 947
560 971
560 990
560 1006
560 1042
560 1046
560 1089
560 1096
560 1120
560 1143
560 1264
560 1283
560 1300
560 1309
560 1322
560 1361
560 1372
560 1382
560 1396
560 1413
560 1414
560 1473
560 1474
560 1487
560 1549
560 1569
560 1658
560 1745
560 1753
560 1769
560 1818
560 1831
560 1892
560 1910
560 1951
560 1974
560 1975
560 1994
560 2012
560 2068
560 2085
560 2089
560 2099
560 2101
560 2118
560 2123
560 2134
560 2188
560 2189
560 2216
560 2231
561 607
561 620
561 643
561 697
561 737
561 866
561 1008
561 1057
561 1242
561 1339
561 1353
561 1356
561 1376
561 1385
561 1671
561 1718
561 1720
561 1753
561 1824
561 1942
561 2069
561 2166
561 2249
562 570
562 580
562 583
562 622
562 673
562 1034
562 1101
562 1201
562 1206
562 1249
562 1275
562 1315
562 1330
562 1381
562 1386
562 1427
562 1599
562 1652
562 1682
562 1729
562 1764
562 1784
562 1833
562 2038
562 2075
562 2078
562 2224
563 642
563 647
563 680
563 696
563 720
563 741
563 890
563 897
563 915
563 934
563 953
563 987
563 1008
563 1029
563 1043
563 1064
563 1176
563 1246
563 1270
563 1280
563 1354
563 1384
563 1393
563 1429
563 1431
563 1470
563 1527
563 1564
563 1569
563 1593
563 1625
563 1701
563 1746
563 1748
563 1755
563 1799
563 1803
563 1883
563 1903
563 1929
563 1953
563 2036
563 2083
563 2091
563 2161
563 2197
563 2222
564 579
564 898
564 996
564 1004
564 1209
564 1346
564 1361
564 1498
564 1594
564 1615
564 1722
564 1731
564 1799
564 2047
564 2110
564 2134
564 2228
565 608
565 609
565 610
565 631
565 633
565 666
565 725
565 727
565 729
565 765
565 772
565 783
565 786
565 798
565 801
565 806
565 825
565 835
565 844
565 852
565 865
565 895
565 912
565 916
565 923
565 979
565 983
565 1016
565 1021
565 1029
565 1033
565 1086
565 1088
565 1125
565 1130
565 1148
565 1174
565 1187
565 1237
565 1256
565 1273
565 1292
565 1296
565 1328
565 1333
565 1343
565 1369
565 1383
565 1391
565 1408
565 1419
565 1425
565 1459
565 1468
565 1497
565 1499
565 1521
565 1656
565 1662
565 1737
565 1741
565 1746
565 1768
565 1799
565 1806
565 1818
565 1840
565 1853
565 1862
565 1872
565 1878
565 1915
565 1923
565 1950
565 1963
565 1969
565 1975
565 2006
565 2045
565 2070
565 2145
565 2153
565 2181
565 2235
566 775
566 950
566 986
566 1012
566 1060
566 1252
566 1423
566 1444
566 1465
566 1614
566 1821
566 1833
566 1834
566 1943
566 2039
566 2106
566 2130
566 2247
567 575
567 576
567 646
567 684
567 696
567 771
567 773
567 777
567 778
567 785
567 812
567 838
567 847
567 850
567 905
567 906
567 945
567 969
567 1000
567 1030
567 1066
567 1088
567 1125
567 1174
567 1212
567 1227
567 1269
567 1307
567 1312
567 1318
567 1332
567 1342
567 1358
567 1375
567 1382
567 1391
567 1429
567 1439
567 1441
567 1501
567 1569
567 1584
567 1612
567 1642
567 1657
567 1658
567 1678
567 1692
567 1754
567 1771
567 1787
567 1795
567 1799
567 1818
567 1852
567 1858
567 1880
567 1923
567 1947
567 1959
567 1975
567 1989
567 2008
567 2050
567 2051
567 2087
567 2097
567 2108
567 2119
567 2126
567 2144
567 2153
567 2177
567 2181
567 2204
567 2246
568 643
568 645
568 662
568 720
568 738
568 795
568 894
568 925
568 938
568 957
568 984
568 1009
568 1058
568 1117
568 1230
568 1233
568 1247
568 1277
568 1293
568 1322
568 1364
568 1397
568 1409
568 1416
568 1434
568 1520
568 1554
568 1589
568 1641
568 1643
568 1688
568 1709
568 1715
568 1743
568 1796
568 1855
568 1875
568 1880
568 1979
568 1982
568 2012
568 2043
568 2052
568 2087
568 2102
568 2159
568 2161
568 2174
568 2176
568 2246
569 574
569 580
569 596
569 607
569 610
569 631
569 653
569 679
569 682
569 684
569 696
569 729
569 737
569 755
569 780
569 796
569 806
569 812
569 831
569 844
569 847
569 848
569 861
569 880
569 886
569 889
569 902
569 919
569 963
569 992
569 1008
569 1011
569 1029
569 1054
569 1066
569 1073
569 1079
569 1089
569 1107
569 1119
569 1137
569 1142
569 1147
569 1173
569 1176
569 1182
569 1230
569 1240
569 1260
569 1267
569 1290
569 1307
569 1316
569 1320
569 1322
569 1355
569 1365
569 1392
569 1408
569 1410
569 1421
569 1430
569 1436
569 1483
569 1505
569 1506
569 1510
569 1512
569 1514
569 1574
569 1634
569 1641
569 1642
569 1664
569 1673
569 1681
569 1707
569 1708
569 1709
569 1720
569 1721
569 1723
569 1755
569 1768
569 1772
569 1795
569 1797
569 1800
569 1809
569 1818
569 1825
569 1837
569 1838
569 1847
569 1848
569 1866
569 1883
569 1886
569 1901
569 1902
569 1911
569 1940
569 1992
569 1995
569 2010
569 2023
569 2036
569 2052
569 2053
569 2056
569 2065
569 2069
569 2072
569 2087
569 2109
569 2146
569 2153
569 2167
569 2190
569 2197
569 2206
569 2232
569 2233
569 2248
570 598
570 638
570 640
570 721
570 742
570 819
570 875
570 912
570 950
570 1012
570 1034
570 1045
570 1095
570 1101
570 1148
570 1157
570 1201
570 1250
570 1275
570 1373
570 1386
570 1423
570 1479
570 1529
570 1539
570 1614
570 1621
570 1833
570 1884
570 1915
570 1929
570 2045
570 2075
570 2105
570 2130
570 2210
571 583
571 602
571 611
571 658
571 822
571 1072
571 1163
571 1184
571 1315
571 1330
571 1381
571 1648
571 1685
571 1687
571 1943
571 1978
571 2060
571 2061
571 2184
571 2207
571 2217
572 678
572 953
572 1323
572 1667
572 1930
572 2131
572 2234
573 632
573 671
573 732
573 746
573 781
573 896
573 948
573 960
573 966
573 967
573 973
573 987
573 990
573 1005
573 1010
573 1015
573 1067
573 1081
573 1106
573 1122
573 1126
573 1139
573 1140
573 1160
573 1178
573 1218
573 1279
573 1309
573 1333
573 1394
573 1402
573 1428
573 1432
573 1438
573 1442
573 1572
573 1576
573 1626
573 1739
573 1799
573 1801
573 1830
573 1872
573 1889
573 1956
573 1966
573 1972
573 1988
573 2041
573 2086
573 2096
573 2115
573 2141
573 2170
573 2179
573 2189
574 620
574 643
574 646
574 653
574 712
574 737
574 773
574 796
574 806
574 812
574 815
574 825
574 847
574 859
574 862
574 889
574 905
574 923
574 937
574 1029
574 1030
574 1046
574 1066
574 1113
574 1119
574 1155
574 1177
574 1182
574 1189
574 1222
574 1236
574 1260
574 1277
574 1290
574 1339
574 1354
574 1374
574 1378
574 1392
574 1421
574 1425
574 1436
574 1474
574 1616
574 1640
574 1643
574 1673
574 1720
574 1721
574 1747
574 1754
574 1755
574 1787
574 1813
574 1863
574 1866
574 1911
574 1949
574 1990
574 2065
574 2069
574 2087
574 2100
574 2133
574 2190
574 2197
574 2204
574 2206
574 2219
574 2233
575 581
575 626
575 627
575 647
575 776
575 777
575 778
575 801
575 865
575 883
575 905
575 920
575 924
575 936
575 940
575 951
575 953
575 979
575 982
575 990
575 1071
575 1077
575 1088
575 1103
575 1124
575 1174
575 1258
575 1262
575 1279
575 1288
575 1292
575 1340
575 1365
575 1394
575 1408
575 1419
575 1424
575 1448
575 1459
575 1468
575 1497
575 1499
575 1562
575 1658
575 1662
575 1664
575 1713
575 1741
575 1754
575 1768
575 1782
575 1799
575 1802
575 1812
575 1832
575 1840
575 1853
575 1859
575 1878
575 1890
575 1912
575 1924
575 1930
575 2006
575 2009
575 2020
575 2051
575 2063
575 2080
575 2183
575 2193
575 2246
575 2248
576 602
576 607
576 622
576 625
576 656
576 665
576 684
576 696
576 705
576 712
576 737
576 741
576 743
576 752
576 771
576 773
576 780
576 806
576 811
576 812
576 818
576 832
576 844
576 847
576 848
576 865
576 871
576 905
576 919
576 922
576 969
576 1018
576 1021
576 1029
576 1030
576 1040
576 1062
576 1064
576 1066
576 1073
576 1079
576 1084
576 1107
576 1111
576 1145
576 1158
576 1240
576 1244
576 1253
576 1263
576 1290
576 1298
576 1299
576 1305
576 1311
576 1312
576 1316
576 1318
576 1334
576 1342
576 1353
576 1355
576 1375
576 1376
576 1384
576 1430
576 1431
576 1441
576 1444
576 1447
576 1458
576 1460
576 1470
576 1471
576 1473
576 1474
576 1483
576 1488
576 1492
576 1506
576 1511
576 1513
576 1524
576 1538
576 1558
576 1567
576 1574
576 1593
576 1596
576 1605
576 1612
576 1625
576 1654
576 1671
576 1673
576 1679
576 1690
576 1703
576 1706
576 1708
576 1720
576 1730
576 1751
576 1753
576 1761
576 1781
576 1787
576 1797
576 1804
576 1805
576 1818
576 1837
576 1848
576 1852
576 1858
576 1863
576 1875
576 1881
576 1883
576 1901
576 1902
576 1904
576 1909
576 1947
576 1949
576 1955
576 1959
576 1994
576 1995
576 2011
576 2036
576 2037
576 2043
576 2066
576 2069
576 2072
576 2073
576 2090
576 2091
576 2104
576 2119
576 2160
576 2162
576 2171
576 2184
576 2186
576 2206
576 2232
576 2246
577 645
577 662
577 700
577 778
577 890
577 937
577 947
577 953
577 1020
577 1065
577 1094
577 1112
577 1212
577 1223
577 1280
577 1304
577 1322
577 1367
577 1384
577 1391
577 1424
577 1474
577 1511
577 1520
577 1526
577 1560
577 1638
577 1653
577 1658
577 1695
577 1709
577 1715
577 1743
577 1788
577 1803
577 1807
577 1818
577 1859
577 1890
577 1903
577 1946
577 1987
577 2076
577 2102
577 2132
577 2162
577 2174
577 2197
577 2222
577 2248
578 700
578 737
578 832
578 861
578 874
578 899
578 905
578 918
578 969
578 1008
578 1038
578 1054
578 1062
578 1066
578 1080
578 1084
578 1089
578 1111
578 1179
578 1240
578 1279
578 1289
578 1353
578 1471
578 1483
578 1538
578 1567
578 1651
578 1695
578 1848
578 1871
578 1902
578 1917
578 2066
578 2090
579 585
579 603
579 617
579 624
579 629
579 639
579 641
579 649
579 655
579 674
579 684
579 710
579 711
579 726
579 731
579 741
579 768
579 797
579 802
579 810
579 816
579 827
579 834
579 836
579 855
579 859
579 868
579 872
579 873
579 887
579 891
579 894
579 895
579 897
579 898
579 904
579 923
579 927
579 947
579 952
579 976
579 981
579 996
579 998
579 1004
579 1006
579 1019
579 1028
579 1037
579 1042
579 1046
579 1063
579 1076
579 1080
579 1083
579 1100
579 1102
579 1108
579 1127
579 1129
579 1131
579 1143
579 1151
579 1154
579 1179
579 1180
579 1192
579 1197
579 1207
579 1212
579 1213
579 1216
579 1220
579 1221
579 1222
579 1235
579 1259
579 1283
579 1304
579 1318
579 1322
579 1325
579 1327
579 1335
579 1338
579 1346
579 1356
579 1361
579 1370
579 1382
579 1389
579 1396
579 1403
579 1413
579 1414
579 1437
579 1446
579 1450
579 1454
579 1464
579 1486
579 1488
579 1489
579 1498
579 1503
579 1538
579 1550
579 1554
579 1565
579 1569
579 1572
579 1586
579 1592
579 1604
579 1613
579 1615
579 1628
579 1631
579 1646
579 1649
579 1653
579 1670
579 1675
579 1710
579 1716
579 1726
579 1727
579 1738
579 1741
579 1760
579 1783
579 1807
579 1826
579 1831
579 1842
579 1849
579 1851
579 1855
579 1870
579 1871
579 1874
579 1885
579 1905
579 1910
579 1914
579 1935
579 1951
579 1952
579 1958
579 1964
579 1974
579 1994
579 1998
579 2003
579 2016
579 2024
579 2029
579 2043
579 2055
579 2077
579 2089
579 2091
579 2099
579 2118
579 2136
579 2154
579 2156
579 2158
579 2188
579 2234
579 2235
579 2241
580 596
580 610
580 625
580 678
580 682
580 712
580 783
580 806
580 825
580 847
580 848
580 862
580 865
580 963
580 1008
580 1029
580 1054
580 1068
580 1111
580 1113
580 1119
580 1182
580 1195
580 1223
580 1225
580 1249
580 1292
580 1298
580 1307
580 1340
580 1346
580 1355
580 1374
580 1384
580 1421
580 1425
580 1438
580 1460
580 1512
580 1634
580 1643
580 1645
580 1654
580 1656
580 1662
580 1664
580 1679
580 1682
580 1720
580 1726
580 1746
580 1747
580 1755
580 1782
580 1791
580 1801
580 1802
580 1830
580 1832
580 1919
580 1930
580 1940
580 1949
580 1995
580 2010
580 2038
580 2040
580 2069
580 2100
580 2133
580 2168
580 2173
580 2197
580 2233
580 2248
580 2249
581 633
581 647
581 653
581 665
581 705
581 737
581 746
581 798
581 844
581 847
581 848
581 852
581 865
581 869
581 913
581 935
581 951
581 963
581 970
581 979
581 983
581 990
581 1029
581 1071
581 1088
581 1124
581 1130
581 1164
581 1200
581 1243
581 1256
581 1279
581 1311
581 1321
581 1334
581 1348
581 1365
581 1404
581 1408
581 1425
581 1448
581 1499
581 1512
581 1566
581 1576
581 1634
581 1645
581 1654
581 1656
581 1673
581 1679
581 1701
581 1713
581 1737
581 1761
581 1768
581 1809
581 1840
581 1853
581 1872
581 1899
581 1902
581 1923
581 1963
581 1969
581 1975
581 1977
581 2070
581 2088
581 2153
581 2169
581 2183
581 2230
581 2231
581 2248
582 624
582 718
582 723
582 724
582 777
582 843
582 880
582 910
582 938
582 980
582 1006
582 1009
582 1044
582 1081
582 1100
582 1133
582 1168
582 1181
582 1236
582 1258
582 1277
582 1292
582 1340
582 1368
582 1399
582 1409
582 1421
582 1428
582 1476
582 1507
582 1526
582 1591
582 1628
582 1643
582 1653
582 1662
582 1741
582 1779
582 1782
582 1817
582 1818
582 1832
582 1890
582 1930
582 1948
582 1988
582 2034
582 2038
582 2080
582 2091
582 2110
582 2153
582 2194
582 2198
582 2225
583 619
583 658
583 1072
583 1166
583 1275
583 1326
583 1341
583 1365
583 1427
583 1491
583 1535
583 1582
583 1648
583 1687
583 1776
583 1856
583 1873
583 1907
583 2040
583 2075
583 2210
584 996
584 2089
585 678
585 687
585 711
585 734
585 806
585 810
585 843
585 948
585 953
585 954
585 1009
585 1019
585 1132
585 1195
585 1258
585 1307
585 1323
585 1369
585 1394
585 1406
585 1419
585 1426
585 1467
585 1483
585 1560
585 1638
585 1667
585 1782
585 1802
585 1912
585 1930
585 1968
585 2085
585 2193
585 2234
586 588
586 594
586 603
586 606
586 610
586 620
586 656
586 696
586 713
586 738
586 746
586 765
586 780
586 785
586 799
586 806
586 826
586 894
586 900
586 924
586 935
586 940
586 960
586 1029
586 1038
586 1062
586 1098
586 1117
586 1118
586 1147
586 1255
586 1261
586 1266
586 1290
586 1320
586 1340
586 1354
586 1418
586 1431
586 1469
586 1492
586 1554
586 1591
586 1603
586 1616
586 1630
586 1640
586 1646
586 1705
586 1709
586 1775
586 1797
586 1800
586 1816
586 1822
586 1838
586 1858
586 1911
586 1988
586 2026
586 2046
586 2100
586 2104
586 2127
586 2146
586 2157
586 2176
586 2185
586 2188
586 2200
586 2235
587 699
587 702
587 706
587 741
587 834
587 895
587 911
587 923
587 941
587 961
587 971
587 1006
587 1015
587 1029
587 1033
587 1046
587 1053
587 1056
587 1057
587 1081
587 1100
587 1139
587 1143
587 1154
587 1168
587 1205
587 1222
587 1249
587 1265
587 1346
587 1378
587 1393
587 1409
587 1425
587 1450
587 1454
587 1474
587 1489
587 1507
587 1572
587 1584
587 1628
587 1647
587 1651
587 1700
587 1722
587 1731
587 1739
587 1741
587 1745
587 1759
587 1769
587 1782
587 1790
587 1799
587 1801
587 1849
587 1855
587 1889
587 1903
587 1932
587 1938
587 1966
587 1968
587 1974
587 1982
587 1990
587 1994
587 2008
587 2012
587 2047
587 2055
587 2089
587 2097
587 2110
587 2115
587 2118
587 2123
587 2134
587 2175
587 2190
587 2194
587 2216
588 591
588 645
588 656
588 702
588 806
588 810
588 827
588 832
588 866
588 902
588 920
588 934
588 1029
588 1033
588 1173
588 1180
588 1212
588 1322
588 1332
588 1334
588 1358
588 1367
588 1401
588 1406
588 1460
588 1474
588 1504
588 1532
588 1564
588 1670
588 1743
588 1746
588 1753
588 1911
588 1987
588 2043
588 2076
588 2085
588 2104
588 2168
588 2174
589 608
589 671
589 731
589 744
589 783
589 835
589 845
589 1071
589 1160
589 1164
589 1170
589 1178
589 1187
589 1231
589 1282
589 1365
589 1383
589 1413
589 1419
589 1482
589 1510
589 1662
589 1762
589 1799
589 1840
589 1853
589 1890
589 1895
589 1927
589 1948
589 1956
589 1966
589 2006
589 2020
589 2145
589 2183
590 1646
591 643
591 645
591 649
591 692
591 797
591 827
591 894
591 976
591 1057
591 1307
591 1322
591 1327
591 1360
591 1397
591 1401
591 1446
591 1474
591 1478
591 1498
591 1575
591 1646
591 1716
591 1732
591 1818
591 1870
591 1952
591 1964
591 1979
591 2015
591 2028
591 2076
591 2158
591 2236
592 690
592 694
592 702
592 703
592 731
592 770
592 790
592 816
592 820
592 923
592 988
592 996
592 1114
592 1171
592 1265
592 1283
592 1346
592 1398
592 1399
592 1400
592 1402
592 1405
592 1507
592 1565
592 1594
592 1647
592 1706
592 1727
592 1773
592 1774
592 1779
592 1783
592 1788
592 1799
592 1830
592 1966
592 1994
592 2031
592 2032
592 2047
592 2085
592 2188
593 627
593 773
593 898
593 1033
593 1081
593 1122
593 1152
593 1178
593 1180
593 1218
593 1222
593 1228
593 1351
593 1438
593 1537
593 1722
593 1744
593 1789
593 1801
593 1803
593 1822
593 2089
593 2115
593 2116
593 2141
593 2179
594 610
594 631
594 645
594 656
594 713
594 746
594 751
594 773
594 785
594 795
594 799
594 809
594 832
594 865
594 894
594 935
594 938
594 942
594 954
594 960
594 979
594 1020
594 1033
594 1063
594 1117
594 1118
594 1137
594 1161
594 1173
594 1174
594 1191
594 1192
594 1212
594 1249
594 1266
594 1269
594 1285
594 1299
594 1322
594 1332
594 1334
594 1358
594 1363
594 1364
594 1365
594 1375
594 1406
594 1413
594 1416
594 1420
594 1424
594 1443
594 1460
594 1471
594 1488
594 1492
594 1504
594 1510
594 1522
594 1530
594 1554
594 1569
594 1575
594 1610
594 1616
594 1632
594 1647
594 1658
594 1670
594 1700
594 1735
594 1736
594 1741
594 1818
594 1827
594 1838
594 1866
594 1878
594 1880
594 1901
594 1908
594 1934
594 1998
594 2010
594 2026
594 2027
594 2043
594 2051
594 2089
594 2104
594 2108
594 2127
594 2175
594 2176
594 2181
594 2186
594 2198
594 2202
594 2230
594 2232
594 2246
595 602
595 704
595 721
595 844
595 854
595 959
595 965
595 1007
595 1082
595 1163
595 1184
595 1240
595 1263
595 1275
595 1306
595 1311
595 1315
595 1330
595 1379
595 1381
595 1386
595 1411
595 1436
595 1450
595 1465
595 1509
595 1567
595 1652
595 1672
595 1685
595 1717
595 1797
595 1821
595 1833
595 1944
595 1978
595 1999
595 2054
595 2061
595 2078
595 2178
595 2180
595 2196
595 2207
595 2217
595 2223
595 2238
595 2242
596 620
596 631
596 653
596 700
596 714
596 806
596 847
596 889
596 890
596 899
596 934
596 937
596 947
596 1008
596 1029
596 1040
596 1054
596 1062
596 1066
596 1094
596 1107
596 1109
596 1155
596 1176
596 1244
596 1260
596 1267
596 1268
596 1290
596 1322
596 1354
596 1376
596 1384
596 1431
596 1506
596 1511
596 1512
596 1643
596 1673
596 1681
596 1706
596 1720
596 1721
596 1751
596 1755
596 1809
596 1818
596 1828
596 1837
596 1848
596 1866
596 1869
596 1883
596 1940
596 1987
596 1992
596 2023
596 2036
596 2056
596 2065
596 2069
596 2087
596 2100
596 2157
596 2162
596 2185
596 2197
596 2202
596 2216
596 2222
596 2248
597 1411
597 1714
598 623
598 638
598 640
598 645
598 661
598 683
598 714
598 721
598 723
598 742
598 775
598 782
598 875
598 912
598 950
598 978
598 1012
598 1025
598 1034
598 1082
598 1101
598 1148
598 1157
598 1166
598 1201
598 1206
598 1252
598 1275
598 1292
598 1386
598 1423
598 1436
598 1529
598 1539
598 1563
598 1595
598 1614
598 1621
598 1636
598 1652
598 1656
598 1665
598 1672
598 1685
598 1687
598 1784
598 1833
598 1884
598 1907
598 1921
598 1945
598 1973
598 1977
598 2045
598 2075
598 2105
598 2106
598 2130
598 2135
598 2210
598 2226
598 2238
598 2242
599 607
599 625
599 631
599 637
599 643
599 700
599 832
599 844
599 847
599 848
599 859
599 865
599 871
599 874
599 938
599 1017
599 1026
599 1040
599 1054
599 1059
599 1191
599 1230
599 1232
599 1273
599 1283
599 1290
599 1298
599 1311
599 1316
599 1334
599 1353
599 1358
599 1376
599 1448
599 1458
599 1460
599 1461
599 1473
599 1483
599 1488
599 1570
599 1574
599 1580
599 1654
599 1657
599 1671
599 1681
599 1761
599 1772
599 1797
599 1824
599 1827
599 1875
599 1899
599 1901
599 1902
599 1936
599 1959
599 1962
599 1984
599 2036
599 2037
599 2040
599 2065
599 2121
599 2160
599 2171
599 2202
599 2206
599 2236
599 2248
599 2249
600 702
600 705
600 740
600 810
600 948
600 954
600 967
600 996
600 1081
600 1171
600 1178
600 1391
600 1394
600 1413
600 1443
600 1584
600 1722
600 1731
600 1739
600 1799
600 1801
600 1889
600 2031
600 2047
600 2086
600 2115
600 2134
600 2141
600 2189
601 699
601 736
601 766
601 814
601 817
601 853
601 914
601 942
601 950
601 1007
601 1034
601 1046
601 1202
601 1275
601 1287
601 1356
601 1386
601 1411
601 1519
601 1568
601 1606
601 1621
601 1650
601 1672
601 1708
601 1714
601 1720
601 1818
601 1839
601 1879
601 1971
601 1973
601 2045
601 2082
601 2172
601 2185
601 2223
601 2242
602 654
602 753
602 931
602 1031
602 1045
602 1095
602 1162
602 1163
602 1184
602 1252
602 1291
602 1306
602 1386
602 1451
602 1602
602 1644
602 1648
602 1687
602 1833
602 1921
602 1933
602 1971
602 1973
602 1978
602 2014
602 2060
602 2087
602 2184
602 2207
603 610
603 628
603 633
603 656
603 680
603 684
603 713
603 736
603 767
603 785
603 795
603 797
603 806
603 844
603 848
603 894
603 900
603 905
603 913
603 920
603 924
603 940
603 960
603 977
603 996
603 1000
603 1013
603 1117
603 1147
603 1151
603 1173
603 1180
603 1204
603 1212
603 1226
603 1240
603 1261
603 1268
603 1276
603 1298
603 1322
603 1361
603 1370
603 1380
603 1391
603 1393
603 1429
603 1443
603 1463
603 1467
603 1469
603 1471
603 1474
603 1484
603 1488
603 1492
603 1538
603 1541
603 1554
603 1596
603 1611
603 1616
603 1736
603 1760
603 1778
603 1800
603 1818
603 1820
603 1838
603 1858
603 1878
603 1883
603 1910
603 1949
603 1974
603 1975
603 1985
603 2008
603 2022
603 2026
603 2046
603 2050
603 2099
603 2104
603 2139
603 2144
603 2153
603 2156
603 2175
603 2176
603 2177
603 2181
603 2186
603 2191
603 2196
603 2206
603 2209
603 2231
603 2232
603 2235
604 656
604 840
604 926
604 928
604 956
604 1023
604 1206
604 1386
604 1644
604 1698
604 1730
604 1986
604 1999
604 2017
604 2058
604 2072
604 2075
604 2112
604 2113
604 2196
604 2226
605 606
605 765
605 826
605 1037
605 1083
605 1136
605 1222
605 1603
605 1705
605 1775
605 2141
605 2157
606 620
606 642
606 651
606 668
606 699
606 749
606 765
606 780
606 800
606 806
606 811
606 826
606 827
606 897
606 917
606 924
606 996
606 1015
606 1037
606 1038
606 1062
606 1083
606 1129
606 1136
606 1171
606 1193
606 1220
606 1222
606 1239
606 1255
606 1266
606 1332
606 1354
606 1361
606 1365
606 1372
606 1380
606 1401
606 1428
606 1591
606 1600
606 1603
606 1630
606 1637
606 1722
606 1775
606 1783
606 1799
606 1816
606 1910
606 2004
606 2025
606 2100
606 2118
606 2157
606 2185
606 2188
606 2189
606 2191
606 2200
606 2234
607 622
607 643
607 653
607 665
607 689
607 697
607 705
607 737
607 762
607 780
607 787
607 808
607 809
607 810
607 812
607 818
607 825
607 831
607 832
607 844
607 847
607 848
607 852
607 866
607 871
607 874
607 890
607 902
607 906
607 922
607 937
607 938
607 981
607 1008
607 1011
607 1017
607 1029
607 1030
607 1033
607 1038
607 1054
607 1059
607 1062
607 1063
607 1066
607 1073
607 1078
607 1084
607 1089
607 1104
607 1111
607 1119
607 1155
607 1176
607 1179
607 1240
607 1241
607 1242
607 1247
607 1260
607 1268
607 1273
607 1289
607 1290
607 1294
607 1298
607 1305
607 1311
607 1324
607 1334
607 1353
607 1355
607 1358
607 1369
607 1376
607 1377
607 1414
607 1444
607 1447
607 1460
607 1471
607 1473
607 1474
607 1488
607 1489
607 1506
607 1509
607 1524
607 1538
607 1543
607 1546
607 1554
607 1564
607 1567
607 1570
607 1574
607 1577
607 1581
607 1593
607 1610
607 1616
607 1642
607 1645
607 1654
607 1657
607 1658
607 1671
607 1679
607 1703
607 1718
607 1730
607 1761
607 1797
607 1805
607 1809
607 1810
607 1818
607 1837
607 1848
607 1866
607 1875
607 1883
607 1896
607 1899
607 1901
607 1902
607 1904
607 1909
607 1916
607 1929
607 1940
607 1955
607 1962
607 1985
607 1995
607 2001
607 2003
607 2009
607 2023
607 2033
607 2037
607 2040
607 2042
607 2065
607 2066
607 2069
607 2072
607 2074
607 2076
607 2100
607 2101
607 2104
607 2106
607 2118
607 2127
607 2160
607 2166
607 2171
607 2185
607 2190
607 2206
607 2226
607 2236
607 2248
607 2249
608 627
608 633
608 664
608 670
608 678
608 716
608 720
608 736
608 744
608 746
608 765
608 783
608 801
608 826
608 833
608 835
608 839
608 843
608 848
608 869
608 877
608 907
608 939
608 979
608 982
608 1016
608 1036
608 1075
608 1086
608 1097
608 1103
608 1149
608 1160
608 1164
608 1169
608 1170
608 1181
608 1187
608 1200
608 1223
608 1225
608 1231
608 1237
608 1251
608 1262
608 1282
608 1286
608 1288
608 1292
608 1296
608 1325
608 1333
608 1337
608 1343
608 1348
608 1374
608 1383
608 1404
608 1408
608 1419
608 1448
608 1450
608 1452
608 1482
608 1521
608 1526
608 1537
608 1562
608 1576
608 1630
608 1638
608 1643
608 1662
608 1679
608 1711
608 1721
608 1773
608 1780
608 1795
608 1803
608 1806
608 1832
608 1845
608 1854
608 1878
608 1890
608 1895
608 1916
608 1924
608 1927
608 1928
608 1930
608 1931
608 1948
608 1975
608 1988
608 1995
608 2004
608 2034
608 2038
608 2145
608 2170
608 2171
608 2183
609 633
609 647
609 657
609 670
609 684
609 723
609 755
609 769
609 776
609 777
609 801
609 825
609 839
609 865
609 869
609 880
609 913
609 924
609 935
609 945
609 976
609 992
609 1016
609 1019
609 1030
609 1071
609 1077
609 1086
609 1099
609 1118
609 1125
609 1142
609 1164
609 1174
609 1230
609 1246
609 1249
609 1258
609 1282
609 1329
609 1351
609 1383
609 1395
609 1408
609 1419
609 1420
609 1443
609 1456
609 1459
609 1468
609 1499
609 1537
609 1546
609 1566
609 1609
609 1622
609 1629
609 1634
609 1638
609 1674
609 1713
609 1739
609 1740
609 1748
609 1750
609 1754
609 1768
609 1799
609 1802
609 1810
609 1812
609 1818
609 1847
609 1848
609 1853
609 1878
609 1899
609 1923
609 1924
609 1928
609 1938
609 1948
609 1975
609 1995
609 2006
609 2009
609 2020
609 2042
609 2065
609 2083
609 2088
609 2139
609 2142
609 2155
609 2175
609 2181
609 2183
609 2190
609 2230
609 2235
609 2246
610 626
610 631
610 645
610 647
610 656
610 665
610 666
610 677
610 682
610 727
610 729
610 732
610 736
610 738
610 746
610 747
610 755
610 767
610 772
610 778
610 780
610 783
610 785
610 786
610 799
610 828
610 844
610 845
610 847
610 848
610 852
610 863
610 865
610 868
610 873
610 880
610 894
610 898
610 900
610 905
610 916
610 920
610 922
610 924
610 938
610 940
610 951
610 956
610 960
610 969
610 990
610 1000
610 1006
610 1017
610 1020
610 1021
610 1029
610 1043
610 1044
610 1063
610 1066
610 1073
610 1109
610 1124
610 1130
610 1143
610 1180
610 1218
610 1230
610 1231
610 1236
610 1246
610 1249
610 1270
610 1274
610 1277
610 1296
610 1298
610 1307
610 1316
610 1318
610 1322
610 1328
610 1340
610 1342
610 1358
610 1364
610 1365
610 1369
610 1377
610 1387
610 1394
610 1397
610 1408
610 1410
610 1416
610 1429
610 1434
610 1442
610 1450
610 1460
610 1468
610 1474
610 1486
610 1492
610 1497
610 1499
610 1514
610 1533
610 1551
610 1554
610 1575
610 1581
610 1591
610 1596
610 1616
610 1620
610 1630
610 1634
610 1640
610 1645
610 1647
610 1654
610 1656
610 1662
610 1679
610 1692
610 1706
610 1726
610 1730
610 1736
610 1741
610 1768
610 1772
610 1791
610 1799
610 1800
610 1801
610 1802
610 1814
610 1818
610 1827
610 1838
610 1853
610 1859
610 1862
610 1866
610 1875
610 1878
610 1896
610 1902
610 1908
610 1911
610 1919
610 1932
610 1934
610 1947
610 1962
610 1963
610 1972
610 1974
610 1985
610 2003
610 2006
610 2008
610 2010
610 2026
610 2028
610 2036
610 2038
610 2042
610 2050
610 2051
610 2070
610 2072
610 2091
610 2104
610 2106
610 2107
610 2133
610 2153
610 2167
610 2175
610 2176
610 2186
610 2206
610 2233
610 2235
610 2246
610 2248
611 638
611 714
611 782
611 875
611 912
611 978
611 1034
611 1148
611 1157
611 1201
611 1206
611 1386
611 1427
611 1509
611 1539
611 1683
611 1687
611 1821
611 2075
611 2164
611 2210
611 2227
612 620
612 643
612 697
612 700
612 737
612 861
612 871
612 874
612 899
612 969
612 1026
612 1030
612 1060
612 1073
612 1232
612 1242
612 1278
612 1322
612 1364
612 1376
612 1431
612 1445
612 1501
612 1558
612 1570
612 1596
612 1605
612 1657
612 1671
612 1706
612 1708
612 1718
612 1819
612 1824
612 1837
612 1894
612 1936
612 1942
612 1949
612 1995
612 2028
612 2069
612 2072
612 2186
612 2187
612 2202
612 2249
613 723
613 724
613 835
613 941
613 1467
613 1618
613 1774
613 1825
613 2231
614 672
614 705
614 706
614 806
614 923
614 1044
614 1051
614 1063
614 1134
614 1154
614 1257
614 1425
614 1532
614 1891
614 2108
614 2148
614 2201
615 617
615 627
615 663
615 669
615 723
615 734
615 767
615 783
615 826
615 923
615 1120
615 1133
615 1204
615 1241
615 1308
615 1424
615 1456
615 1579
615 1584
615 1653
615 1669
615 1675
615 1711
615 1787
615 1799
615 1844
615 1849
615 1888
615 1939
615 1982
615 2036
615 2038
615 2129
615 2139
616 662
616 957
616 1520
616 1709
616 1715
617 651
617 656
617 674
617 684
617 768
617 786
617 795
617 841
617 882
617 897
617 918
617 920
617 923
617 942
617 954
617 961
617 1010
617 1019
617 1020
617 1024
617 1134
617 1185
617 1225
617 1227
617 1277
617 1332
617 1382
617 1397
617 1409
617 1420
617 1463
617 1493
617 1503
617 1518
617 1560
617 1603
617 1610
617 1619
617 1653
617 1658
617 1669
617 1678
617 1692
617 1742
617 1745
617 1746
617 1795
617 1818
617 1827
617 1831
617 1851
617 1898
617 1920
617 1982
617 2025
617 2043
617 2068
617 2099
617 2102
617 2107
617 2108
617 2147
617 2231
618 979
618 1365
618 1443
618 1459
618 2181
619 750
619 782
619 814
619 912
619 978
619 1163
619 1200
619 1287
619 1330
619 1491
619 1582
619 1595
619 1606
619 1620
619 1672
619 1687
619 1698
619 1821
619 2075
620 625
620 629
620 643
620 664
620 697
620 700
620 737
620 780
620 787
620 806
620 826
620 832
620 874
620 890
620 906
620 924
620 1026
620 1033
620 1038
620 1054
620 1062
620 1097
620 1098
620 1101
620 1119
620 1136
620 1154
620 1232
620 1255
620 1257
620 1260
620 1276
620 1290
620 1313
620 1354
620 1370
620 1376
620 1385
620 1403
620 1431
620 1447
620 1460
620 1483
620 1506
620 1538
620 1558
620 1564
620 1567
620 1603
620 1630
620 1671
620 1706
620 1720
620 1772
620 1816
620 1822
620 1824
620 1883
620 1894
620 1910
620 1916
620 1917
620 1922
620 1995
620 2052
620 2065
620 2069
620 2100
620 2157
620 2160
620 2166
620 2171
620 2185
620 2200
620 2249
621 714
621 753
621 759
621 875
621 1082
621 1093
621 1110
621 1250
621 1275
621 1315
621 1366
621 1373
621 1381
621 1386
621 1423
621 1427
621 1509
621 1519
621 1582
621 1620
621 1652
621 1672
621 1676
621 1685
621 1698
621 1702
621 1778
621 2002
621 2054
621 2075
621 2109
621 2113
621 2210
621 2238
621 2242
622 625
622 638
622 656
622 665
622 682
622 699
622 712
622 715
622 806
622 839
622 844
622 848
622 893
622 906
622 912
622 919
622 923
622 924
622 953
622 1006
622 1029
622 1066
622 1097
622 1119
622 1141
622 1147
622 1158
622 1174
622 1230
622 1234
622 1240
622 1244
622 1271
622 1279
622 1300
622 1305
622 1311
622 1321
622 1324
622 1332
622 1334
622 1353
622 1354
622 1370
622 1374
622 1388
622 1410
622 1421
622 1447
622 1449
622 1458
622 1470
622 1493
622 1537
622 1546
622 1569
622 1570
622 1577
622 1593
622 1612
622 1616
622 1622
622 1625
622 1642
622 1643
622 1654
622 1656
622 1673
622 1690
622 1695
622 1708
622 1721
622 1751
622 1753
622 1755
622 1756
622 1761
622 1763
622 1778
622 1802
622 1805
622 1809
622 1811
622 1818
622 1848
622 1883
622 1898
622 1904
622 1909
622 1923
622 1947
622 1949
622 1955
622 1959
622 1988
622 1993
622 2011
622 2026
622 2040
622 2042
622 2043
622 2069
622 2072
622 2086
622 2095
622 2100
622 2104
622 2153
622 2168
622 2189
622 2197
622 2248
623 753
623 875
623 884
623 974
623 1045
623 1091
623 1148
623 1157
623 1174
623 1254
623 1315
623 1330
623 1362
623 1373
623 1386
623 1509
623 1519
623 1551
623 1553
623 1582
623 1617
623 1620
623 1672
623 1676
623 1685
623 1821
623 1841
623 1907
623 1973
623 1977
623 2061
623 2075
623 2227
624 687
624 720
624 722
624 724
624 729
624 734
624 756
624 757
624 764
624 886
624 920
624 922
624 923
624 924
624 938
624 942
624 961
624 980
624 984
624 1006
624 1009
624 1019
624 1027
624 1028
624 1029
624 1044
624 1046
624 1056
624 1087
624 1119
624 1225
624 1230
624 1236
624 1277
624 1283
624 1304
624 1340
624 1346
624 1378
624 1397
624 1399
624 1409
624 1421
624 1493
624 1500
624 1507
624 1533
624 1589
624 1600
624 1607
624 1613
624 1618
624 1628
624 1632
624 1641
624 1688
624 1694
624 1704
624 1732
624 1749
624 1782
624 1796
624 1802
624 1813
624 1818
624 1835
624 1849
624 1859
624 1863
624 1876
624 1930
624 1965
624 1974
624 1982
624 2012
624 2052
624 2065
624 2081
624 2099
624 2103
624 2131
624 2139
624 2148
624 2235
625 631
625 646
625 665
625 696
625 700
625 705
625 734
625 801
625 812
625 825
625 847
625 852
625 865
625 871
625 884
625 895
625 915
625 923
625 924
625 963
625 1029
625 1040
625 1064
625 1066
625 1068
625 1128
625 1130
625 1142
625 1158
625 1176
625 1223
625 1240
625 1241
625 1244
625 1253
625 1268
625 1271
625 1288
625 1289
625 1311
625 1320
625 1355
625 1374
625 1410
625 1425
625 1438
625 1444
625 1456
625 1460
625 1470
625 1483
625 1488
625 1511
625 1512
625 1558
625 1582
625 1612
625 1625
625 1634
625 1643
625 1656
625 1673
625 1685
625 1690
625 1701
625 1706
625 1723
625 1730
625 1751
625 1753
625 1763
625 1768
625 1802
625 1804
625 1824
625 1841
625 1846
625 1853
625 1860
625 1863
625 1864
625 1875
625 1883
625 1890
625 1893
625 1902
625 1923
625 1932
625 1936
625 1947
625 1955
625 1959
625 1962
625 1995
625 2009
625 2011
625 2036
625 2040
625 2042
625 2069
625 2072
625 2095
625 2104
625 2124
625 2168
625 2171
625 2200
625 2224
625 2248
626 631
626 647
626 666
626 711
626 727
626 732
626 734
626 778
626 786
626 799
626 833
626 845
626 865
626 869
626 878
626 916
626 921
626 953
626 1134
626 1195
626 1308
626 1328
626 1365
626 1408
626 1468
626 1483
626 1493
626 1497
626 1539
626 1678
626 1706
626 1713
626 1741
626 1806
626 1827
626 1862
626 1932
626 1972
626 2107
626 2193
626 2230
626 2248
627 628
627 637
627 648
627 663
627 669
627 674
627 679
627 702
627 711
627 718
627 720
627 723
627 763
627 765
627 773
627 778
627 801
627 806
627 810
627 811
627 813
627 826
627 828
627 867
627 883
627 920
627 947
627 953
627 1006
627 1029
627 1046
627 1061
627 1065
627 1073
627 1075
627 1098
627 1103
627 1122
627 1169
627 1174
627 1225
627 1245
627 1264
627 1277
627 1280
627 1288
627 1294
627 1304
627 1309
627 1314
627 1323
627 1344
627 1363
627 1365
627 1367
627 1369
627 1406
627 1408
627 1413
627 1429
627 1431
627 1441
627 1452
627 1470
627 1507
627 1522
627 1526
627 1537
627 1544
627 1560
627 1562
627 1584
627 1721
627 1722
627 1755
627 1763
627 1794
627 1799
627 1800
627 1802
627 1803
627 1818
627 1859
627 1890
627 1891
627 1892
627 1898
627 1903
627 1969
627 2018
627 2055
627 2080
627 2085
627 2086
627 2118
627 2119
627 2131
627 2170
627 2197
627 2203
627 2231
628 684
628 713
628 743
628 773
628 794
628 811
628 818
628 846
628 852
628 913
628 918
628 960
628 983
628 1147
628 1174
628 1261
628 1269
628 1280
628 1293
628 1301
628 1314
628 1322
628 1340
628 1358
628 1369
628 1382
628 1393
628 1484
628 1485
628 1596
628 1736
628 1771
628 1795
628 1803
628 1827
628 1838
628 1881
628 2009
628 2018
628 2046
628 2048
628 2051
628 2103
628 2107
628 2144
628 2153
628 2177
628 2232
628 2246
629 639
629 641
629 655
629 693
629 790
629 887
629 923
629 942
629 981
629 988
629 1004
629 1221
629 1222
629 1248
629 1338
629 1346
629 1389
629 1390
629 1398
629 1403
629 1450
629 1516
629 1532
629 1572
629 1649
629 1653
629 1670
629 1688
629 1700
629 1770
629 1792
629 1815
629 1826
629 1842
629 1876
629 1935
629 1994
629 2003
629 2029
629 2049
629 2151
629 2188
629 2216
629 2241
630 692
630 706
630 811
630 873
630 897
630 917
630 941
630 1015
630 1042
630 1089
630 1137
630 1154
630 1235
630 1238
630 1253
630 1283
630 1300
630 1352
630 1353
630 1370
630 1371
630 1397
630 1414
630 1478
630 1569
630 1646
630 1731
630 1790
630 1796
630 1831
630 1835
630 1891
630 1926
630 1974
630 2016
630 2085
630 2101
630 2118
630 2195
630 2231
631 666
631 697
631 727
631 737
631 738
631 765
631 780
631 783
631 786
631 799
631 805
631 809
631 844
631 847
631 848
631 859
631 865
631 900
631 906
631 922
631 928
631 1017
631 1021
631 1029
631 1030
631 1040
631 1054
631 1057
631 1062
631 1109
631 1111
631 1142
631 1180
631 1191
631 1223
631 1260
631 1263
631 1296
631 1298
631 1311
631 1316
631 1334
631 1353
631 1364
631 1365
631 1387
631 1476
631 1492
631 1497
631 1538
631 1554
631 1645
631 1654
631 1656
631 1690
631 1706
631 1720
631 1721
631 1723
631 1730
631 1747
631 1761
631 1772
631 1799
631 1862
631 1875
631 1888
631 1904
631 1915
631 1932
631 1947
631 1949
631 1959
631 1962
631 1993
631 2008
631 2042
631 2065
631 2070
631 2162
631 2185
631 2202
631 2206
631 2216
631 2248
632 746
632 757
632 845
632 967
632 1067
632 1106
632 1122
632 1140
632 1154
632 1164
632 1218
632 1251
632 1270
632 1393
632 1428
632 1450
632 1571
632 1628
632 1635
632 1950
632 1956
632 1969
632 1988
632 2032
632 2124
632 2141
632 2170
632 2225
633 647
633 723
633 763
633 765
633 776
633 801
633 816
633 825
633 839
633 844
633 847
633 852
633 865
633 869
633 892
633 895
633 907
633 913
633 935
633 938
633 979
633 992
633 1009
633 1029
633 1046
633 1066
633 1070
633 1071
633 1086
633 1122
633 1168
633 1169
633 1174
633 1195
633 1218
633 1230
633 1246
633 1262
633 1270
633 1282
633 1288
633 1289
633 1310
633 1321
633 1325
633 1340
633 1351
633 1359
633 1383
633 1394
633 1399
633 1408
633 1419
633 1420
633 1438
633 1459
633 1467
633 1468
633 1483
633 1499
633 1507
633 1562
633 1566
633 1576
633 1662
633 1704
633 1713
633 1722
633 1723
633 1736
633 1741
633 1748
633 1768
633 1779
633 1782
633 1799
633 1802
633 1810
633 1812
633 1817
633 1818
633 1832
633 1853
633 1878
633 1890
633 1928
633 1938
633 1948
633 1963
633 1969
633 2006
633 2020
633 2032
633 2037
633 2042
633 2063
633 2080
633 2083
633 2103
633 2104
633 2117
633 2141
633 2153
633 2169
633 2181
633 2183
633 2226
633 2230
634 887
634 1099
634 1102
634 1265
634 1327
634 1500
634 1688
634 1994
635 738
635 824
635 873
635 900
635 915
635 924
635 938
635 1109
635 1121
635 1147
635 1173
635 1233
635 1247
635 1261
635 1352
635 1368
635 1372
635 1382
635 1395
635 1397
635 1429
635 1469
635 1474
635 1492
635 1596
635 1624
635 1736
635 1800
635 1805
635 1816
635 1858
635 1878
635 1920
635 1974
635 1975
635 1980
635 1994
635 2016
635 2022
635 2026
635 2028
635 2050
635 2085
635 2104
635 2139
635 2159
635 2160
635 2191
635 2231
635 2232
635 2235
636 704
636 774
636 818
636 906
636 1072
636 1183
636 1287
636 1315
636 1386
636 1411
636 1491
636 1582
636 1685
636 1729
636 1834
636 1900
636 2005
636 2075
636 2078
636 2113
636 2206
637 674
637 702
637 785
637 786
637 787
637 795
637 810
637 872
637 954
637 971
637 976
637 1026
637 1033
637 1043
637 1046
637 1230
637 1274
637 1280
637 1285
637 1299
637 1322
637 1346
637 1358
637 1375
637 1380
637 1406
637 1413
637 1441
637 1474
637 1489
637 1504
637 1527
637 1575
637 1584
637 1670
637 1722
637 1745
637 1787
637 1799
637 1802
637 1803
637 1818
637 1829
637 1849
637 1866
637 1889
637 1891
637 1903
637 1908
637 1969
637 2047
637 2055
637 2089
637 2110
637 2134
637 2140
637 2202
637 2204
638 658
638 673
638 683
638 704
638 728
638 735
638 775
638 815
638 817
638 856
638 875
638 965
638 975
638 1007
638 1012
638 1025
638 1034
638 1095
638 1157
638 1188
638 1190
638 1201
638 1341
638 1411
638 1423
638 1477
638 1479
638 1491
638 1509
638 1529
638 1539
638 1552
638 1582
638 1585
638 1666
638 1684
638 1725
638 1856
638 1884
638 1907
638 1921
638 1946
638 1971
638 1973
638 2007
638 2014
638 2130
638 2135
638 2178
638 2196
638 2210
638 2223
638 2227
638 2240
639 641
639 655
639 662
639 703
639 749
639 790
639 807
639 855
639 858
639 923
639 927
639 996
639 998
639 1083
639 1171
639 1193
639 1216
639 1361
639 1389
639 1390
639 1775
639 1788
639 1817
639 1826
639 1857
639 1972
639 2004
639 2030
639 2099
639 2188
639 2216
639 2241
640 721
640 753
640 815
640 854
640 875
640 912
640 950
640 978
640 1012
640 1031
640 1082
640 1136
640 1153
640 1157
640 1163
640 1166
640 1196
640 1201
640 1254
640 1275
640 1306
640 1315
640 1330
640 1386
640 1423
640 1479
640 1509
640 1519
640 1531
640 1539
640 1551
640 1553
640 1583
640 1614
640 1620
640 1621
640 1668
640 1677
640 1685
640 1784
640 1873
640 1884
640 1907
640 1915
640 1921
640 2045
640 2061
640 2075
640 2105
640 2130
640 2180
640 2210
640 2238
641 655
641 659
641 668
641 687
641 773
641 797
641 855
641 887
641 911
641 923
641 938
641 996
641 1004
641 1100
641 1129
641 1154
641 1171
641 1283
641 1331
641 1338
641 1346
641 1385
641 1389
641 1628
641 1688
641 1749
641 1770
641 1775
641 1935
641 1964
641 1994
641 2004
641 2029
641 2031
641 2188
641 2241
642 672
642 681
642 707
642 717
642 740
642 746
642 763
642 811
642 897
642 915
642 967
642 987
642 1010
642 1015
642 1029
642 1033
642 1043
642 1064
642 1065
642 1136
642 1141
642 1143
642 1160
642 1176
642 1222
642 1235
642 1239
642 1246
642 1251
642 1270
642 1309
642 1336
642 1371
642 1372
642 1378
642 1393
642 1417
642 1442
642 1450
642 1472
642 1527
642 1593
642 1625
642 1656
642 1699
642 1701
642 1705
642 1739
642 1774
642 1775
642 1790
642 1794
642 1850
642 1861
642 1929
642 1953
642 1960
642 1974
642 2003
642 2035
642 2037
642 2047
642 2083
642 2141
642 2143
642 2186
642 2189
643 646
643 649
643 652
643 662
643 672
643 692
643 697
643 716
643 720
643 722
643 737
643 764
643 797
643 806
643 814
643 828
643 866
643 880
643 881
643 883
643 886
643 889
643 910
643 911
643 914
643 920
643 923
643 926
643 938
643 961
643 975
643 976
643 984
643 1009
643 1024
643 1029
643 1040
643 1044
643 1049
643 1054
643 1056
643 1057
643 1059
643 1066
643 1089
643 1100
643 1104
643 1119
643 1155
643 1168
643 1194
643 1198
643 1230
643 1236
643 1277
643 1278
643 1287
643 1290
643 1311
643 1339
643 1370
643 1376
643 1378
643 1385
643 1392
643 1409
643 1421
643 1431
643 1434
643 1446
643 1450
643 1473
643 1491
643 1493
643 1498
643 1505
643 1510
643 1511
643 1512
643 1520
643 1533
643 1535
643 1538
643 1545
643 1557
643 1567
643 1568
643 1570
643 1587
643 1589
643 1600
643 1607
643 1612
643 1613
643 1628
643 1632
643 1641
643 1643
643 1646
643 1650
643 1659
643 1671
643 1672
643 1676
643 1687
643 1693
643 1708
643 1716
643 1717
643 1718
643 1732
643 1758
643 1796
643 1813
643 1818
643 1824
643 1835
643 1846
643 1855
643 1863
643 1869
643 1870
643 1875
643 1879
643 1884
643 1894
643 1908
643 1917
643 1918
643 1930
643 1934
643 1942
643 1943
643 1964
643 1971
643 1974
643 1984
643 1990
643 2005
643 2009
643 2015
643 2040
643 2043
643 2052
643 2054
643 2065
643 2069
643 2081
643 2087
643 2090
643 2091
643 2121
643 2133
643 2137
643 2148
643 2150
643 2166
643 2167
643 2173
643 2194
643 2202
643 2206
643 2223
643 2242
643 2249
644 1114
645 651
645 662
645 692
645 695
645 699
645 711
645 736
645 737
645 764
645 786
645 795
645 827
645 831
645 880
645 894
645 895
645 900
645 915
645 920
645 924
645 938
645 957
645 1006
645 1020
645 1033
645 1058
645 1117
645 1212
645 1241
645 1247
645 1277
645 1283
645 1322
645 1358
645 1364
645 1365
645 1385
645 1391
645 1397
645 1401
645 1424
645 1425
645 1429
645 1434
645 1463
645 1474
645 1564
645 1607
645 1624
645 1632
645 1669
645 1681
645 1709
645 1715
645 1741
645 1743
645 1765
645 1818
645 1865
645 1908
645 1911
645 1934
645 1980
645 1985
645 1987
645 2011
645 2012
645 2016
645 2018
645 2022
645 2043
645 2051
645 2076
645 2091
645 2117
645 2137
645 2148
645 2159
645 2166
645 2171
645 2174
646 664
646 665
646 679
646 682
646 689
646 696
646 697
646 705
646 737
646 740
646 776
646 806
646 825
646 847
646 848
646 865
646 889
646 895
646 905
646 935
646 969
646 983
646 990
646 1029
646 1046
646 1066
646 1079
646 1087
646 1089
646 1119
646 1125
646 1155
646 1182
646 1189
646 1220
646 1238
646 1240
646 1241
646 1244
646 1260
646 1272
646 1279
646 1289
646 1298
646 1353
646 1370
646 1374
646 1410
646 1421
646 1425
646 1430
646 1436
646 1454
646 1456
646 1460
646 1483
646 1512
646 1634
646 1642
646 1654
646 1656
646 1673
646 1690
646 1719
646 1723
646 1741
646 1747
646 1753
646 1763
646 1765
646 1772
646 1799
646 1802
646 1804
646 1809
646 1813
646 1818
646 1840
646 1848
646 1855
646 1875
646 1892
646 1902
646 1923
646 1977
646 1995
646 2037
646 2042
646 2065
646 2072
646 2090
646 2100
646 2133
646 2153
646 2173
646 2182
646 2190
646 2200
646 2206
646 2231
646 2233
646 2248
647 657
647 670
647 723
647 727
647 732
647 740
647 744
647 746
647 765
647 769
647 776
647 777
647 778
647 783
647 799
647 801
647 825
647 839
647 843
647 845
647 865
647 869
647 873
647 880
647 895
647 905
647 907
647 913
647 916
647 920
647 935
647 951
647 973
647 979
647 983
647 992
647 1009
647 1029
647 1071
647 1086
647 1124
647 1142
647 1160
647 1164
647 1174
647 1246
647 1258
647 1262
647 1270
647 1279
647 1282
647 1288
647 1292
647 1296
647 1321
647 1325
647 1332
647 1340
647 1346
647 1365
647 1374
647 1383
647 1404
647 1408
647 1419
647 1420
647 1429
647 1443
647 1456
647 1459
647 1460
647 1468
647 1483
647 1497
647 1499
647 1526
647 1562
647 1584
647 1609
647 1632
647 1634
647 1638
647 1679
647 1706
647 1713
647 1723
647 1741
647 1748
647 1750
647 1782
647 1799
647 1802
647 1810
647 1812
647 1818
647 1832
647 1840
647 1878
647 1892
647 1902
647 1903
647 1923
647 1928
647 1934
647 1937
647 1940
647 1948
647 1963
647 1969
647 1977
647 2006
647 2020
647 2038
647 2040
647 2063
647 2117
647 2124
647 2127
647 2129
647 2153
647 2173
647 2181
647 2183
647 2193
647 2230
647 2246
647 2248
648 700
648 711
648 731
648 806
648 851
648 883
648 890
648 920
648 934
648 937
648 938
648 947
648 953
648 1029
648 1065
648 1094
648 1112
648 1264
648 1280
648 1321
648 1322
648 1367
648 1384
648 1431
648 1486
648 1560
648 1579
648 1646
648 1755
648 1818
648 1828
648 1859
648 1892
648 1903
648 1964
648 1987
648 2014
648 2035
648 2085
648 2132
648 2162
648 2177
648 2191
648 2197
649 692
649 710
649 764
649 773
649 797
649 868
649 873
649 894
649 900
649 965
649 976
649 1000
649 1017
649 1035
649 1042
649 1057
649 1063
649 1078
649 1151
649 1154
649 1165
649 1180
649 1241
649 1242
649 1268
649 1307
649 1327
649 1360
649 1382
649 1389
649 1446
649 1498
649 1522
649 1538
649 1554
649 1589
649 1607
649 1613
649 1641
649 1646
649 1716
649 1732
649 1765
649 1774
649 1789
649 1794
649 1819
649 1865
649 1866
649 1870
649 1878
649 1952
649 1964
649 1974
649 1981
649 2004
649 2015
649 2043
649 2099
649 2158
649 2188
649 2236
650 694
650 747
650 816
650 878
650 988
650 992
650 1099
650 1171
650 1359
650 1400
650 1402
650 2031
650 2032
650 2151
651 663
651 668
651 674
651 699
651 723
651 768
651 771
651 784
651 824
651 882
651 888
651 897
651 1033
651 1056
651 1129
651 1133
651 1154
651 1286
651 1329
651 1375
651 1399
651 1474
651 1493
651 1594
651 1603
651 1611
651 1637
651 1669
651 1697
651 1741
651 1759
651 1787
651 1799
651 1867
651 1878
651 1880
651 1960
651 1975
651 2006
651 2025
651 2047
651 2134
651 2174
651 2189
651 2216
651 2222
651 2231
652 854
652 965
652 1194
652 1198
652 1202
652 1260
652 1263
652 1309
652 1315
652 1330
652 1386
652 1411
652 1451
652 1455
652 1491
652 1536
652 1606
652 1608
652 1650
652 1676
652 1689
652 1717
652 1729
652 1764
652 1807
652 1943
652 2000
652 2075
652 2113
652 2128
652 2150
652 2172
652 2229
652 2242
653 679
653 762
653 796
653 798
653 812
653 818
653 832
653 844
653 847
653 848
653 852
653 874
653 889
653 902
653 951
653 970
653 983
653 990
653 1008
653 1029
653 1054
653 1066
653 1088
653 1089
653 1107
653 1164
653 1176
653 1243
653 1244
653 1256
653 1258
653 1267
653 1268
653 1274
653 1279
653 1342
653 1348
653 1353
653 1430
653 1483
653 1499
653 1506
653 1558
653 1566
653 1607
653 1634
653 1656
653 1679
653 1701
653 1730
653 1755
653 1809
653 1818
653 1837
653 1840
653 1872
653 1902
653 1940
653 1963
653 1969
653 1977
653 1995
653 2010
653 2052
653 2056
653 2066
653 2070
653 2087
653 2090
653 2146
654 721
654 762
654 775
654 782
654 854
654 884
654 1034
654 1105
654 1157
654 1166
654 1252
654 1275
654 1315
654 1386
654 1423
654 1509
654 1539
654 1614
654 1636
654 1672
654 1811
654 1821
654 1833
654 2130
654 2210
654 2238
655 693
655 757
655 773
655 790
655 855
655 858
655 887
655 923
655 942
655 957
655 996
655 1004
655 1193
655 1346
655 1349
655 1361
655 1385
655 1389
655 1474
655 1486
655 1653
655 1749
655 1775
655 1788
655 1876
655 1935
655 2029
655 2107
655 2188
655 2205
655 2241
656 665
656 697
656 699
656 708
656 713
656 736
656 738
656 741
656 768
656 773
656 780
656 786
656 795
656 806
656 811
656 832
656 873
656 894
656 900
656 918
656 920
656 922
656 924
656 926
656 937
656 942
656 951
656 954
656 965
656 966
656 992
656 1020
656 1023
656 1043
656 1073
656 1117
656 1118
656 1132
656 1141
656 1147
656 1154
656 1161
656 1171
656 1173
656 1180
656 1192
656 1205
656 1212
656 1233
656 1238
656 1247
656 1269
656 1279
656 1312
656 1322
656 1332
656 1334
656 1340
656 1348
656 1349
656 1358
656 1361
656 1364
656 1369
656 1382
656 1409
656 1414
656 1416
656 1419
656 1429
656 1443
656 1444
656 1463
656 1469
656 1474
656 1486
656 1489
656 1492
656 1497
656 1517
656 1532
656 1540
656 1541
656 1554
656 1565
656 1569
656 1596
656 1616
656 1632
656 1664
656 1666
656 1673
656 1706
656 1720
656 1741
656 1779
656 1800
656 1818
656 1820
656 1838
656 1853
656 1858
656 1904
656 1908
656 1934
656 1975
656 1986
656 1992
656 2001
656 2032
656 2037
656 2043
656 2051
656 2058
656 2073
656 2091
656 2100
656 2104
656 2107
656 2127
656 2147
656 2159
656 2165
656 2167
656 2175
656 2176
656 2186
656 2202
656 2232
656 2235
656 2245
657 670
657 701
657 723
657 755
657 765
657 819
657 850
657 869
657 913
657 920
657 973
657 988
657 1046
657 1071
657 1086
657 1164
657 1169
657 1187
657 1195
657 1251
657 1280
657 1284
657 1387
657 1408
657 1526
657 1576
657 1634
657 1638
657 1750
657 1802
657 1803
657 1840
657 1891
657 1963
657 1969
657 2062
657 2083
657 2100
657 2153
657 2230
658 752
658 889
658 1007
658 1072
658 1341
658 1477
658 1582
658 1768
658 2239
659 700
659 731
659 756
659 883
659 890
659 947
659 953
659 1084
659 1137
659 1245
659 1385
659 1431
659 1474
659 1603
659 1755
659 1775
659 1788
659 1828
659 1903
659 2023
659 2091
659 2154
659 2188
659 2222
660 684
660 1332
660 1463
660 1560
660 1704
660 2234
661 1275
661 1386
661 1427
661 1491
661 1585
661 1685
661 2130
662 672
662 720
662 736
662 795
662 841
662 858
662 873
662 894
662 923
662 938
662 1049
662 1058
662 1100
662 1112
662 1125
662 1151
662 1230
662 1233
662 1236
662 1238
662 1247
662 1356
662 1385
662 1409
662 1434
662 1474
662 1486
662 1520
662 1533
662 1545
662 1709
662 1715
662 1721
662 1743
662 1818
662 1846
662 1857
662 1886
662 1917
662 1980
662 1992
662 2012
662 2043
662 2076
662 2102
662 2110
662 2137
662 2159
662 2161
662 2174
663 668
663 669
663 711
663 718
663 723
663 729
663 734
663 763
663 773
663 811
663 813
663 824
663 867
663 869
663 953
663 995
663 1000
663 1046
663 1133
663 1137
663 1152
663 1162
663 1165
663 1195
663 1224
663 1225
663 1229
663 1239
663 1251
663 1280
663 1308
663 1345
663 1349
663 1352
663 1368
663 1399
663 1426
663 1476
663 1507
663 1517
663 1526
663 1562
663 1576
663 1579
663 1613
663 1630
663 1640
663 1667
663 1695
663 1697
663 1709
663 1711
663 1721
663 1741
663 1802
663 1817
663 1818
663 1859
663 1867
663 1888
663 1891
663 1898
663 1926
663 1931
663 1938
663 2034
663 2038
663 2083
663 2098
663 2099
663 2120
663 2129
663 2131
663 2139
663 2146
663 2171
663 2198
663 2200
663 2225
663 2246
664 716
664 818
664 844
664 852
664 874
664 934
664 969
664 1016
664 1029
664 1038
664 1062
664 1066
664 1073
664 1084
664 1111
664 1187
664 1200
664 1223
664 1279
664 1289
664 1404
664 1448
664 1471
664 1482
664 1504
664 1512
664 1538
664 1546
664 1567
664 1605
664 1643
664 1656
664 1673
664 1768
664 1806
664 1809
664 1848
664 1877
664 1916
664 1924
664 1948
664 1962
664 1967
664 2042
664 2066
664 2109
665 679
665 697
665 705
665 716
665 734
665 763
665 773
665 776
665 780
665 794
665 801
665 809
665 825
665 844
665 847
665 848
665 852
665 865
665 895
665 922
665 951
665 969
665 1029
665 1062
665 1066
665 1079
665 1097
665 1109
665 1140
665 1158
665 1164
665 1191
665 1220
665 1223
665 1240
665 1244
665 1258
665 1262
665 1274
665 1279
665 1282
665 1288
665 1290
665 1298
665 1311
665 1334
665 1340
665 1370
665 1374
665 1408
665 1425
665 1429
665 1430
665 1434
665 1436
665 1448
665 1452
665 1456
665 1460
665 1473
665 1512
665 1517
665 1546
665 1554
665 1562
665 1567
665 1577
665 1580
665 1634
665 1642
665 1645
665 1654
665 1656
665 1665
665 1673
665 1679
665 1704
665 1723
665 1730
665 1747
665 1761
665 1772
665 1797
665 1802
665 1809
665 1810
665 1837
665 1875
665 1899
665 1901
665 1902
665 1904
665 1947
665 1950
665 1962
665 1977
665 1995
665 2037
665 2040
665 2063
665 2072
665 2100
665 2153
665 2155
665 2165
665 2168
665 2171
665 2190
665 2206
665 2246
665 2248
666 727
666 732
666 747
666 772
666 783
666 786
666 869
666 878
666 907
666 916
666 990
666 1021
666 1088
666 1187
666 1231
666 1256
666 1296
666 1328
666 1348
666 1497
666 1499
666 1544
666 1662
666 1790
666 1806
666 1825
666 1932
666 1937
666 2042
666 2142
667 699
667 757
667 797
667 1035
667 1165
667 1169
667 1406
667 1598
667 1613
667 1694
667 1891
667 2131
667 2205
668 681
668 702
668 707
668 729
668 756
668 760
668 824
668 855
668 897
668 990
668 1004
668 1033
668 1078
668 1092
668 1143
668 1222
668 1365
668 1372
668 1467
668 1564
668 1670
668 1745
668 1850
668 1874
668 1974
668 2004
668 2047
668 2189
669 678
669 680
669 718
669 723
669 729
669 734
669 763
669 767
669 773
669 783
669 813
669 825
669 835
669 847
669 869
669 883
669 942
669 953
669 995
669 1006
669 1033
669 1120
669 1133
669 1137
669 1154
669 1162
669 1204
669 1225
669 1241
669 1280
669 1286
669 1292
669 1299
669 1308
669 1325
669 1393
669 1396
669 1399
669 1424
669 1456
669 1467
669 1510
669 1526
669 1579
669 1584
669 1638
669 1667
669 1669
669 1697
669 1711
669 1741
669 1746
669 1799
669 1812
669 1817
669 1818
669 1825
669 1829
669 1832
669 1844
669 1845
669 1849
669 1878
669 1888
669 1920
669 1931
669 1938
669 1939
669 1969
669 1988
669 2027
669 2036
669 2038
669 2098
669 2120
669 2129
669 2139
669 2145
669 2200
670 701
670 723
670 727
670 732
670 745
670 746
670 755
670 765
670 819
670 850
670 869
670 877
670 913
670 945
670 988
670 990
670 1071
670 1086
670 1088
670 1164
670 1187
670 1195
670 1229
670 1251
670 1256
670 1270
670 1284
670 1400
670 1405
670 1408
670 1499
670 1526
670 1576
670 1634
670 1638
670 1788
670 1802
670 1840
670 1906
670 1963
670 1969
670 1988
670 2083
670 2125
670 2230
671 725
671 732
671 746
671 754
671 761
671 763
671 776
671 781
671 783
671 825
671 845
671 990
671 1067
671 1071
671 1160
671 1164
671 1187
671 1215
671 1270
671 1296
671 1351
671 1408
671 1432
671 1453
671 1482
671 1562
671 1609
671 1638
671 1662
671 1704
671 1723
671 1788
671 1802
671 1806
671 1810
671 1835
671 1840
671 1872
671 1895
671 1927
671 1932
671 1969
671 2020
671 2095
671 2118
671 2125
671 2136
671 2218
671 2228
672 695
672 706
672 720
672 726
672 729
672 764
672 891
672 911
672 920
672 923
672 927
672 961
672 984
672 1009
672 1051
672 1100
672 1165
672 1217
672 1221
672 1277
672 1349
672 1369
672 1385
672 1409
672 1434
672 1450
672 1472
672 1473
672 1474
672 1487
672 1545
672 1589
672 1600
672 1613
672 1628
672 1643
672 1688
672 1739
672 1752
672 1769
672 1796
672 1835
672 1855
672 1863
672 1876
672 1952
672 1960
672 1965
672 1974
672 1990
672 2012
672 2117
672 2121
672 2148
673 704
673 742
673 751
673 853
673 912
673 965
673 969
673 972
673 975
673 1012
673 1034
673 1072
673 1074
673 1082
673 1095
673 1101
673 1148
673 1163
673 1184
673 1188
673 1190
673 1194
673 1252
673 1275
673 1306
673 1317
673 1370
673 1381
673 1386
673 1411
673 1479
673 1491
673 1492
673 1495
673 1509
673 1535
673 1577
673 1614
673 1644
673 1668
673 1706
673 1717
673 1814
673 1833
673 1873
673 1921
673 1942
673 1971
673 1973
673 1978
673 1986
673 1999
673 2013
673 2060
673 2061
673 2075
673 2210
673 2217
673 2238
674 677
674 699
674 711
674 729
674 756
674 773
674 786
674 810
674 811
674 954
674 1000
674 1019
674 1024
674 1033
674 1053
674 1192
674 1212
674 1239
674 1280
674 1312
674 1338
674 1375
674 1503
674 1522
674 1575
674 1578
674 1594
674 1603
674 1653
674 1692
674 1726
674 1783
674 1792
674 1807
674 1825
674 1849
674 1903
674 2055
674 2099
674 2143
674 2157
674 2203
674 2231
674 2246
675 721
675 750
675 875
675 906
675 978
675 1023
675 1034
675 1045
675 1148
675 1196
675 1275
675 1315
675 1330
675 1386
675 1460
675 1491
675 1529
675 1531
675 1620
675 1698
675 1813
675 1873
675 1899
675 1900
675 1907
675 1945
675 2017
675 2044
675 2061
675 2075
675 2149
676 1198
676 1350
676 1386
676 1451
676 1944
677 711
677 771
677 773
677 786
677 802
677 811
677 835
677 838
677 848
677 867
677 1000
677 1029
677 1033
677 1239
677 1312
677 1342
677 1375
677 1474
677 1488
677 1498
677 1554
677 1594
677 1611
677 1619
677 1692
677 1726
677 1852
677 1949
677 1960
677 2025
677 2028
677 2043
677 2068
677 2156
677 2165
677 2202
677 2208
677 2246
678 687
678 723
678 734
678 763
678 783
678 826
678 843
678 865
678 869
678 882
678 883
678 953
678 1005
678 1061
678 1068
678 1086
678 1106
678 1187
678 1225
678 1237
678 1249
678 1288
678 1292
678 1307
678 1323
678 1333
678 1337
678 1340
678 1346
678 1348
678 1394
678 1406
678 1419
678 1467
678 1493
678 1541
678 1544
678 1576
678 1579
678 1584
678 1638
678 1645
678 1662
678 1667
678 1697
678 1700
678 1711
678 1726
678 1782
678 1801
678 1802
678 1806
678 1818
678 1830
678 1832
678 1859
678 1898
678 1912
678 1919
678 1930
678 1931
678 1938
678 1941
678 1968
678 2010
678 2038
678 2145
678 2153
678 2161
678 2193
679 705
679 712
679 720
679 777
679 825
679 844
679 847
679 848
679 893
679 951
679 969
679 983
679 992
679 1029
679 1038
679 1054
679 1062
679 1066
679 1079
679 1097
679 1169
679 1174
679 1200
679 1223
679 1240
679 1288
679 1334
679 1410
679 1430
679 1436
679 1448
679 1452
679 1460
679 1512
679 1622
679 1642
679 1656
679 1673
679 1679
679 1704
679 1711
679 1723
679 1802
679 1809
679 1866
679 1877
679 1890
679 1902
679 1977
679 1995
679 2042
679 2100
679 2109
679 2124
679 2169
679 2190
679 2206
679 2233
679 2248
680 708
680 744
680 767
680 924
680 987
680 1015
680 1103
680 1173
680 1174
680 1204
680 1226
680 1230
680 1247
680 1270
680 1359
680 1408
680 1484
680 1771
680 1800
680 1802
680 1818
680 1820
680 1878
680 1890
680 1988
680 1989
680 2022
680 2034
680 2050
680 2080
680 2104
680 2110
680 2136
680 2139
680 2148
680 2191
680 2235
681 845
681 847
681 1006
681 1061
681 1100
681 1137
681 1178
681 1197
681 1220
681 1264
681 1336
681 1340
681 1450
681 1600
681 1670
681 1700
681 1780
681 1796
681 1885
681 1931
681 1972
681 2012
681 2047
681 2099
681 2111
681 2129
681 2134
681 2151
681 2189
681 2206
682 689
682 705
682 712
682 803
682 812
682 819
682 825
682 847
682 991
682 1029
682 1046
682 1066
682 1068
682 1073
682 1081
682 1182
682 1200
682 1244
682 1260
682 1275
682 1293
682 1324
682 1342
682 1369
682 1386
682 1388
682 1392
682 1410
682 1425
682 1430
682 1434
682 1436
682 1483
682 1510
682 1512
682 1541
682 1566
682 1570
682 1593
682 1643
682 1654
682 1665
682 1706
682 1720
682 1723
682 1747
682 1753
682 1772
682 1802
682 1809
682 1818
682 1848
682 1856
682 1866
682 1923
682 1955
682 1962
682 1995
682 2038
682 2065
682 2072
682 2100
682 2137
682 2160
682 2167
682 2168
682 2169
682 2175
682 2185
682 2190
682 2197
682 2200
682 2233
683 840
683 884
683 993
683 1386
683 1551
683 1582
683 2059
683 2078
683 2164
683 2238
684 713
684 734
684 741
684 773
684 785
684 787
684 839
684 848
684 889
684 894
684 918
684 954
684 996
684 1006
684 1030
684 1042
684 1066
684 1118
684 1132
684 1171
684 1174
684 1226
684 1238
684 1249
684 1269
684 1276
684 1280
684 1293
684 1304
684 1335
684 1358
684 1414
684 1416
684 1424
684 1436
684 1454
684 1456
684 1463
684 1486
684 1499
684 1540
684 1546
684 1594
684 1634
684 1658
684 1731
684 1739
684 1741
684 1771
684 1795
684 1818
684 1837
684 1838
684 1847
684 1848
684 1878
684 1881
684 1908
684 1910
684 1962
684 1975
684 1995
684 2018
684 2051
684 2065
684 2073
684 2107
684 2137
684 2144
684 2147
684 2153
684 2168
684 2175
684 2177
684 2181
684 2186
684 2190
684 2209
684 2245
684 2246
684 2249
685 1174
685 1340
685 1771
685 1838
685 1881
685 2006
685 2144
685 2177
685 2205
685 2209
686 1262
686 1317
686 1419
686 2063
687 740
687 746
687 790
687 810
687 829
687 887
687 898
687 916
687 923
687 948
687 994
687 996
687 1004
687 1010
687 1099
687 1102
687 1120
687 1156
687 1159
687 1167
687 1171
687 1245
687 1249
687 1307
687 1309
687 1338
687 1346
687 1372
687 1389
687 1394
687 1398
687 1442
687 1649
687 1686
687 1688
687 1726
687 1788
687 1791
687 1801
687 1830
687 1876
687 1919
687 1968
687 1994
687 2010
687 2038
687 2099
687 2151
687 2188
688 828
688 878
688 917
688 977
688 1053
688 1129
688 1131
688 1143
688 1178
688 1226
688 1298
688 1387
688 1572
688 1654
688 1774
688 1849
688 1874
688 1932
688 1958
688 2016
689 812
689 819
689 847
689 1029
689 1066
689 1182
689 1242
689 1311
689 1342
689 1388
689 1392
689 1410
689 1628
689 1718
689 1747
689 1772
689 1866
689 1902
689 1949
689 2036
689 2087
689 2190
689 2200
689 2206
689 2233
690 694
690 730
690 816
690 823
690 901
690 904
690 936
690 945
690 955
690 985
690 1036
690 1099
690 1114
690 1126
690 1171
690 1193
690 1213
690 1265
690 1356
690 1359
690 1389
690 1390
690 1399
690 1400
690 1402
690 1438
690 1449
690 1490
690 1549
690 1571
690 1591
690 1734
690 1779
690 1822
690 1887
690 1938
690 1961
690 1988
690 2031
690 2032
690 2094
690 2097
690 2115
690 2124
690 2125
690 2151
691 721
691 890
691 920
691 934
691 937
691 1034
691 1094
691 1153
691 1198
691 1202
691 1214
691 1263
691 1275
691 1287
691 1315
691 1330
691 1350
691 1386
691 1411
691 1431
691 1529
691 1548
691 1608
691 1647
691 1672
691 1676
691 1714
691 1755
691 1818
691 1833
691 1884
691 1921
691 2054
691 2106
692 890
692 920
692 976
692 1046
692 1057
692 1154
692 1327
692 1335
692 1360
692 1474
692 1486
692 1498
692 1575
692 1607
692 1613
692 1646
692 1669
692 1692
692 1818
692 1850
692 1870
692 1952
692 1964
692 2016
692 2028
692 2158
692 2165
693 699
693 757
693 791
693 957
693 960
693 1004
693 1294
693 1432
693 1549
693 1700
693 1739
693 1746
693 1749
693 1774
693 1935
693 2012
693 2029
693 2161
693 2205
693 2241
694 723
694 745
694 747
694 816
694 878
694 887
694 918
694 923
694 945
694 971
694 988
694 1005
694 1047
694 1080
694 1086
694 1099
694 1160
694 1167
694 1359
694 1399
694 1400
694 1402
694 1438
694 1507
694 1559
694 1591
694 1688
694 1741
694 1779
694 1822
694 1938
694 1994
694 2031
694 2032
694 2068
694 2097
695 699
695 706
695 741
695 749
695 756
695 786
695 807
695 831
695 872
695 938
695 984
695 996
695 1006
695 1015
695 1033
695 1042
695 1046
695 1138
695 1217
695 1221
695 1222
695 1345
695 1352
695 1371
695 1397
695 1432
695 1472
695 1487
695 1507
695 1549
695 1628
695 1651
695 1731
695 1765
695 1855
695 1881
695 1920
695 1949
695 1974
695 2068
695 2089
695 2147
695 2165
695 2182
695 2195
695 2249
696 712
696 723
696 734
696 771
696 773
696 777
696 796
696 812
696 839
696 844
696 848
696 905
696 924
696 935
696 940
696 969
696 979
696 1008
696 1030
696 1066
696 1090
696 1152
696 1227
696 1240
696 1270
696 1293
696 1308
696 1312
696 1332
696 1334
696 1365
696 1375
696 1416
696 1430
696 1436
696 1444
696 1459
696 1541
696 1546
696 1567
696 1569
696 1611
696 1612
696 1632
696 1692
696 1703
696 1721
696 1754
696 1778
696 1787
696 1799
696 1804
696 1818
696 1827
696 1848
696 1877
696 1878
696 1880
696 1886
696 1902
696 1904
696 1910
696 1934
696 1947
696 1959
696 1975
696 1995
696 2011
696 2070
696 2100
696 2146
696 2190
696 2235
696 2246
697 736
697 737
697 780
697 794
697 844
697 861
697 866
697 895
697 903
697 1040
697 1046
697 1054
697 1073
697 1089
697 1104
697 1109
697 1119
697 1125
697 1154
697 1163
697 1241
697 1253
697 1290
697 1298
697 1370
697 1376
697 1385
697 1393
697 1421
697 1431
697 1629
697 1645
697 1646
697 1654
697 1659
697 1665
697 1671
697 1681
697 1718
697 1720
697 1740
697 1772
697 1813
697 1818
697 1837
697 1863
697 1866
697 1875
697 1916
697 1938
697 1984
697 2069
697 2072
697 2091
697 2165
697 2166
697 2185
697 2202
697 2236
697 2249
698 803
698 826
698 834
698 984
698 1019
698 1024
698 1040
698 1112
698 1174
698 1266
698 1311
698 1317
698 1336
698 1596
698 1607
698 1613
698 1630
698 1647
698 1705
698 1759
698 1772
698 1790
698 1805
698 1849
698 1850
698 1962
698 1967
698 1985
698 2022
698 2035
698 2043
698 2061
698 2102
698 2165
698 2186
698 2191
698 2234
698 2235
699 706
699 710
699 712
699 717
699 720
699 726
699 734
699 741
699 757
699 773
699 783
699 787
699 791
699 792
699 794
699 797
699 811
699 830
699 831
699 842
699 862
699 873
699 882
699 887
699 895
699 904
699 909
699 925
699 939
699 941
699 942
699 944
699 957
699 962
699 984
699 992
699 1000
699 1015
699 1020
699 1033
699 1035
699 1044
699 1046
699 1048
699 1053
699 1057
699 1058
699 1061
699 1065
699 1087
699 1092
699 1098
699 1100
699 1103
699 1125
699 1138
699 1145
699 1154
699 1165
699 1169
699 1173
699 1174
699 1189
699 1212
699 1220
699 1221
699 1225
699 1233
699 1241
699 1246
699 1247
699 1265
699 1266
699 1294
699 1303
699 1304
699 1310
699 1318
699 1320
699 1327
699 1338
699 1349
699 1360
699 1368
699 1375
699 1376
699 1378
699 1389
699 1390
699 1391
699 1393
699 1396
699 1415
699 1421
699 1426
699 1432
699 1436
699 1450
699 1452
699 1453
699 1486
699 1492
699 1493
699 1500
699 1503
699 1516
699 1517
699 1522
699 1533
699 1540
699 1549
699 1550
699 1575
699 1586
699 1590
699 1600
699 1601
699 1613
699 1624
699 1641
699 1646
699 1651
699 1669
699 1681
699 1692
699 1694
699 1700
699 1710
699 1720
699 1721
699 1732
699 1739
699 1741
699 1745
699 1752
699 1753
699 1759
699 1774
699 1835
699 1843
699 1849
699 1863
699 1867
699 1875
699 1881
699 1903
699 1918
699 1926
699 1931
699 1938
699 1958
699 1965
699 1980
699 1982
699 1998
699 2012
699 2015
699 2021
699 2026
699 2029
699 2043
699 2052
699 2076
699 2091
699 2098
699 2101
699 2120
699 2123
699 2131
699 2134
699 2138
699 2140
699 2143
699 2147
699 2148
699 2159
699 2161
699 2194
699 2195
699 2205
699 2216
699 2234
699 2243
700 731
700 737
700 762
700 780
700 804
700 806
700 818
700 832
700 852
700 861
700 871
700 874
700 883
700 890
700 917
700 934
700 937
700 947
700 953
700 969
700 1029
700 1030
700 1038
700 1040
700 1046
700 1059
700 1062
700 1065
700 1073
700 1084
700 1089
700 1094
700 1111
700 1128
700 1212
700 1240
700 1322
700 1367
700 1384
700 1408
700 1424
700 1429
700 1431
700 1470
700 1471
700 1483
700 1511
700 1538
700 1579
700 1605
700 1643
700 1706
700 1720
700 1755
700 1768
700 1783
700 1824
700 1828
700 1892
700 1903
700 1912
700 1917
700 1936
700 1946
700 1949
700 1987
700 1995
700 2042
700 2057
700 2064
700 2066
700 2069
700 2090
700 2132
700 2162
700 2177
700 2180
700 2197
700 2248
701 755
701 798
701 819
701 845
701 850
701 877
701 907
701 920
701 929
701 948
701 967
701 990
701 1047
701 1071
701 1088
701 1181
701 1195
701 1231
701 1243
701 1387
701 1394
701 1499
701 1634
701 1673
701 1836
701 1972
701 2006
701 2062
701 2070
701 2096
701 2120
702 740
702 741
702 773
702 794
702 810
702 898
702 905
702 918
702 947
702 954
702 960
702 967
702 971
702 976
702 979
702 987
702 1006
702 1010
702 1015
702 1042
702 1046
702 1139
702 1154
702 1160
702 1179
702 1212
702 1222
702 1227
702 1236
702 1241
702 1285
702 1309
702 1342
702 1345
702 1352
702 1361
702 1363
702 1391
702 1406
702 1413
702 1414
702 1432
702 1435
702 1442
702 1454
702 1486
702 1489
702 1498
702 1506
702 1522
702 1565
702 1569
702 1578
702 1592
702 1619
702 1669
702 1721
702 1722
702 1731
702 1739
702 1744
702 1759
702 1769
702 1787
702 1791
702 1794
702 1795
702 1799
702 1831
702 1835
702 1850
702 1875
702 1889
702 1911
702 2043
702 2047
702 2086
702 2089
702 2097
702 2098
702 2100
702 2110
702 2115
702 2118
702 2120
702 2134
702 2136
702 2181
702 2189
702 2195
702 2212
702 2216
702 2234
703 746
703 790
703 820
703 877
703 929
703 996
703 1099
703 1442
703 1788
703 1791
703 1799
703 1801
703 1830
703 1836
703 1919
704 728
704 774
704 840
704 928
704 942
704 957
704 978
704 1007
704 1034
704 1082
704 1107
704 1157
704 1163
704 1166
704 1203
704 1206
704 1275
704 1287
704 1315
704 1319
704 1326
704 1330
704 1341
704 1373
704 1386
704 1411
704 1423
704 1488
704 1495
704 1509
704 1529
704 1561
704 1582
704 1620
704 1672
704 1687
704 1768
704 1809
704 1833
704 1873
704 1907
704 1921
704 2005
704 2072
704 2149
704 2224
704 2242
705 723
705 729
705 743
705 780
705 803
705 818
705 825
705 847
705 852
705 873
705 889
705 890
705 906
705 919
705 922
705 924
705 937
705 983
705 992
705 1008
705 1021
705 1029
705 1033
705 1040
705 1054
705 1058
705 1066
705 1068
705 1079
705 1084
705 1111
705 1158
705 1182
705 1204
705 1223
705 1244
705 1260
705 1271
705 1279
705 1290
705 1305
705 1311
705 1340
705 1355
705 1365
705 1376
705 1383
705 1393
705 1425
705 1430
705 1436
705 1444
705 1447
705 1448
705 1456
705 1467
705 1470
705 1483
705 1488
705 1511
705 1512
705 1532
705 1543
705 1558
705 1612
705 1625
705 1642
705 1645
705 1654
705 1656
705 1657
705 1671
705 1673
705 1690
705 1706
705 1709
705 1720
705 1721
705 1723
705 1726
705 1751
705 1753
705 1754
705 1755
705 1756
705 1761
705 1763
705 1787
705 1797
705 1799
705 1801
705 1802
705 1809
705 1818
705 1860
705 1863
705 1866
705 1875
705 1883
705 1901
705 1959
705 1962
705 1969
705 1977
705 2001
705 2010
705 2011
705 2042
705 2052
705 2053
705 2065
705 2066
705 2072
705 2095
705 2104
705 2119
705 2127
705 2162
705 2168
705 2171
705 2197
705 2202
705 2213
705 2235
705 2248
705 2249
706 709
706 726
706 760
706 768
706 830
706 846
706 887
706 894
706 923
706 941
706 954
706 984
706 1015
706 1028
706 1033
706 1046
706 1051
706 1066
706 1081
706 1089
706 1100
706 1106
706 1137
706 1143
706 1169
706 1197
706 1205
706 1217
706 1221
706 1257
706 1265
706 1285
706 1294
706 1311
706 1329
706 1338
706 1356
706 1358
706 1360
706 1363
706 1393
706 1414
706 1446
706 1450
706 1454
706 1472
706 1500
706 1515
706 1534
706 1550
706 1565
706 1569
706 1594
706 1629
706 1651
706 1700
706 1722
706 1744
706 1774
706 1794
706 1796
706 1799
706 1818
706 1835
706 1851
706 1855
706 1905
706 1958
706 1974
706 1994
706 2003
706 2012
706 2043
706 2069
706 2089
706 2091
706 2110
706 2118
706 2134
706 2147
706 2186
706 2201
707 810
707 842
707 897
707 898
707 923
707 941
707 944
707 947
707 987
707 1010
707 1015
707 1033
707 1065
707 1075
707 1078
707 1136
707 1137
707 1218
707 1222
707 1239
707 1264
707 1309
707 1336
707 1375
707 1393
707 1405
707 1474
707 1489
707 1564
707 1569
707 1651
707 1656
707 1705
707 1722
707 1744
707 1745
707 1790
707 1850
707 1872
707 1885
707 1893
707 1950
707 1988
707 2012
707 2035
707 2048
707 2089
707 2098
707 2101
707 2110
707 2134
707 2143
707 2189
708 889
708 924
708 938
708 1021
708 1117
708 1169
708 1195
708 1204
708 1340
708 1365
708 1383
708 1408
708 1419
708 1452
708 1489
708 1616
708 1707
708 1799
708 1802
708 1818
708 1928
708 1963
708 1975
708 2104
708 2127
708 2139
708 2235
708 2246
709 810
709 852
709 919
709 954
709 1010
709 1066
709 1104
709 1212
709 1260
709 1285
709 1329
709 1358
709 1363
709 1413
709 1476
709 1534
709 1538
709 1629
709 1674
709 1695
709 1700
709 1722
709 1744
709 1774
709 1794
709 1799
709 1889
709 2047
709 2086
709 2089
709 2110
709 2118
709 2136
709 2146
710 741
710 873
710 894
710 897
710 941
710 947
710 1015
710 1046
710 1063
710 1065
710 1100
710 1131
710 1136
710 1137
710 1143
710 1180
710 1207
710 1235
710 1283
710 1309
710 1346
710 1453
710 1472
710 1489
710 1538
710 1554
710 1592
710 1607
710 1705
710 1745
710 1769
710 1770
710 1783
710 1849
710 1874
710 1885
710 1958
710 1960
710 1974
710 2012
710 2089
710 2099
710 2118
710 2134
710 2189
711 723
711 729
711 731
711 737
711 756
711 806
711 883
711 918
711 937
711 947
711 976
711 1006
711 1029
711 1046
711 1048
711 1065
711 1073
711 1103
711 1133
711 1169
711 1212
711 1221
711 1225
711 1227
711 1264
711 1280
711 1283
711 1304
711 1322
711 1367
711 1382
711 1384
711 1429
711 1450
711 1454
711 1475
711 1489
711 1492
711 1510
711 1560
711 1579
711 1613
711 1615
711 1641
711 1646
711 1669
711 1686
711 1692
711 1694
711 1697
711 1728
711 1807
711 1859
711 1875
711 1892
711 1903
711 1920
711 1952
711 1958
711 1964
711 1982
711 2049
711 2068
711 2085
711 2099
711 2110
711 2132
711 2165
711 2177
711 2195
711 2203
712 737
712 746
712 773
712 780
712 803
712 806
712 819
712 825
712 831
712 844
712 847
712 848
712 862
712 905
712 924
712 963
712 979
712 1008
712 1029
712 1030
712 1066
712 1068
712 1111
712 1113
712 1119
712 1121
712 1142
712 1155
712 1173
712 1182
712 1189
712 1220
712 1260
712 1271
712 1293
712 1311
712 1342
712 1348
712 1354
712 1369
712 1374
712 1388
712 1392
712 1421
712 1425
712 1430
712 1436
712 1456
712 1458
712 1459
712 1501
712 1511
712 1512
712 1566
712 1593
712 1627
712 1642
712 1643
712 1673
712 1701
712 1706
712 1720
712 1723
712 1747
712 1753
712 1754
712 1772
712 1799
712 1802
712 1805
712 1838
712 1846
712 1848
712 1865
712 1880
712 1883
712 1896
712 1902
712 1904
712 1923
712 1947
712 1949
712 1955
712 1962
712 1979
712 1992
712 1995
712 2003
712 2011
712 2022
712 2041
712 2065
712 2069
712 2091
712 2100
712 2133
712 2175
712 2190
712 2197
712 2200
712 2206
712 2219
712 2233
713 736
713 738
713 785
713 795
713 799
713 900
713 919
713 924
713 940
713 954
713 1013
713 1066
713 1137
713 1147
713 1173
713 1212
713 1241
713 1261
713 1293
713 1311
713 1349
713 1359
713 1391
713 1408
713 1426
713 1463
713 1469
713 1474
713 1486
713 1492
713 1596
713 1640
713 1658
713 1709
713 1746
713 1800
713 1818
713 1838
713 1858
713 1880
713 1881
713 1975
713 1985
713 2018
713 2104
713 2144
713 2153
713 2176
713 2177
713 2186
713 2232
713 2235
714 716
714 735
714 753
714 789
714 793
714 815
714 931
714 1031
714 1045
714 1050
714 1074
714 1095
714 1101
714 1148
714 1162
714 1166
714 1196
714 1252
714 1254
714 1326
714 1366
714 1379
714 1494
714 1561
714 1617
714 1648
714 1808
714 1833
714 1841
714 1873
714 1903
714 1945
714 1946
714 1996
714 2014
714 2105
714 2122
714 2149
714 2180
714 2210
714 2211
714 2237
715 735
715 776
715 793
715 912
715 919
715 1045
715 1234
715 1273
715 1298
715 1411
715 1427
715 1458
715 1491
715 1537
715 1564
715 1585
715 1612
715 1622
715 1640
715 1672
715 1721
715 1833
715 1841
715 1848
715 1904
715 1923
715 1949
715 1959
715 1962
715 1996
715 2007
715 2014
715 2060
715 2095
715 2099
715 2206
715 2230
716 743
716 777
716 847
716 890
716 913
716 963
716 978
716 1068
716 1097
716 1181
716 1187
716 1200
716 1223
716 1231
716 1258
716 1262
716 1282
716 1333
716 1341
716 1343
716 1374
716 1383
716 1404
716 1448
716 1473
716 1482
716 1483
716 1512
716 1546
716 1566
716 1634
716 1643
716 1652
716 1662
716 1665
716 1679
716 1701
716 1806
716 1899
716 1923
716 1924
716 1928
716 1948
716 1955
716 1962
716 1977
716 2042
716 2063
716 2121
716 2145
716 2153
716 2155
716 2169
716 2173
716 2206
717 844
717 987
717 1065
717 1136
717 1208
717 1247
717 1283
717 1372
717 1705
717 1739
717 1783
717 1889
717 1962
717 1974
717 1980
717 2159
717 2189
718 723
718 724
718 773
718 786
718 811
718 924
718 1046
718 1133
718 1152
718 1280
718 1345
718 1368
718 1503
718 1526
718 1579
718 1591
718 1697
718 1711
718 1803
718 1809
718 1817
718 1888
718 1891
718 1938
718 2033
718 2118
718 2146
718 2200
718 2203
718 2205
719 953
719 1903
719 1994
720 729
720 757
720 769
720 830
720 846
720 873
720 880
720 894
720 900
720 911
720 920
720 923
720 938
720 957
720 961
720 1009
720 1044
720 1056
720 1058
720 1059
720 1100
720 1104
720 1119
720 1169
720 1171
720 1173
720 1225
720 1230
720 1236
720 1247
720 1277
720 1290
720 1349
720 1378
720 1385
720 1409
720 1421
720 1434
720 1450
720 1452
720 1473
720 1474
720 1486
720 1498
720 1500
720 1520
720 1533
720 1545
720 1586
720 1589
720 1600
720 1607
720 1613
720 1624
720 1628
720 1632
720 1641
720 1643
720 1646
720 1688
720 1709
720 1715
720 1716
720 1721
720 1732
720 1743
720 1746
720 1759
720 1796
720 1813
720 1818
720 1835
720 1846
720 1855
720 1863
720 1911
720 1917
720 1965
720 2009
720 2012
720 2043
720 2065
720 2069
720 2081
720 2091
720 2117
720 2121
720 2131
720 2133
720 2148
720 2159
720 2161
720 2173
720 2174
721 757
721 808
721 854
721 950
721 975
721 986
721 1012
721 1025
721 1034
721 1089
721 1157
721 1163
721 1190
721 1196
721 1201
721 1263
721 1330
721 1349
721 1386
721 1411
721 1423
721 1529
721 1539
721 1542
721 1552
721 1573
721 1582
721 1613
721 1614
721 1621
721 1644
721 1668
721 1676
721 1698
721 1834
721 1839
721 1915
721 2007
721 2045
721 2130
721 2196
721 2223
721 2239
722 880
722 920
722 923
722 961
722 980
722 984
722 1009
722 1028
722 1056
722 1100
722 1230
722 1236
722 1277
722 1304
722 1346
722 1493
722 1586
722 1628
722 1641
722 1688
722 1835
722 2012
722 2081
723 724
723 734
723 745
723 746
723 763
723 764
723 765
723 767
723 773
723 783
723 800
723 803
723 811
723 813
723 816
723 824
723 826
723 829
723 835
723 839
723 843
723 869
723 883
723 903
723 913
723 918
723 935
723 941
723 942
723 944
723 945
723 950
723 953
723 955
723 960
723 979
723 984
723 988
723 994
723 995
723 996
723 1006
723 1019
723 1024
723 1044
723 1046
723 1061
723 1070
723 1071
723 1075
723 1077
723 1086
723 1098
723 1099
723 1103
723 1118
723 1126
723 1133
723 1152
723 1154
723 1156
723 1165
723 1167
723 1169
723 1171
723 1174
723 1195
723 1205
723 1218
723 1224
723 1225
723 1227
723 1229
723 1251
723 1265
723 1266
723 1270
723 1280
723 1284
723 1286
723 1288
723 1292
723 1299
723 1308
723 1310
723 1323
723 1329
723 1333
723 1337
723 1344
723 1348
723 1349
723 1359
723 1365
723 1368
723 1382
723 1393
723 1396
723 1399
723 1402
723 1405
723 1408
723 1413
723 1426
723 1429
723 1440
723 1450
723 1453
723 1459
723 1467
723 1476
723 1497
723 1498
723 1499
723 1500
723 1507
723 1510
723 1514
723 1515
723 1526
723 1527
723 1537
723 1544
723 1558
723 1562
723 1566
723 1576
723 1579
723 1584
723 1591
723 1596
723 1600
723 1609
723 1611
723 1618
723 1620
723 1628
723 1630
723 1638
723 1641
723 1662
723 1663
723 1667
723 1669
723 1694
723 1697
723 1711
723 1726
723 1735
723 1741
723 1750
723 1759
723 1782
723 1788
723 1799
723 1802
723 1807
723 1816
723 1817
723 1818
723 1825
723 1829
723 1832
723 1838
723 1850
723 1854
723 1867
723 1887
723 1888
723 1891
723 1895
723 1898
723 1906
723 1912
723 1930
723 1934
723 1938
723 1939
723 1975
723 1988
723 2031
723 2033
723 2034
723 2038
723 2048
723 2077
723 2083
723 2085
723 2088
723 2098
723 2099
723 2100
723 2107
723 2108
723 2118
723 2120
723 2129
723 2139
723 2142
723 2143
723 2151
723 2153
723 2183
723 2193
723 2198
723 2230
724 734
724 953
724 995
724 1006
724 1044
724 1048
724 1100
724 1129
724 1133
724 1224
724 1286
724 1323
724 1368
724 1399
724 1409
724 1476
724 1493
724 1507
724 1591
724 1603
724 1618
724 1628
724 1630
724 1667
724 1711
724 1741
724 1759
724 1773
724 1782
724 1817
724 1849
724 1930
724 1938
724 1988
724 2083
724 2117
724 2165
724 2194
724 2198
725 790
725 798
725 869
725 877
725 935
725 985
725 990
725 1047
725 1071
725 1150
725 1164
725 1174
725 1215
725 1256
725 1274
725 1348
725 1499
725 1662
725 1788
725 1799
725 1817
725 1840
725 1872
725 1878
725 1887
725 1963
725 1969
725 2020
725 2070
725 2228
725 2230
726 760
726 927
726 971
726 996
726 1138
726 1143
726 1154
726 1217
726 1222
726 1432
726 1739
726 1745
726 1792
726 1874
726 2118
726 2182
727 732
727 734
727 747
727 769
727 772
727 778
727 783
727 786
727 816
727 828
727 844
727 845
727 865
727 869
727 878
727 907
727 916
727 1005
727 1021
727 1071
727 1088
727 1160
727 1164
727 1179
727 1187
727 1249
727 1296
727 1328
727 1351
727 1365
727 1394
727 1450
727 1468
727 1483
727 1497
727 1526
727 1609
727 1638
727 1662
727 1706
727 1768
727 1791
727 1799
727 1801
727 1802
727 1818
727 1832
727 1840
727 1862
727 1872
727 1932
727 1937
727 1938
727 1963
727 1969
727 1972
727 2010
727 2070
727 2141
727 2230
727 2248
728 840
728 928
728 978
728 1157
728 1166
728 1298
728 1315
728 1330
728 1427
728 1509
728 1529
728 1561
728 1581
728 1582
728 1808
728 1859
728 1907
728 2075
728 2242
729 756
729 760
729 764
729 835
729 880
729 882
729 884
729 924
729 984
729 987
729 995
729 1006
729 1019
729 1021
729 1033
729 1058
729 1059
729 1100
729 1103
729 1133
729 1158
729 1169
729 1174
729 1230
729 1266
729 1269
729 1277
729 1307
729 1325
729 1339
729 1382
729 1421
729 1450
729 1474
729 1480
729 1486
729 1488
729 1493
729 1500
729 1507
729 1511
729 1527
729 1533
729 1589
729 1600
729 1603
729 1613
729 1628
729 1632
729 1643
729 1690
729 1697
729 1732
729 1741
729 1759
729 1772
729 1795
729 1817
729 1818
729 1849
729 1866
729 1888
729 1898
729 1920
729 1938
729 1965
729 1982
729 2012
729 2051
729 2069
729 2085
729 2110
729 2117
729 2139
729 2175
729 2194
729 2235
730 816
730 936
730 996
730 1047
730 1099
730 1359
730 1400
730 1449
730 1961
730 2031
730 2032
731 778
731 883
731 890
731 907
731 923
731 934
731 947
731 948
731 953
731 967
731 973
731 992
731 1005
731 1009
731 1033
731 1065
731 1067
731 1077
731 1081
731 1094
731 1137
731 1152
731 1160
731 1178
731 1218
731 1222
731 1280
731 1288
731 1325
731 1329
731 1338
731 1344
731 1346
731 1351
731 1367
731 1384
731 1394
731 1408
731 1431
731 1438
731 1470
731 1511
731 1560
731 1609
731 1615
731 1626
731 1629
731 1643
731 1739
731 1755
731 1782
731 1788
731 1799
731 1801
731 1802
731 1803
731 1840
731 1859
731 1889
731 1890
731 1892
731 1903
731 1928
731 1948
731 1949
731 1966
731 1972
731 1974
731 1987
731 2080
731 2085
731 2089
731 2096
731 2110
731 2115
731 2124
731 2141
731 2162
731 2179
731 2197
731 2248
732 734
732 747
732 755
732 765
732 769
732 776
732 778
732 816
732 845
732 865
732 869
732 878
732 892
732 907
732 916
732 930
732 941
732 948
732 967
732 992
732 1005
732 1071
732 1160
732 1164
732 1178
732 1187
732 1283
732 1288
732 1296
732 1321
732 1351
732 1365
732 1394
732 1402
732 1408
732 1432
732 1438
732 1483
732 1497
732 1526
732 1559
732 1584
732 1609
732 1638
732 1661
732 1662
732 1690
732 1706
732 1748
732 1791
732 1799
732 1801
732 1802
732 1836
732 1840
732 1862
732 1902
732 1906
732 1932
732 1937
732 1940
732 1947
732 1963
732 1969
732 1972
732 2032
732 2040
732 2124
732 2125
732 2129
732 2141
732 2179
732 2185
732 2230
732 2248
733 829
733 834
733 878
733 898
733 988
733 1102
733 1120
733 1126
733 1167
733 1171
733 1304
733 1336
733 1359
733 1402
733 1435
733 1437
733 1547
733 1556
733 1596
733 1633
733 1734
733 1759
733 1790
733 1970
733 2031
733 2032
733 2035
733 2192
734 740
734 773
734 784
734 830
734 845
734 847
734 869
734 872
734 942
734 953
734 995
734 1019
734 1103
734 1133
734 1152
734 1154
734 1162
734 1195
734 1229
734 1230
734 1244
734 1266
734 1270
734 1272
734 1286
734 1307
734 1308
734 1311
734 1344
734 1345
734 1380
734 1399
734 1438
734 1452
734 1507
734 1554
734 1603
734 1630
734 1637
734 1663
734 1669
734 1697
734 1711
734 1741
734 1759
734 1773
734 1779
734 1806
734 1817
734 1818
734 1829
734 1845
734 1888
734 1920
734 1932
734 1938
734 1988
734 2025
734 2034
734 2038
734 2103
734 2129
734 2145
734 2147
734 2200
734 2246
735 793
735 865
735 1012
735 1034
735 1074
735 1252
735 1326
735 1456
735 1509
735 1542
735 1706
735 1833
735 1841
735 2007
735 2014
735 2040
735 2061
735 2237
736 762
736 767
736 785
736 795
736 814
736 817
736 841
736 853
736 894
736 938
736 939
736 942
736 960
736 1046
736 1054
736 1066
736 1117
736 1125
736 1261
736 1277
736 1298
736 1322
736 1356
736 1358
736 1364
736 1376
736 1377
736 1463
736 1469
736 1474
736 1492
736 1518
736 1554
736 1596
736 1645
736 1654
736 1671
736 1818
736 1838
736 1863
736 1868
736 1875
736 1878
736 1879
736 1881
736 1945
736 1975
736 1985
736 2072
736 2082
736 2100
736 2102
736 2137
736 2144
736 2148
736 2161
736 2176
736 2177
736 2185
736 2186
737 762
737 780
737 794
737 806
737 808
737 818
737 831
737 844
737 848
737 861
737 867
737 868
737 871
737 881
737 895
737 899
737 903
737 915
737 918
737 937
737 938
737 954
737 969
737 1015
737 1017
737 1018
737 1021
737 1026
737 1029
737 1046
737 1054
737 1057
737 1062
737 1066
737 1073
737 1084
737 1089
737 1094
737 1109
737 1111
737 1112
737 1119
737 1147
737 1151
737 1154
737 1212
737 1217
737 1227
737 1232
737 1235
737 1240
737 1241
737 1242
737 1253
737 1255
737 1268
737 1278
737 1283
737 1298
737 1339
737 1352
737 1353
737 1355
737 1356
737 1370
737 1376
737 1385
737 1393
737 1397
737 1399
737 1421
737 1425
737 1431
737 1445
737 1478
737 1492
737 1501
737 1507
737 1512
737 1564
737 1566
737 1570
737 1596
737 1612
737 1645
737 1646
737 1647
737 1651
737 1659
737 1669
737 1671
737 1673
737 1690
737 1706
737 1708
737 1718
737 1732
737 1744
737 1751
737 1756
737 1794
737 1795
737 1809
737 1818
737 1824
737 1825
737 1828
737 1837
737 1863
737 1865
737 1875
737 1883
737 1894
737 1901
737 1904
737 1906
737 1909
737 1916
737 1923
737 1925
737 1936
737 1938
737 1942
737 1955
737 1974
737 1996
737 2003
737 2016
737 2028
737 2043
737 2052
737 2069
737 2072
737 2085
737 2090
737 2091
737 2100
737 2107
737 2131
737 2142
737 2160
737 2166
737 2171
737 2185
737 2187
737 2195
737 2202
737 2231
737 2236
737 2249
738 741
738 746
738 771
738 799
738 801
738 805
738 844
738 848
738 900
738 924
738 938
738 992
738 1063
738 1090
738 1125
738 1235
738 1293
738 1298
738 1312
738 1318
738 1320
738 1322
738 1334
738 1353
738 1364
738 1365
738 1369
738 1377
738 1391
738 1416
738 1428
738 1434
738 1450
738 1463
738 1474
738 1489
738 1492
738 1554
738 1581
738 1610
738 1616
738 1640
738 1654
738 1736
738 1768
738 1802
738 1818
738 1838
738 1871
738 1880
738 1902
738 1934
738 1962
738 2003
738 2008
738 2010
738 2104
738 2176
738 2177
738 2206
738 2232
738 2246
739 1444
739 1834
740 741
740 746
740 810
740 894
740 898
740 915
740 918
740 947
740 967
740 987
740 993
740 996
740 1010
740 1071
740 1081
740 1100
740 1179
740 1216
740 1235
740 1272
740 1307
740 1309
740 1338
740 1346
740 1372
740 1413
740 1414
740 1432
740 1442
740 1454
740 1464
740 1489
740 1549
740 1565
740 1628
740 1647
740 1658
740 1722
740 1739
740 1774
740 1788
740 1795
740 1796
740 1799
740 1801
740 1831
740 1889
740 1892
740 1902
740 1903
740 1960
740 1974
740 2012
740 2047
740 2086
740 2099
740 2118
740 2123
740 2134
740 2141
740 2175
740 2189
741 746
741 807
741 867
741 872
741 887
741 904
741 905
741 922
741 938
741 944
741 947
741 955
741 960
741 976
741 980
741 984
741 1006
741 1015
741 1020
741 1030
741 1033
741 1035
741 1042
741 1043
741 1046
741 1053
741 1056
741 1125
741 1144
741 1155
741 1165
741 1179
741 1192
741 1197
741 1213
741 1220
741 1221
741 1238
741 1265
741 1283
741 1335
741 1349
741 1356
741 1368
741 1375
741 1393
741 1395
741 1397
741 1399
741 1429
741 1432
741 1439
741 1441
741 1442
741 1444
741 1450
741 1454
741 1475
741 1486
741 1503
741 1514
741 1540
741 1549
741 1569
741 1578
741 1579
741 1580
741 1601
741 1619
741 1624
741 1646
741 1651
741 1669
741 1692
741 1694
741 1695
741 1700
741 1726
741 1731
741 1739
741 1741
741 1765
741 1792
741 1807
741 1818
741 1827
741 1831
741 1837
741 1852
741 1859
741 1867
741 1871
741 1878
741 1881
741 1892
741 1901
741 1903
741 1904
741 1920
741 1932
741 1966
741 1974
741 1975
741 1982
741 1988
741 1994
741 2016
741 2037
741 2043
741 2055
741 2068
741 2070
741 2073
741 2085
741 2089
741 2091
741 2099
741 2108
741 2118
741 2120
741 2143
741 2147
741 2153
741 2156
741 2165
741 2182
741 2195
741 2196
741 2198
741 2208
741 2243
741 2245
741 2249
742 753
742 1031
742 1045
742 1082
742 1095
742 1196
742 1252
742 1291
742 1529
742 1539
742 1668
742 1706
742 1818
742 1833
742 1921
742 1933
742 1942
742 1973
742 1999
742 2042
742 2076
742 2184
743 762
743 808
743 811
743 818
743 832
743 847
743 852
743 865
743 874
743 890
743 895
743 913
743 969
743 1029
743 1054
743 1059
743 1062
743 1066
743 1089
743 1207
743 1289
743 1376
743 1384
743 1460
743 1471
743 1473
743 1504
743 1511
743 1533
743 1538
743 1558
743 1567
743 1574
743 1622
743 1625
743 1656
743 1673
743 1703
743 1726
743 1923
743 1940
743 1949
743 1977
743 2036
743 2037
743 2042
743 2064
743 2109
743 2119
743 2121
743 2134
743 2153
743 2213
743 2248
744 767
744 783
744 803
744 826
744 839
744 880
744 913
744 939
744 982
744 992
744 1009
744 1016
744 1124
744 1130
744 1149
744 1170
744 1187
744 1223
744 1231
744 1237
744 1246
744 1262
744 1281
744 1282
744 1317
744 1321
744 1340
744 1374
744 1383
744 1408
744 1419
744 1429
744 1448
744 1468
744 1482
744 1510
744 1512
744 1521
744 1607
744 1707
744 1713
744 1768
744 1782
744 1806
744 1812
744 1818
744 1924
744 1928
744 1930
744 1948
744 2009
744 2063
744 2088
744 2139
744 2145
744 2153
744 2155
744 2177
744 2193
744 2209
745 747
745 748
745 816
745 985
745 988
745 1167
745 1229
745 1251
745 1347
745 1359
745 1400
745 1402
745 1405
745 1559
745 1773
745 2032
745 2083
746 780
746 783
746 787
746 803
746 839
746 844
746 847
746 869
746 897
746 898
746 900
746 907
746 923
746 935
746 938
746 942
746 947
746 951
746 960
746 973
746 985
746 987
746 996
746 1015
746 1029
746 1033
746 1046
746 1066
746 1067
746 1071
746 1081
746 1103
746 1106
746 1122
746 1129
746 1164
746 1174
746 1218
746 1222
746 1223
746 1235
746 1270
746 1274
746 1309
746 1336
746 1346
746 1365
746 1369
746 1374
746 1387
746 1394
746 1428
746 1442
746 1450
746 1474
746 1492
746 1507
746 1537
746 1554
746 1565
746 1579
746 1609
746 1626
746 1628
746 1634
746 1638
746 1705
746 1722
746 1788
746 1799
746 1801
746 1802
746 1803
746 1818
746 1830
746 1840
746 1889
746 1892
746 1962
746 1963
746 1966
746 1969
746 1974
746 1988
746 2003
746 2006
746 2022
746 2026
746 2035
746 2083
746 2089
746 2110
746 2115
746 2123
746 2134
746 2141
746 2151
746 2153
746 2170
746 2189
746 2209
746 2230
747 772
747 816
747 844
747 878
747 907
747 916
747 1047
747 1115
747 1160
747 1167
747 1328
747 1359
747 1400
747 1402
747 1497
747 1559
747 1779
747 1862
747 2032
748 834
748 878
748 988
748 1133
748 1137
748 1167
748 1347
748 1359
748 1402
748 1938
748 2032
748 2098
748 2192
749 790
749 816
749 834
749 923
749 938
749 996
749 1083
749 1102
749 1114
749 1120
749 1171
749 1179
749 1193
749 1241
749 1361
749 1390
749 1454
749 1669
749 1727
749 1769
749 1775
749 1910
749 1994
749 2091
749 2165
749 2182
750 875
750 912
750 978
750 1206
750 1330
750 1539
750 1595
750 1682
750 1685
750 1884
750 2075
750 2227
751 854
751 912
751 926
751 1234
751 1315
751 1330
751 1348
751 1381
751 1423
751 1481
751 1494
751 1495
751 1606
751 1612
751 1620
751 1644
751 1698
751 1764
751 2075
751 2127
752 2239
753 774
753 782
753 815
753 884
753 912
753 931
753 972
753 974
753 978
753 983
753 986
753 992
753 1031
753 1034
753 1045
753 1050
753 1082
753 1095
753 1101
753 1105
753 1119
753 1148
753 1162
753 1163
753 1166
753 1190
753 1194
753 1252
753 1275
753 1287
753 1291
753 1315
753 1326
753 1366
753 1381
753 1386
753 1470
753 1491
753 1509
753 1531
753 1539
753 1552
753 1595
753 1636
753 1644
753 1668
753 1676
753 1685
753 1687
753 1698
753 1717
753 1724
753 1751
753 1773
753 1784
753 1818
753 1821
753 1833
753 1841
753 1884
753 1907
753 1915
753 1921
753 1933
753 1945
753 1971
753 1973
753 1996
753 2054
753 2061
753 2075
753 2078
753 2105
753 2130
753 2164
753 2184
753 2210
753 2211
753 2227
753 2238
754 761
754 781
754 936
754 948
754 1005
754 1150
754 1215
754 1297
754 1559
754 1609
754 1661
754 1793
754 1961
754 2218
754 2228
754 2250
755 769
755 776
755 783
755 801
755 819
755 825
755 839
755 845
755 849
755 850
755 865
755 935
755 936
755 992
755 1009
755 1046
755 1071
755 1077
755 1088
755 1174
755 1195
755 1230
755 1246
755 1270
755 1277
755 1282
755 1288
755 1296
755 1307
755 1321
755 1387
755 1408
755 1420
755 1483
755 1512
755 1526
755 1562
755 1584
755 1634
755 1638
755 1713
755 1723
755 1748
755 1750
755 1772
755 1791
755 1802
755 1810
755 1812
755 1818
755 1887
755 1929
755 1934
755 1948
755 1963
755 2006
755 2010
755 2040
755 2042
755 2095
755 2103
755 2124
755 2167
755 2174
755 2181
755 2183
755 2230
756 760
756 811
756 882
756 897
756 1019
756 1220
756 1266
756 1322
756 1450
756 1726
756 1743
756 1849
756 1888
756 1898
756 1965
756 2068
756 2085
756 2174
756 2234
757 846
757 887
757 911
757 925
757 942
757 957
757 976
757 984
757 1004
757 1035
757 1056
757 1058
757 1059
757 1087
757 1092
757 1100
757 1107
757 1137
757 1165
757 1169
757 1290
757 1294
757 1349
757 1382
757 1385
757 1406
757 1415
757 1486
757 1500
757 1503
757 1589
757 1600
757 1613
757 1641
757 1694
757 1700
757 1710
757 1721
757 1726
757 1746
757 1749
757 1774
757 1796
757 1935
757 2012
757 2029
757 2065
757 2131
757 2136
757 2205
758 1047
758 1150
758 1164
758 1274
758 1565
758 2189
759 1082
759 1366
759 1411
759 1536
759 1684
759 2002
759 2113
759 2178
760 795
760 917
760 1015
760 1092
760 1100
760 1108
760 1131
760 1137
760 1143
760 1226
760 1235
760 1335
760 1467
760 1489
760 1516
760 1587
760 1651
760 1745
760 1746
760 1794
760 1850
760 1874
760 1951
760 1958
760 2012
760 2118
760 2201
760 2208
761 1150
761 1209
761 1215
761 1844
761 1851
761 2218
762 815
762 832
762 847
762 889
762 890
762 937
762 1029
762 1046
762 1054
762 1059
762 1066
762 1073
762 1089
762 1097
762 1109
762 1289
762 1290
762 1311
762 1353
762 1376
762 1558
762 1605
762 1645
762 1654
762 1671
762 1720
762 1761
762 1818
762 1828
762 1866
762 1875
762 1962
762 1967
762 2036
762 2042
762 2185
762 2213
762 2236
763 776
763 783
763 816
763 826
763 869
763 930
763 935
763 953
763 987
763 995
763 1046
763 1070
763 1077
763 1106
763 1133
763 1251
763 1270
763 1280
763 1282
763 1288
763 1308
763 1310
763 1333
763 1393
763 1394
763 1408
763 1467
763 1526
763 1527
763 1562
763 1584
763 1609
763 1630
763 1635
763 1667
763 1782
763 1802
763 1817
763 1888
763 1898
763 1912
763 1930
763 1969
763 2020
763 2038
763 2083
763 2098
763 2124
763 2129
763 2134
763 2145
763 2170
763 2230
764 828
764 834
764 938
764 957
764 984
764 1009
764 1044
764 1100
764 1230
764 1311
764 1322
764 1473
764 1500
764 1589
764 1600
764 1607
764 1613
764 1632
764 1752
764 1965
764 2012
764 2027
764 2117
764 2194
764 2205
765 780
765 783
765 798
765 806
765 826
765 839
765 843
765 869
765 903
765 921
765 924
765 935
765 986
765 1005
765 1019
765 1037
765 1038
765 1071
765 1077
765 1083
765 1086
765 1098
765 1103
765 1124
765 1125
765 1135
765 1136
765 1164
765 1187
765 1222
765 1229
765 1237
765 1239
765 1251
765 1256
765 1266
765 1270
765 1284
765 1286
765 1321
765 1337
765 1365
765 1380
765 1401
765 1402
765 1499
765 1576
765 1584
765 1591
765 1602
765 1603
765 1630
765 1637
765 1638
765 1662
765 1705
765 1741
765 1750
765 1775
765 1791
765 1799
765 1802
765 1806
765 1816
765 1822
765 1832
765 1854
765 1872
765 1895
765 1898
765 1906
765 1963
765 1969
765 2038
765 2083
765 2100
765 2127
765 2139
765 2141
765 2142
765 2145
765 2157
765 2179
765 2181
765 2185
765 2188
765 2200
765 2230
766 854
766 1411
766 1608
766 2172
767 832
767 920
767 924
767 1118
767 1120
767 1121
767 1147
767 1154
767 1173
767 1204
767 1247
767 1249
767 1262
767 1325
767 1358
767 1391
767 1424
767 1463
767 1484
767 1532
767 1607
767 1679
767 1746
767 1771
767 1800
767 1818
767 1820
767 1858
767 1867
767 1878
767 1926
767 1931
767 1939
767 1975
767 1980
767 2008
767 2010
767 2022
767 2036
767 2050
767 2051
767 2063
767 2069
767 2104
767 2110
767 2129
767 2139
767 2148
767 2175
767 2191
767 2232
768 771
768 784
768 824
768 838
768 891
768 918
768 1015
768 1033
768 1115
768 1116
768 1154
768 1227
768 1327
768 1329
768 1345
768 1375
768 1382
768 1389
768 1569
768 1594
768 1637
768 1669
768 1686
768 1688
768 1692
768 1745
768 1759
768 1760
768 1783
768 1792
768 1852
768 1870
768 2025
768 2154
768 2165
768 2216
768 2231
769 776
769 777
769 778
769 783
769 801
769 818
769 825
769 839
769 852
769 865
769 930
769 935
769 979
769 992
769 1005
769 1009
769 1021
769 1077
769 1130
769 1142
769 1174
769 1246
769 1282
769 1288
769 1323
769 1340
769 1351
769 1369
769 1408
769 1419
769 1438
769 1499
769 1544
769 1562
769 1580
769 1584
769 1609
769 1635
769 1673
769 1697
769 1713
769 1723
769 1754
769 1795
769 1802
769 1804
769 1810
769 1812
769 1817
769 1818
769 1836
769 1853
769 1867
769 1878
769 1887
769 1915
769 1924
769 1928
769 1937
769 2006
769 2009
769 2020
769 2042
769 2095
769 2103
769 2116
769 2124
769 2181
769 2235
769 2246
770 878
770 1114
770 1178
770 1534
770 1788
770 1972
771 785
771 811
771 812
771 824
771 838
771 848
771 905
771 919
771 955
771 979
771 992
771 1000
771 1015
771 1018
771 1030
771 1033
771 1060
771 1090
771 1125
771 1137
771 1141
771 1147
771 1173
771 1236
771 1239
771 1293
771 1312
771 1318
771 1322
771 1342
771 1364
771 1365
771 1375
771 1393
771 1395
771 1406
771 1416
771 1441
771 1474
771 1483
771 1492
771 1567
771 1569
771 1594
771 1611
771 1612
771 1616
771 1637
771 1692
771 1721
771 1787
771 1799
771 1800
771 1818
771 1850
771 1852
771 1858
771 1871
771 1880
771 1903
771 1934
771 1942
771 1947
771 1949
771 1959
771 1960
771 1994
771 2008
771 2011
771 2025
771 2043
771 2050
771 2071
771 2091
771 2104
771 2119
771 2127
771 2154
771 2156
771 2160
771 2177
771 2212
771 2231
771 2232
771 2243
771 2246
772 786
772 844
772 877
772 878
772 907
772 916
772 921
772 1115
772 1228
772 1296
772 1325
772 1328
772 1348
772 1359
772 1387
772 1402
772 1490
772 1499
772 1734
772 1799
772 1862
772 1932
772 2070
772 2141
772 2218
773 777
773 797
773 801
773 806
773 811
773 812
773 824
773 835
773 855
773 867
773 872
773 894
773 895
773 898
773 900
773 905
773 918
773 920
773 942
773 954
773 957
773 962
773 965
773 976
773 995
773 1017
773 1019
773 1024
773 1029
773 1033
773 1046
773 1063
773 1075
773 1133
773 1137
773 1154
773 1155
773 1165
773 1180
773 1182
773 1192
773 1195
773 1205
773 1220
773 1227
773 1241
773 1247
773 1280
773 1286
773 1294
773 1307
773 1308
773 1345
773 1352
773 1385
773 1399
773 1437
773 1499
773 1517
773 1540
773 1554
773 1579
773 1600
773 1663
773 1694
773 1711
773 1716
773 1741
773 1754
773 1787
773 1789
773 1799
773 1802
773 1803
773 1817
773 1845
773 1867
773 1878
773 1888
773 1891
773 1903
773 1912
773 1920
773 1931
773 1938
773 1964
773 1975
773 2004
773 2012
773 2018
773 2029
773 2043
773 2048
773 2055
773 2118
773 2165
773 2198
773 2203
773 2206
773 2208
773 2232
773 2241
773 2243
774 837
774 849
774 860
774 884
774 893
774 906
774 974
774 1074
774 1188
774 1287
774 1319
774 1455
774 1470
774 1531
774 1608
774 1833
774 1996
774 2005
774 2149
774 2227
775 950
775 1529
775 1621
775 1821
775 1915
775 2075
776 777
776 778
776 783
776 801
776 825
776 839
776 844
776 847
776 849
776 852
776 861
776 865
776 894
776 924
776 930
776 935
776 940
776 948
776 992
776 1005
776 1009
776 1046
776 1070
776 1077
776 1142
776 1160
776 1174
776 1220
776 1230
776 1240
776 1246
776 1270
776 1276
776 1282
776 1288
776 1301
776 1323
776 1328
776 1340
776 1351
776 1365
776 1369
776 1408
776 1438
776 1459
776 1460
776 1468
776 1541
776 1544
776 1562
776 1580
776 1584
776 1596
776 1609
776 1634
776 1635
776 1647
776 1687
776 1713
776 1723
776 1748
776 1795
776 1801
776 1802
776 1810
776 1812
776 1818
776 1836
776 1837
776 1887
776 1928
776 1932
776 1936
776 1938
776 1948
776 1959
776 1968
776 1995
776 2006
776 2009
776 2020
776 2042
776 2083
776 2095
776 2100
776 2103
776 2104
776 2116
776 2124
776 2141
776 2155
776 2179
776 2181
776 2183
776 2235
776 2246
777 778
777 843
777 905
777 913
777 963
777 970
777 1174
777 1200
777 1258
777 1262
777 1286
777 1292
777 1317
777 1340
777 1368
777 1383
777 1399
777 1404
777 1419
777 1429
777 1459
777 1468
777 1507
777 1616
777 1634
777 1662
777 1665
777 1679
777 1754
777 1782
777 1799
777 1812
777 1817
777 1818
777 1832
777 1854
777 1930
777 2006
777 2020
777 2063
777 2103
777 2153
777 2155
777 2169
777 2181
777 2193
777 2225
777 2246
778 799
778 801
778 845
778 865
778 883
778 905
778 920
778 938
778 947
778 953
778 979
778 982
778 1009
778 1065
778 1075
778 1088
778 1103
778 1130
778 1164
778 1179
778 1220
778 1225
778 1231
778 1241
778 1258
778 1262
778 1266
778 1280
778 1283
778 1292
778 1304
778 1340
778 1365
778 1367
778 1386
778 1408
778 1419
778 1424
778 1429
778 1452
778 1459
778 1468
778 1482
778 1483
778 1486
778 1497
778 1499
778 1658
778 1662
778 1706
778 1713
778 1741
778 1754
778 1755
778 1768
778 1782
778 1788
778 1799
778 1802
778 1812
778 1818
778 1832
778 1836
778 1853
778 1859
778 1878
778 1890
778 1892
778 1903
778 1912
778 1924
778 1930
778 1948
778 1987
778 2006
778 2009
778 2020
778 2051
778 2063
778 2080
778 2091
778 2116
778 2193
778 2197
778 2230
778 2246
778 2248
779 870
779 875
779 912
779 928
779 950
779 958
779 978
779 1034
779 1101
779 1148
779 1252
779 1315
779 1330
779 1362
779 1381
779 1386
779 1423
779 1509
779 1542
779 1553
779 1620
779 1652
779 1672
779 1685
779 1764
779 1784
779 1814
779 1833
779 1841
779 1973
779 2075
779 2226
780 796
780 805
780 806
780 809
780 818
780 826
780 832
780 844
780 847
780 848
780 861
780 865
780 874
780 895
780 918
780 922
780 924
780 937
780 969
780 1011
780 1029
780 1030
780 1033
780 1038
780 1046
780 1062
780 1073
780 1078
780 1089
780 1097
780 1098
780 1109
780 1111
780 1136
780 1142
780 1253
780 1255
780 1266
780 1289
780 1290
780 1298
780 1311
780 1316
780 1322
780 1332
780 1353
780 1354
780 1370
780 1376
780 1393
780 1431
780 1447
780 1460
780 1471
780 1473
780 1492
780 1524
780 1538
780 1554
780 1564
780 1567
780 1603
780 1625
780 1629
780 1630
780 1642
780 1646
780 1654
780 1705
780 1720
780 1730
780 1754
780 1797
780 1802
780 1813
780 1816
780 1822
780 1853
780 1875
780 1894
780 1904
780 1910
780 1916
780 1922
780 1962
780 1992
780 1993
780 1995
780 2037
780 2065
780 2069
780 2100
780 2109
780 2127
780 2142
780 2157
780 2171
780 2185
780 2195
780 2200
780 2206
780 2248
781 1150
781 1297
781 1609
781 1661
781 1793
781 1817
781 2218
781 2228
781 2250
782 815
782 875
782 943
782 978
782 1012
782 1045
782 1050
782 1095
782 1105
782 1148
782 1157
782 1188
782 1190
782 1196
782 1287
782 1330
782 1423
782 1465
782 1529
782 1539
782 1552
782 1573
782 1585
782 1614
782 1620
782 1636
782 1644
782 1668
782 1672
782 1685
782 1687
782 1717
782 1755
782 1821
782 1915
782 2007
782 2105
782 2130
782 2210
782 2247
783 786
783 798
783 801
783 803
783 825
783 835
783 843
783 852
783 865
783 867
783 869
783 883
783 892
783 903
783 907
783 953
783 1005
783 1016
783 1021
783 1024
783 1044
783 1071
783 1077
783 1088
783 1103
783 1124
783 1129
783 1160
783 1164
783 1181
783 1187
783 1215
783 1225
783 1249
783 1262
783 1274
783 1282
783 1288
783 1307
783 1321
783 1323
783 1340
783 1343
783 1348
783 1351
783 1365
783 1374
783 1383
783 1408
783 1413
783 1419
783 1482
783 1497
783 1499
783 1526
783 1544
783 1562
783 1579
783 1580
783 1584
783 1609
783 1630
783 1635
783 1638
783 1645
783 1662
783 1723
783 1782
783 1791
783 1799
783 1801
783 1802
783 1806
783 1810
783 1812
783 1836
783 1840
783 1849
783 1854
783 1862
783 1887
783 1893
783 1895
783 1912
783 1919
783 1924
783 1928
783 1930
783 1931
783 1938
783 1948
783 1963
783 1965
783 1969
783 2006
783 2009
783 2010
783 2038
783 2042
783 2063
783 2070
783 2088
783 2095
783 2098
783 2124
783 2125
783 2129
783 2134
783 2145
783 2153
783 2183
784 786
784 867
784 888
784 924
784 954
784 1241
784 1286
784 1308
784 1380
784 1596
784 1603
784 1637
784 1647
784 1692
784 1726
784 1741
784 1845
784 2025
784 2157
785 795
785 797
785 811
785 812
785 838
785 894
785 897
785 900
785 905
785 924
785 938
785 954
785 977
785 979
785 1000
785 1019
785 1026
785 1030
785 1066
785 1117
785 1154
785 1212
785 1230
785 1241
785 1261
785 1268
785 1311
785 1312
785 1322
785 1332
785 1336
785 1338
785 1342
785 1358
785 1364
785 1370
785 1375
785 1376
785 1382
785 1391
785 1413
785 1424
785 1441
785 1463
785 1469
785 1471
785 1474
785 1486
785 1492
785 1538
785 1554
785 1594
785 1596
785 1658
785 1692
785 1741
785 1746
785 1787
785 1795
785 1818
785 1838
785 1852
785 1858
785 1878
785 1881
785 1975
785 1985
785 1995
785 2018
785 2043
785 2051
785 2077
785 2104
785 2153
785 2158
785 2161
785 2176
785 2177
785 2186
785 2204
785 2231
785 2235
785 2246
786 811
786 828
786 844
786 878
786 888
786 916
786 923
786 1000
786 1021
786 1225
786 1286
786 1322
786 1328
786 1364
786 1369
786 1413
786 1497
786 1498
786 1584
786 1589
786 1596
786 1607
786 1630
786 1692
786 1803
786 1849
786 1874
786 1903
786 1932
786 2075
786 2181
786 2186
786 2234
786 2235
787 816
787 847
787 871
787 913
787 949
787 954
787 979
787 1010
787 1015
787 1044
787 1046
787 1053
787 1066
787 1075
787 1132
787 1146
787 1179
787 1226
787 1235
787 1247
787 1255
787 1270
787 1283
787 1294
787 1309
787 1310
787 1313
787 1314
787 1322
787 1332
787 1335
787 1346
787 1352
787 1370
787 1371
787 1394
787 1414
787 1442
787 1486
787 1506
787 1522
787 1554
787 1577
787 1616
787 1646
787 1653
787 1658
787 1699
787 1783
787 1799
787 1803
787 1818
787 1824
787 1891
787 1955
787 1965
787 1968
787 1988
787 1994
787 2003
787 2018
787 2048
787 2072
787 2076
787 2099
787 2101
787 2108
787 2118
787 2165
787 2174
787 2189
787 2195
787 2206
787 2235
788 818
788 969
788 983
788 1008
788 1011
788 1018
788 1055
788 1066
788 1079
788 1355
788 1430
788 1512
788 1642
788 1659
788 1723
788 1809
788 1847
788 1940
788 1944
788 1995
788 2023
789 860
789 928
789 975
789 1291
789 1539
789 1833
789 1834
789 1841
789 1996
790 898
790 948
790 973
790 988
790 996
790 1036
790 1078
790 1102
790 1126
790 1156
790 1160
790 1226
790 1294
790 1346
790 1390
790 1414
790 1450
790 1490
790 1658
790 1686
790 1773
790 1783
790 1788
790 1835
790 1838
790 1876
790 1950
790 1994
790 2003
790 2031
790 2032
790 2047
790 2049
790 2076
790 2091
790 2101
790 2118
790 2141
790 2179
791 887
791 894
791 957
791 960
791 1053
791 1283
791 1414
791 1432
791 1549
791 1700
791 1739
791 1749
791 1774
791 2012
791 2110
791 2136
791 2161
791 2205
791 2241
792 1582
793 848
793 1045
793 1091
793 1177
793 1263
793 1275
793 1386
793 1539
793 1617
793 1811
793 1833
793 1841
793 1873
793 1921
793 1946
793 1971
793 2014
793 2238
794 799
794 801
794 818
794 846
794 848
794 867
794 880
794 915
794 918
794 935
794 938
794 960
794 1015
794 1046
794 1048
794 1058
794 1084
794 1096
794 1125
794 1134
794 1147
794 1154
794 1169
794 1204
794 1212
794 1227
794 1236
794 1241
794 1261
794 1269
794 1274
794 1276
794 1290
794 1292
794 1312
794 1314
794 1318
794 1376
794 1395
794 1439
794 1474
794 1492
794 1497
794 1517
794 1518
794 1526
794 1541
794 1554
794 1579
794 1640
794 1646
794 1669
794 1720
794 1732
794 1742
794 1743
794 1771
794 1795
794 1816
794 1827
794 1837
794 1865
794 1875
794 1908
794 1911
794 1926
794 1982
794 2012
794 2046
794 2066
794 2071
794 2073
794 2103
794 2104
794 2107
794 2126
794 2153
794 2161
794 2165
794 2174
794 2176
794 2181
794 2195
794 2204
794 2209
794 2246
795 810
795 832
795 841
795 847
795 894
795 922
795 938
795 939
795 942
795 957
795 960
795 1000
795 1013
795 1020
795 1058
795 1066
795 1116
795 1117
795 1125
795 1169
795 1179
795 1212
795 1225
795 1241
795 1261
795 1267
795 1299
795 1311
795 1322
795 1332
795 1335
795 1356
795 1358
795 1377
795 1382
795 1391
795 1392
795 1397
795 1406
795 1413
795 1443
795 1446
795 1460
795 1463
795 1469
795 1473
795 1474
795 1484
795 1485
795 1492
795 1498
795 1510
795 1518
795 1520
795 1554
795 1575
795 1596
795 1613
795 1632
795 1640
795 1646
795 1670
795 1780
795 1818
795 1827
795 1838
795 1866
795 1870
795 1875
795 1881
795 1901
795 1908
795 1979
795 1985
795 2018
795 2043
795 2069
795 2086
795 2089
795 2102
795 2140
795 2144
795 2161
795 2176
795 2177
795 2186
795 2236
796 806
796 812
796 847
796 848
796 889
796 963
796 1054
796 1057
796 1066
796 1138
796 1176
796 1240
796 1260
796 1320
796 1373
796 1384
796 1404
796 1410
796 1467
796 1512
796 1634
796 1664
796 1673
796 1708
796 1723
796 1755
796 1795
796 1797
796 1800
796 1818
796 1837
796 1838
796 1847
796 1848
796 1883
796 2010
796 2023
796 2052
796 2056
796 2069
796 2087
796 2153
796 2165
796 2206
797 868
797 873
797 894
797 900
797 938
797 976
797 1017
797 1019
797 1057
797 1063
797 1117
797 1147
797 1151
797 1154
797 1169
797 1180
797 1220
797 1268
797 1307
797 1327
797 1338
797 1360
797 1370
797 1404
797 1446
797 1461
797 1474
797 1478
797 1538
797 1554
797 1575
797 1600
797 1615
797 1646
797 1716
797 1778
797 1871
797 1964
797 2052
797 2085
797 2099
797 2158
797 2161
797 2188
798 828
798 832
798 852
798 869
798 872
798 877
798 892
798 907
798 951
798 970
798 983
798 990
798 1047
798 1071
798 1088
798 1150
798 1160
798 1164
798 1187
798 1212
798 1231
798 1256
798 1274
798 1279
798 1296
798 1320
798 1358
798 1365
798 1400
798 1468
798 1499
798 1576
798 1704
798 1788
798 1799
798 1818
798 1836
798 1872
798 1887
798 1937
798 1963
798 1969
798 1977
798 2006
798 2032
798 2051
798 2070
798 2080
798 2139
798 2183
798 2200
798 2228
799 865
799 894
799 900
799 938
799 940
799 1020
799 1029
799 1134
799 1293
799 1312
799 1318
799 1340
799 1365
799 1408
799 1416
799 1468
799 1483
799 1492
799 1497
799 1539
799 1554
799 1607
799 1616
799 1640
799 1678
799 1706
799 1713
799 1827
799 1911
799 1931
799 2026
799 2043
799 2104
799 2107
799 2176
799 2209
799 2230
799 2248
800 882
800 954
800 1098
800 1132
800 1286
800 1308
800 1310
800 1406
800 1426
800 1437
800 1554
800 1603
800 1630
800 1663
800 1816
800 1878
800 1903
800 1931
800 1934
800 2157
800 2167
801 825
801 826
801 839
801 844
801 847
801 848
801 850
801 852
801 865
801 892
801 920
801 935
801 940
801 969
801 992
801 1005
801 1009
801 1046
801 1077
801 1142
801 1154
801 1174
801 1246
801 1258
801 1262
801 1270
801 1277
801 1282
801 1288
801 1293
801 1323
801 1328
801 1340
801 1351
801 1364
801 1365
801 1383
801 1408
801 1419
801 1429
801 1459
801 1468
801 1486
801 1499
801 1512
801 1544
801 1562
801 1566
801 1584
801 1605
801 1609
801 1635
801 1638
801 1662
801 1673
801 1700
801 1713
801 1723
801 1732
801 1746
801 1748
801 1802
801 1810
801 1812
801 1818
801 1853
801 1878
801 1880
801 1893
801 1928
801 1948
801 1969
801 1989
801 2006
801 2026
801 2040
801 2042
801 2070
801 2083
801 2095
801 2103
801 2124
801 2153
801 2155
801 2165
801 2169
801 2181
801 2183
801 2203
801 2230
801 2246
802 971
802 998
802 1000
802 1019
802 1225
802 1615
802 1619
802 1649
802 1692
802 1807
802 1852
802 2110
802 2134
803 867
803 872
803 924
803 1019
803 1024
803 1031
803 1066
803 1103
803 1157
803 1187
803 1192
803 1224
803 1266
803 1271
803 1293
803 1317
803 1333
803 1369
803 1419
803 1452
803 1503
803 1553
803 1583
803 1627
803 1630
803 1647
803 1799
803 1803
803 1832
803 1878
803 1912
803 1962
803 1969
803 1975
803 2022
803 2041
803 2062
803 2123
803 2151
803 2235
803 2244
803 2245
804 1023
804 1275
804 1330
804 1386
804 1724
804 1987
804 2017
804 2075
804 2162
804 2210
805 847
805 865
805 1043
805 1176
805 1247
805 1353
805 1452
805 1574
805 1654
805 1875
805 1902
805 1904
805 1962
805 1992
805 2018
805 2065
806 826
806 848
806 859
806 869
806 873
806 883
806 889
806 900
806 905
806 918
806 923
806 924
806 937
806 938
806 947
806 953
806 1006
806 1029
806 1030
806 1038
806 1043
806 1054
806 1062
806 1064
806 1066
806 1073
806 1098
806 1111
806 1119
806 1136
806 1139
806 1143
806 1147
806 1155
806 1176
806 1182
806 1244
806 1255
806 1260
806 1266
806 1269
806 1280
806 1313
806 1334
806 1354
806 1356
806 1374
806 1378
806 1384
806 1421
806 1425
806 1431
806 1436
806 1447
806 1459
806 1460
806 1468
806 1473
806 1486
806 1492
806 1538
806 1554
806 1567
806 1579
806 1591
806 1603
806 1630
806 1643
806 1645
806 1654
806 1656
806 1662
806 1664
806 1706
806 1721
806 1747
806 1754
806 1755
806 1772
806 1787
806 1800
806 1804
806 1813
806 1816
806 1822
806 1859
806 1866
806 1878
806 1881
806 1883
806 1892
806 1898
806 1903
806 1910
806 1912
806 1923
806 1934
806 1948
806 1949
806 1975
806 1995
806 2006
806 2018
806 2037
806 2065
806 2069
806 2085
806 2094
806 2100
806 2127
806 2133
806 2157
806 2162
806 2185
806 2186
806 2190
806 2197
806 2200
806 2206
806 2219
806 2233
807 872
807 953
807 1015
807 1248
807 1792
808 818
808 832
808 844
808 848
808 852
808 871
808 874
808 893
808 925
808 969
808 1026
808 1038
808 1054
808 1059
808 1062
808 1073
808 1079
808 1084
808 1097
808 1111
808 1240
808 1316
808 1334
808 1425
808 1436
808 1444
808 1460
808 1471
808 1538
808 1566
808 1567
808 1605
808 1701
808 1703
808 1718
808 1768
808 1809
808 1902
808 1923
808 1929
808 1977
808 1995
808 2036
808 2042
808 2066
808 2090
808 2100
808 2206
808 2213
808 2233
809 818
809 847
809 922
809 1128
809 1298
809 1316
809 1431
809 1443
809 1634
809 1654
809 1673
809 1730
809 1860
809 1896
809 2206
810 954
810 1000
810 1006
810 1019
810 1033
810 1061
810 1078
810 1132
810 1139
810 1212
810 1285
810 1476
810 1489
810 1578
810 1722
810 1739
810 1744
810 1769
810 1790
810 1794
810 1799
810 1803
810 1850
810 1889
810 1968
810 2047
810 2086
810 2089
810 2110
810 2115
810 2134
811 812
811 813
811 835
811 848
811 867
811 871
811 872
811 897
811 905
811 941
811 954
811 984
811 987
811 995
811 1000
811 1030
811 1035
811 1046
811 1053
811 1075
811 1133
811 1165
811 1205
811 1239
811 1280
811 1318
811 1322
811 1337
811 1342
811 1345
811 1349
811 1352
811 1375
811 1380
811 1393
811 1414
811 1441
811 1447
811 1467
811 1474
811 1488
811 1517
811 1540
811 1569
811 1575
811 1594
811 1612
811 1625
811 1630
811 1640
811 1646
811 1692
811 1694
811 1721
811 1741
811 1792
811 1795
811 1807
811 1824
811 1825
811 1888
811 1891
811 1910
811 1920
811 1931
811 1947
811 1949
811 2008
811 2011
811 2016
811 2025
811 2033
811 2037
811 2043
811 2048
811 2055
811 2092
811 2099
811 2101
811 2118
811 2119
811 2130
811 2134
811 2143
811 2156
811 2165
811 2187
811 2202
811 2203
811 2210
811 2240
811 2243
811 2246
812 831
812 832
812 848
812 874
812 886
812 889
812 905
812 919
812 940
812 969
812 1008
812 1011
812 1018
812 1029
812 1030
812 1055
812 1062
812 1066
812 1084
812 1089
812 1090
812 1107
812 1125
812 1158
812 1176
812 1227
812 1240
812 1244
812 1268
812 1312
812 1318
812 1342
812 1355
812 1375
812 1384
812 1430
812 1436
812 1441
812 1444
812 1458
812 1474
812 1505
812 1506
812 1546
812 1567
812 1569
812 1611
812 1612
812 1665
812 1681
812 1690
812 1692
812 1720
812 1753
812 1755
812 1787
812 1804
812 1809
812 1818
812 1824
812 1837
812 1848
812 1852
812 1858
812 1880
812 1883
812 1886
812 1902
812 1910
812 1934
812 1940
812 1942
812 1947
812 1949
812 1955
812 1959
812 1960
812 1962
812 1992
812 1995
812 2008
812 2010
812 2011
812 2023
812 2037
812 2040
812 2043
812 2050
812 2052
812 2066
812 2069
812 2071
812 2087
812 2091
812 2100
812 2104
812 2109
812 2146
812 2160
812 2190
812 2243
812 2246
813 829
813 834
813 835
813 898
813 1046
813 1133
813 1195
813 1205
813 1222
813 1226
813 1258
813 1274
813 1280
813 1348
813 1358
813 1393
813 1441
813 1510
813 1603
813 1704
813 1721
813 1741
813 1825
813 1866
813 1867
813 1891
813 1908
813 2048
813 2092
813 2103
813 2143
814 817
814 832
814 853
814 886
814 912
814 914
814 950
814 978
814 1027
814 1029
814 1157
814 1194
814 1200
814 1275
814 1287
814 1315
814 1386
814 1411
814 1473
814 1491
814 1542
814 1585
814 1606
814 1608
814 1643
814 1650
814 1668
814 1672
814 1682
814 1687
814 1698
814 1714
814 1717
814 1813
814 1833
814 1868
814 1884
814 1917
814 1930
814 1945
814 1973
814 2005
814 2045
814 2075
814 2078
814 2082
814 2121
814 2135
814 2164
814 2196
815 822
815 840
815 854
815 856
815 875
815 928
815 965
815 972
815 1007
815 1082
815 1091
815 1093
815 1157
815 1163
815 1166
815 1206
815 1315
815 1330
815 1373
815 1381
815 1386
815 1427
815 1477
815 1491
815 1509
815 1529
815 1535
815 1551
815 1582
815 1620
815 1684
815 1685
815 1698
815 1725
815 1784
815 1833
815 1873
815 1907
815 1908
815 1921
815 1973
815 2061
815 2075
815 2178
815 2224
815 2227
815 2244
816 845
816 878
816 985
816 988
816 992
816 996
816 1005
816 1047
816 1099
816 1120
816 1126
816 1167
816 1229
816 1251
816 1359
816 1390
816 1399
816 1400
816 1402
816 1507
816 1559
816 1591
816 1653
816 1688
816 1779
816 1844
816 1938
816 2031
816 2032
816 2083
816 2091
816 2151
817 848
817 853
817 942
817 950
817 975
817 1046
817 1275
817 1305
817 1356
817 1386
817 1477
817 1491
817 1519
817 1553
817 1568
817 1582
817 1682
817 1767
817 1879
817 1883
817 1884
817 1945
817 1973
817 2045
817 2082
817 2152
817 2185
817 2196
818 832
818 844
818 847
818 848
818 852
818 865
818 874
818 880
818 881
818 890
818 913
818 918
818 924
818 969
818 1029
818 1038
818 1046
818 1052
818 1054
818 1059
818 1062
818 1066
818 1073
818 1084
818 1089
818 1097
818 1111
818 1149
818 1176
818 1212
818 1227
818 1240
818 1241
818 1279
818 1289
818 1290
818 1364
818 1370
818 1425
818 1430
818 1431
818 1448
818 1471
818 1473
818 1492
818 1496
818 1499
818 1504
818 1533
818 1538
818 1558
818 1564
818 1566
818 1567
818 1605
818 1622
818 1634
818 1654
818 1656
818 1665
818 1690
818 1701
818 1703
818 1730
818 1751
818 1768
818 1797
818 1809
818 1813
818 1825
818 1828
818 1848
818 1875
818 1877
818 1883
818 1902
818 1916
818 1923
818 1929
818 1947
818 1959
818 1962
818 1977
818 1989
818 1995
818 2036
818 2042
818 2064
818 2066
818 2090
818 2109
818 2118
818 2121
818 2142
818 2153
818 2168
818 2171
818 2190
818 2195
818 2206
818 2213
819 825
819 826
819 847
819 850
819 856
819 862
819 866
819 920
819 969
819 973
819 1029
819 1064
819 1066
819 1068
819 1071
819 1104
819 1119
819 1140
819 1155
819 1182
819 1254
819 1298
819 1355
819 1387
819 1395
819 1425
819 1429
819 1436
819 1483
819 1512
819 1567
819 1593
819 1616
819 1622
819 1625
819 1634
819 1643
819 1690
819 1723
819 1747
819 1772
819 1818
819 1865
819 1898
819 1929
819 1932
819 1947
819 2008
819 2062
819 2065
819 2100
819 2168
819 2190
819 2206
819 2219
819 2233
820 945
820 967
820 996
820 1010
820 1115
820 1228
820 1322
820 1346
820 1369
820 1394
820 1399
820 1400
820 1530
820 1647
820 1727
820 1735
820 1779
820 1783
820 1795
820 1830
820 1836
820 2031
820 2102
820 2188
821 2060
822 854
822 908
822 972
822 1123
822 1153
822 1188
822 1196
822 1319
822 1330
822 1358
822 1757
822 1833
822 1978
822 2054
822 2078
822 2156
822 2244
823 904
823 918
823 941
823 944
823 955
823 960
823 1015
823 1081
823 1138
823 1205
823 1222
823 1284
823 1387
823 1651
823 1762
823 1790
823 1799
823 1932
823 1988
823 2021
823 2031
823 2048
823 2094
823 2101
823 2118
823 2143
824 872
824 905
824 918
824 965
824 976
824 1000
824 1033
824 1133
824 1154
824 1180
824 1227
824 1264
824 1270
824 1329
824 1375
824 1476
824 1493
824 1594
824 1603
824 1611
824 1646
824 1669
824 1743
824 1789
824 1817
824 1852
824 1878
824 1975
824 2025
824 2043
824 2068
824 2165
824 2216
824 2231
824 2235
825 839
825 847
825 852
825 862
825 865
825 874
825 893
825 925
825 930
825 935
825 963
825 979
825 992
825 1005
825 1029
825 1054
825 1060
825 1066
825 1068
825 1077
825 1079
825 1089
825 1097
825 1111
825 1117
825 1119
825 1142
825 1155
825 1158
825 1200
825 1201
825 1246
825 1271
825 1282
825 1288
825 1355
825 1365
825 1373
825 1383
825 1384
825 1388
825 1408
825 1410
825 1419
825 1425
825 1430
825 1456
825 1459
825 1511
825 1512
825 1562
825 1566
825 1567
825 1574
825 1580
825 1584
825 1593
825 1605
825 1609
825 1612
825 1642
825 1643
825 1656
825 1665
825 1690
825 1701
825 1708
825 1720
825 1723
825 1802
825 1809
825 1810
825 1812
825 1824
825 1848
825 1877
825 1899
825 1902
825 1923
825 1932
825 1947
825 1955
825 1977
825 1988
825 1992
825 1995
825 2001
825 2037
825 2040
825 2042
825 2045
825 2095
825 2100
825 2118
825 2141
825 2153
825 2160
825 2169
825 2170
825 2183
825 2190
825 2200
825 2219
825 2230
825 2233
826 828
826 835
826 843
826 869
826 882
826 883
826 907
826 921
826 923
826 924
826 953
826 971
826 973
826 1033
826 1037
826 1038
826 1061
826 1062
826 1075
826 1077
826 1083
826 1086
826 1098
826 1103
826 1124
826 1136
826 1160
826 1169
826 1195
826 1222
826 1225
826 1227
826 1229
826 1236
826 1239
826 1255
826 1258
826 1266
826 1280
826 1282
826 1286
826 1308
826 1310
826 1323
826 1337
826 1344
826 1348
826 1354
826 1393
826 1401
826 1413
826 1440
826 1483
826 1493
826 1526
826 1527
826 1533
826 1562
826 1576
826 1579
826 1591
826 1603
826 1630
826 1638
826 1657
826 1694
826 1697
826 1700
826 1705
826 1711
826 1741
826 1742
826 1773
826 1775
826 1782
826 1788
826 1799
826 1802
826 1804
826 1805
826 1806
826 1812
826 1816
826 1822
826 1825
826 1832
826 1854
826 1890
826 1895
826 1898
826 1910
826 1912
826 1931
826 1948
826 1965
826 1968
826 1969
826 2038
826 2047
826 2085
826 2086
826 2092
826 2096
826 2097
826 2098
826 2100
826 2110
826 2120
826 2127
826 2129
826 2134
826 2141
826 2142
826 2143
826 2157
826 2185
826 2188
826 2193
826 2200
826 2230
826 2234
827 868
827 1046
827 1083
827 1112
827 1212
827 1280
827 1322
827 1397
827 1401
827 1474
827 1485
827 1603
827 1775
827 1920
827 2076
827 2139
828 878
828 880
828 917
828 921
828 938
828 977
828 992
828 1059
828 1129
828 1178
828 1225
828 1230
828 1281
828 1286
828 1298
828 1308
828 1365
828 1369
828 1387
828 1413
828 1440
828 1454
828 1510
828 1545
828 1579
828 1603
828 1654
828 1669
828 1673
828 1792
828 1812
828 1818
828 1840
828 1849
828 1859
828 1862
828 1876
828 1903
828 1928
828 1932
828 2074
828 2091
828 2099
828 2165
828 2230
828 2233
828 2234
829 834
829 988
829 1126
829 1127
829 1167
829 1228
829 1359
829 1510
829 1530
829 1556
829 1596
829 1633
829 1647
829 1662
829 1827
829 1969
829 2107
829 2186
830 923
830 1174
830 1197
830 1247
830 1327
830 1450
830 1476
830 1500
830 1550
830 1613
830 1646
830 1732
830 1746
830 2069
830 2123
830 2205
831 847
831 868
831 873
831 902
831 920
831 1008
831 1011
831 1018
831 1029
831 1040
831 1054
831 1055
831 1057
831 1059
831 1066
831 1094
831 1155
831 1158
831 1176
831 1179
831 1189
831 1194
831 1202
831 1249
831 1253
831 1267
831 1268
831 1277
831 1290
831 1311
831 1327
831 1334
831 1335
831 1353
831 1354
831 1397
831 1414
831 1436
831 1446
831 1461
831 1472
831 1480
831 1483
831 1491
831 1498
831 1506
831 1647
831 1651
831 1659
831 1669
831 1676
831 1695
831 1702
831 1708
831 1718
831 1727
831 1732
831 1765
831 1805
831 1818
831 1838
831 1846
831 1870
831 1875
831 1902
831 1908
831 1917
831 1936
831 1940
831 1995
831 2015
831 2023
831 2028
831 2043
831 2052
831 2065
831 2069
831 2074
831 2119
831 2137
831 2158
831 2174
831 2191
831 2236
831 2249
832 852
832 868
832 874
832 881
832 889
832 890
832 918
832 938
832 969
832 990
832 1020
832 1029
832 1030
832 1038
832 1046
832 1054
832 1057
832 1059
832 1062
832 1066
832 1089
832 1107
832 1111
832 1116
832 1156
832 1176
832 1191
832 1212
832 1240
832 1242
832 1243
832 1272
832 1289
832 1299
832 1322
832 1334
832 1358
832 1373
832 1384
832 1406
832 1421
832 1430
832 1443
832 1460
832 1471
832 1473
832 1488
832 1504
832 1506
832 1510
832 1518
832 1522
832 1605
832 1647
832 1654
832 1656
832 1670
832 1671
832 1690
832 1701
832 1706
832 1721
832 1730
832 1753
832 1794
832 1805
832 1809
832 1818
832 1824
832 1828
832 1837
832 1866
832 1870
832 1901
832 1908
832 1916
832 1923
832 1947
832 1962
832 2001
832 2010
832 2036
832 2042
832 2052
832 2069
832 2072
832 2086
832 2090
832 2121
832 2127
832 2168
832 2202
832 2213
832 2231
832 2236
833 916
833 1134
833 1187
833 1195
833 1200
833 1310
833 1365
833 1493
833 1497
833 1537
833 1741
833 1806
833 1845
833 1931
833 2145
833 2248
834 878
834 911
834 988
834 1035
834 1116
834 1127
834 1167
834 1171
834 1205
834 1228
834 1336
834 1359
834 1434
834 1437
834 1454
834 1530
834 1556
834 1565
834 1596
834 1607
834 1613
834 1633
834 1647
834 1705
834 1735
834 1759
834 1790
834 1849
834 1958
834 1974
834 1985
834 2024
834 2032
834 2035
834 2043
834 2048
834 2055
834 2089
834 2136
834 2156
834 2186
834 2192
835 869
835 872
835 883
835 907
835 918
835 941
835 944
835 953
835 954
835 955
835 987
835 1033
835 1046
835 1075
835 1103
835 1133
835 1165
835 1170
835 1181
835 1187
835 1192
835 1205
835 1227
835 1231
835 1235
835 1241
835 1266
835 1280
835 1300
835 1333
835 1337
835 1344
835 1349
835 1393
835 1404
835 1452
835 1459
835 1476
835 1482
835 1492
835 1507
835 1522
835 1569
835 1575
835 1603
835 1630
835 1711
835 1720
835 1806
835 1825
835 1854
835 1874
835 1891
835 1927
835 1931
835 1948
835 1969
835 2021
835 2043
835 2048
835 2092
835 2101
835 2118
835 2129
835 2142
835 2143
835 2145
835 2198
836 887
836 1213
836 1398
836 1675
836 2032
837 1411
837 1660
837 1839
838 882
838 905
838 947
838 985
838 1033
838 1037
838 1053
838 1136
838 1137
838 1141
838 1226
838 1227
838 1239
838 1312
838 1359
838 1372
838 1375
838 1530
838 1569
838 1594
838 1611
838 1637
838 1692
838 1705
838 1735
838 1742
838 1787
838 1825
838 1852
838 1858
838 1880
838 1994
838 2025
838 2031
838 2035
838 2050
838 2089
838 2097
838 2222
838 2243
839 844
839 865
839 869
839 877
839 880
839 895
839 907
839 913
839 918
839 920
839 929
839 935
839 960
839 979
839 992
839 1009
839 1029
839 1046
839 1071
839 1077
839 1079
839 1124
839 1130
839 1142
839 1154
839 1164
839 1174
839 1205
839 1231
839 1246
839 1258
839 1262
839 1266
839 1270
839 1282
839 1288
839 1292
839 1298
839 1317
839 1321
839 1340
839 1348
839 1351
839 1365
839 1383
839 1394
839 1399
839 1408
839 1419
839 1429
839 1438
839 1443
839 1448
839 1459
839 1468
839 1476
839 1492
839 1499
839 1507
839 1512
839 1562
839 1576
839 1609
839 1638
839 1662
839 1713
839 1723
839 1741
839 1748
839 1768
839 1782
839 1795
839 1799
839 1802
839 1810
839 1812
839 1817
839 1818
839 1820
839 1832
839 1836
839 1840
839 1853
839 1878
839 1893
839 1923
839 1928
839 1930
839 1938
839 1948
839 1963
839 1969
839 1975
839 1990
839 2006
839 2018
839 2020
839 2041
839 2070
839 2088
839 2091
839 2095
839 2099
839 2103
839 2108
839 2124
839 2145
839 2153
839 2155
839 2181
839 2183
839 2193
839 2230
840 928
840 1034
840 1082
840 1101
840 1206
840 1298
840 1341
840 1350
840 1373
840 1427
840 1529
840 1561
840 1737
840 1907
840 1999
840 2057
840 2072
840 2112
840 2196
840 2221
840 2226
841 1069
841 1247
841 1335
841 1716
841 1743
841 1902
841 2148
842 902
842 1033
842 1133
842 1283
842 1783
842 1792
842 1909
842 2089
842 2195
843 845
843 869
843 913
843 948
843 963
843 1067
843 1071
843 1086
843 1158
843 1181
843 1187
843 1237
843 1249
843 1258
843 1262
843 1274
843 1292
843 1323
843 1325
843 1333
843 1340
843 1365
843 1382
843 1408
843 1418
843 1450
843 1452
843 1476
843 1512
843 1526
843 1566
843 1571
843 1576
843 1584
843 1638
843 1662
843 1664
843 1665
843 1679
843 1701
843 1704
843 1768
843 1782
843 1791
843 1801
843 1802
843 1806
843 1812
843 1817
843 1832
843 1853
843 1854
843 1895
843 1919
843 1923
843 1930
843 1931
843 1932
843 2034
843 2038
843 2053
843 2063
843 2074
843 2080
843 2088
843 2129
843 2134
843 2145
843 2153
843 2155
843 2168
843 2169
843 2173
843 2183
843 2193
843 2230
844 847
844 848
844 852
844 865
844 878
844 915
844 916
844 922
844 924
844 951
844 954
844 963
844 969
844 981
844 1029
844 1038
844 1043
844 1062
844 1079
844 1084
844 1097
844 1115
844 1122
844 1130
844 1141
844 1147
844 1158
844 1189
844 1191
844 1208
844 1223
844 1240
844 1241
844 1244
844 1260
844 1279
844 1283
844 1290
844 1298
844 1311
844 1316
844 1320
844 1324
844 1328
844 1334
844 1348
844 1353
844 1354
844 1355
844 1364
844 1370
844 1376
844 1393
844 1425
844 1430
844 1434
844 1436
844 1444
844 1448
844 1456
844 1460
844 1473
844 1483
844 1492
844 1494
844 1497
844 1499
844 1506
844 1512
844 1546
844 1566
844 1567
844 1574
844 1580
844 1581
844 1593
844 1596
844 1622
844 1634
844 1642
844 1643
844 1645
844 1647
844 1654
844 1656
844 1657
844 1679
844 1690
844 1701
844 1703
844 1720
844 1723
844 1730
844 1761
844 1764
844 1767
844 1768
844 1795
844 1797
844 1809
844 1837
844 1847
844 1848
844 1853
844 1875
844 1883
844 1899
844 1901
844 1902
844 1904
844 1917
844 1923
844 1938
844 1947
844 1949
844 1955
844 1959
844 1962
844 1977
844 1983
844 1995
844 2009
844 2026
844 2037
844 2040
844 2042
844 2052
844 2065
844 2066
844 2070
844 2072
844 2100
844 2119
844 2141
844 2168
844 2169
844 2171
844 2190
844 2206
844 2226
844 2230
844 2246
844 2248
845 865
845 869
845 877
845 878
845 907
845 921
845 929
845 990
845 1005
845 1036
845 1124
845 1137
845 1160
845 1164
845 1178
845 1181
845 1231
845 1243
845 1274
845 1365
845 1374
845 1394
845 1408
845 1483
845 1497
845 1571
845 1576
845 1662
845 1706
845 1791
845 1796
845 1801
845 1820
845 1836
845 1850
845 1895
845 1927
845 1937
845 1969
845 1972
845 1983
845 2038
845 2124
845 2230
845 2248
846 915
846 918
846 960
846 1073
846 1096
846 1147
846 1269
846 1312
846 1314
846 1318
846 1349
846 1429
846 1541
846 1616
846 1623
846 1640
846 1700
846 1739
846 1746
846 1771
846 1795
846 1911
846 1962
846 2012
846 2029
846 2043
846 2046
846 2071
846 2073
846 2103
846 2107
846 2153
846 2167
846 2205
846 2209
847 848
847 852
847 865
847 872
847 900
847 902
847 905
847 906
847 912
847 922
847 924
847 969
847 979
847 981
847 982
847 983
847 992
847 993
847 1006
847 1017
847 1029
847 1030
847 1038
847 1061
847 1062
847 1063
847 1066
847 1068
847 1073
847 1079
847 1082
847 1097
847 1103
847 1109
847 1110
847 1125
847 1128
847 1133
847 1158
847 1180
847 1182
847 1189
847 1200
847 1211
847 1212
847 1220
847 1223
847 1227
847 1230
847 1240
847 1244
847 1246
847 1250
847 1253
847 1271
847 1272
847 1273
847 1274
847 1290
847 1293
847 1298
847 1311
847 1316
847 1322
847 1334
847 1342
847 1348
847 1353
847 1356
847 1365
847 1369
847 1388
847 1392
847 1404
847 1408
847 1410
847 1425
847 1430
847 1436
847 1444
847 1447
847 1448
847 1452
847 1456
847 1459
847 1460
847 1473
847 1477
847 1483
847 1492
847 1506
847 1510
847 1512
847 1524
847 1526
847 1546
847 1566
847 1567
847 1574
847 1577
847 1581
847 1593
847 1612
847 1620
847 1627
847 1634
847 1642
847 1643
847 1645
847 1647
847 1652
847 1654
847 1656
847 1659
847 1665
847 1673
847 1679
847 1690
847 1700
847 1701
847 1704
847 1706
847 1711
847 1721
847 1723
847 1730
847 1747
847 1753
847 1754
847 1761
847 1765
847 1768
847 1772
847 1785
847 1787
847 1797
847 1799
847 1802
847 1805
847 1809
847 1818
847 1853
847 1860
847 1866
847 1875
847 1883
847 1896
847 1899
847 1901
847 1902
847 1904
847 1906
847 1916
847 1923
847 1940
847 1947
847 1959
847 1962
847 1977
847 1988
847 1992
847 1995
847 2002
847 2027
847 2034
847 2036
847 2037
847 2040
847 2041
847 2042
847 2043
847 2053
847 2065
847 2069
847 2072
847 2097
847 2100
847 2113
847 2118
847 2119
847 2161
847 2167
847 2168
847 2169
847 2171
847 2190
847 2200
847 2206
847 2233
847 2248
848 852
848 861
848 865
848 874
848 905
848 915
848 922
848 924
848 951
848 969
848 970
848 1000
848 1008
848 1029
848 1030
848 1038
848 1052
848 1062
848 1066
848 1073
848 1079
848 1122
848 1130
848 1141
848 1147
848 1158
848 1173
848 1189
848 1223
848 1240
848 1241
848 1244
848 1260
848 1273
848 1279
848 1283
848 1290
848 1298
848 1299
848 1311
848 1312
848 1320
848 1333
848 1334
848 1342
848 1348
848 1354
848 1355
848 1364
848 1375
848 1393
848 1430
848 1431
848 1434
848 1436
848 1444
848 1448
848 1452
848 1456
848 1460
848 1473
848 1474
848 1492
848 1494
848 1511
848 1512
848 1517
848 1546
848 1566
848 1567
848 1569
848 1574
848 1580
848 1581
848 1593
848 1612
848 1634
848 1642
848 1643
848 1645
848 1647
848 1654
848 1656
848 1657
848 1679
848 1690
848 1692
848 1699
848 1701
848 1703
848 1722
848 1730
848 1761
848 1768
848 1787
848 1795
848 1797
848 1804
848 1805
848 1807
848 1824
848 1837
848 1848
848 1852
848 1853
848 1858
848 1864
848 1875
848 1877
848 1880
848 1883
848 1896
848 1899
848 1901
848 1902
848 1904
848 1916
848 1930
848 1947
848 1949
848 1959
848 1962
848 1995
848 2008
848 2009
848 2036
848 2037
848 2040
848 2065
848 2066
848 2091
848 2099
848 2100
848 2104
848 2116
848 2124
848 2133
848 2168
848 2169
848 2171
848 2186
848 2190
848 2202
848 2206
848 2232
848 2246
848 2248
849 875
849 884
849 1031
849 1034
849 1105
849 1509
849 1539
849 1582
849 1810
849 1833
849 1841
849 1907
849 2075
849 2210
850 1071
850 1195
850 1229
850 1241
850 1387
850 1564
850 1802
850 1975
850 1989
850 2051
850 2181
851 1065
851 1264
851 1755
851 1859
851 2035
851 2132
852 865
852 913
852 951
852 969
852 970
852 983
852 990
852 1029
852 1054
852 1073
852 1079
852 1084
852 1088
852 1097
852 1111
852 1142
852 1164
852 1230
852 1240
852 1256
852 1274
852 1279
852 1288
852 1365
852 1376
852 1408
852 1410
852 1425
852 1460
852 1499
852 1512
852 1538
852 1544
852 1558
852 1562
852 1566
852 1567
852 1576
852 1580
852 1584
852 1589
852 1605
852 1634
852 1642
852 1656
852 1665
852 1673
852 1679
852 1701
852 1703
852 1723
852 1768
852 1802
852 1804
852 1809
852 1810
852 1818
852 1828
852 1840
852 1872
852 1962
852 1969
852 1975
852 1977
852 1985
852 1995
852 2026
852 2036
852 2042
852 2066
852 2075
852 2091
852 2095
852 2100
852 2153
852 2206
853 931
853 938
853 942
853 1045
853 1046
853 1095
853 1125
853 1234
853 1252
853 1275
853 1315
853 1330
853 1356
853 1386
853 1411
853 1502
853 1504
853 1519
853 1682
853 1714
853 1717
853 1818
853 1833
853 1921
853 1945
853 2075
853 2082
853 2185
853 2223
854 884
854 912
854 1012
854 1034
854 1045
854 1074
854 1110
854 1163
854 1252
854 1263
854 1275
854 1315
854 1330
854 1362
854 1381
854 1386
854 1411
854 1481
854 1542
854 1582
854 1608
854 1644
854 1689
854 1717
854 1764
854 1921
854 1971
854 1973
854 2017
854 2075
854 2082
854 2130
854 2152
854 2242
854 2244
855 897
855 938
855 1053
855 1464
855 1745
855 1964
855 2188
855 2191
855 2241
856 928
856 965
856 1007
856 1093
856 1177
856 1362
856 1474
856 1509
856 1535
856 1684
856 1725
856 1808
856 1907
856 1908
856 1936
856 1973
856 1996
856 2178
856 2227
856 2240
857 1283
857 1327
857 1745
857 1783
857 1885
857 2029
857 2216
858 944
858 1300
858 1310
858 1500
858 1506
858 1540
858 1586
858 1867
858 1938
858 2091
858 2147
858 2174
859 873
859 894
859 937
859 1125
859 1180
859 1182
859 1189
859 1260
859 1273
859 1392
859 1425
859 1436
859 1458
859 1488
859 1538
859 1554
859 1720
859 1738
859 1753
859 1772
859 1869
859 1949
859 1974
859 2065
859 2133
859 2190
859 2202
859 2233
860 1373
860 1996
860 2057
860 2180
861 871
861 874
861 881
861 899
861 938
861 969
861 1000
861 1010
861 1026
861 1030
861 1073
861 1079
861 1094
861 1107
861 1147
861 1155
861 1176
861 1197
861 1232
861 1240
861 1242
861 1269
861 1278
861 1322
861 1364
861 1370
861 1376
861 1431
861 1444
861 1501
861 1537
861 1567
861 1570
861 1596
861 1657
861 1671
861 1706
861 1708
861 1732
861 1743
861 1795
861 1797
861 1818
861 1824
861 1837
861 1894
861 1901
861 1925
861 1936
861 1942
861 1955
861 1959
861 1995
861 2001
861 2010
861 2042
861 2043
861 2056
861 2069
861 2087
861 2090
861 2091
861 2160
861 2174
861 2185
861 2186
861 2187
861 2236
862 1068
862 1113
862 1155
862 1373
862 1425
862 1643
862 1720
862 1865
862 1995
862 2001
862 2100
862 2202
862 2219
863 956
863 1058
863 1101
863 1148
863 1350
863 1411
863 1551
863 1563
863 1567
863 1568
863 1620
863 1644
863 1814
863 1986
863 2106
863 2196
864 1692
865 869
865 893
865 913
865 935
865 937
865 938
865 951
865 963
865 969
865 983
865 992
865 1029
865 1062
865 1068
865 1071
865 1074
865 1079
865 1086
865 1097
865 1142
865 1158
865 1182
865 1200
865 1223
865 1240
865 1246
865 1249
865 1270
865 1277
865 1279
865 1282
865 1288
865 1289
865 1290
865 1311
865 1321
865 1334
865 1355
865 1365
865 1408
865 1410
865 1429
865 1430
865 1448
865 1456
865 1458
865 1460
865 1468
865 1473
865 1483
865 1497
865 1512
865 1546
865 1562
865 1566
865 1574
865 1576
865 1580
865 1593
865 1609
865 1617
865 1634
865 1635
865 1638
865 1642
865 1643
865 1645
865 1647
865 1654
865 1656
865 1665
865 1673
865 1678
865 1679
865 1682
865 1690
865 1701
865 1704
865 1706
865 1713
865 1723
865 1730
865 1768
865 1797
865 1802
865 1810
865 1818
865 1832
865 1862
865 1899
865 1901
865 1902
865 1923
865 1928
865 1937
865 1940
865 1941
865 1947
865 1948
865 1972
865 1977
865 1995
865 2006
865 2020
865 2037
865 2038
865 2040
865 2042
865 2064
865 2065
865 2075
865 2088
865 2095
865 2100
865 2168
865 2169
865 2171
865 2173
865 2183
865 2206
865 2230
865 2248
866 902
866 937
866 969
866 1008
866 1029
866 1033
866 1059
866 1078
866 1241
866 1290
866 1355
866 1356
866 1504
866 1564
866 1611
866 1671
866 1706
866 1753
866 1761
866 1781
866 1797
866 1886
866 1893
866 1909
866 2219
867 872
867 888
867 954
867 1000
867 1006
867 1015
867 1035
867 1046
867 1048
867 1133
867 1165
867 1204
867 1212
867 1220
867 1227
867 1241
867 1280
867 1380
867 1401
867 1406
867 1467
867 1475
867 1492
867 1517
867 1578
867 1579
867 1619
867 1637
867 1646
867 1669
867 1694
867 1704
867 1792
867 1827
867 1888
867 1891
867 1926
867 2028
867 2033
867 2120
867 2147
867 2165
867 2182
867 2195
867 2208
868 873
868 894
868 918
868 1008
868 1054
868 1059
868 1089
868 1112
868 1151
868 1154
868 1155
868 1249
868 1268
868 1353
868 1397
868 1401
868 1461
868 1483
868 1506
868 1554
868 1706
868 1720
868 1765
868 1818
868 1910
868 1974
868 2099
868 2197
869 878
869 880
869 882
869 883
869 903
869 907
869 913
869 920
869 921
869 935
869 948
869 951
869 953
869 960
869 963
869 967
869 973
869 983
869 988
869 990
869 992
869 1005
869 1019
869 1067
869 1071
869 1077
869 1081
869 1086
869 1103
869 1133
869 1154
869 1158
869 1160
869 1164
869 1187
869 1222
869 1229
869 1251
869 1256
869 1266
869 1270
869 1279
869 1282
869 1284
869 1296
869 1321
869 1325
869 1340
869 1348
869 1365
869 1369
869 1387
869 1393
869 1394
869 1408
869 1429
869 1499
869 1526
869 1572
869 1576
869 1603
869 1609
869 1630
869 1634
869 1635
869 1638
869 1662
869 1690
869 1705
869 1750
869 1768
869 1782
869 1788
869 1791
869 1799
869 1801
869 1802
869 1806
869 1812
869 1818
869 1832
869 1840
869 1853
869 1854
869 1890
869 1898
869 1912
869 1928
869 1938
869 1963
869 1969
869 2006
869 2020
869 2034
869 2038
869 2040
869 2083
869 2088
869 2124
869 2129
869 2145
869 2157
869 2168
869 2179
869 2183
869 2193
869 2230
870 1082
870 1381
870 1427
870 1553
870 1767
870 2075
870 2135
871 881
871 899
871 937
871 949
871 1018
871 1026
871 1066
871 1094
871 1212
871 1232
871 1242
871 1255
871 1260
871 1278
871 1313
871 1369
871 1370
871 1376
871 1431
871 1445
871 1483
871 1501
871 1564
871 1570
871 1593
871 1610
871 1622
871 1625
871 1657
871 1671
871 1708
871 1726
871 1756
871 1809
871 1813
871 1814
871 1824
871 1828
871 1858
871 1894
871 1909
871 1916
871 1922
871 1936
871 1942
871 1949
871 1958
871 1959
871 1985
871 2003
871 2009
871 2023
871 2037
871 2069
871 2118
871 2119
871 2160
871 2171
871 2187
871 2195
871 2202
871 2236
872 887
872 922
872 953
872 960
872 962
872 976
872 982
872 1006
872 1015
872 1035
872 1046
872 1056
872 1133
872 1165
872 1169
872 1192
872 1213
872 1220
872 1223
872 1235
872 1238
872 1245
872 1247
872 1265
872 1274
872 1325
872 1419
872 1421
872 1425
872 1493
872 1499
872 1503
872 1540
872 1554
872 1569
872 1578
872 1579
872 1613
872 1653
872 1669
872 1694
872 1695
872 1700
872 1704
872 1759
872 1792
872 1818
872 1827
872 1845
872 1849
872 1855
872 1867
872 1878
872 1904
872 1920
872 1931
872 1966
872 1974
872 1975
872 1994
872 2008
872 2055
872 2070
872 2077
872 2099
872 2110
872 2136
872 2142
872 2143
872 2156
872 2165
872 2167
872 2194
872 2205
872 2206
872 2208
872 2243
873 894
873 900
873 919
873 924
873 976
873 1004
873 1006
873 1009
873 1017
873 1020
873 1029
873 1046
873 1058
873 1075
873 1076
873 1089
873 1100
873 1118
873 1121
873 1151
873 1154
873 1173
873 1179
873 1212
873 1220
873 1233
873 1277
873 1283
873 1312
873 1321
873 1322
873 1335
873 1340
873 1346
873 1352
873 1353
873 1355
873 1356
873 1358
873 1364
873 1369
873 1385
873 1393
873 1408
873 1420
873 1441
873 1443
873 1454
873 1459
873 1472
873 1480
873 1488
873 1498
873 1507
873 1514
873 1518
873 1538
873 1554
873 1639
873 1649
873 1669
873 1716
873 1720
873 1726
873 1736
873 1738
873 1744
873 1749
873 1774
873 1783
873 1792
873 1807
873 1814
873 1818
873 1855
873 1862
873 1870
873 1871
873 1908
873 1910
873 1934
873 1948
873 1964
873 1974
873 2008
873 2010
873 2016
873 2028
873 2029
873 2043
873 2050
873 2091
873 2099
873 2118
873 2119
873 2126
873 2136
873 2148
873 2161
873 2175
873 2231
873 2232
874 881
874 890
874 899
874 969
874 1029
874 1038
874 1054
874 1062
874 1073
874 1084
874 1089
874 1111
874 1158
874 1240
874 1279
874 1290
874 1322
874 1342
874 1471
874 1474
874 1483
874 1488
874 1501
874 1511
874 1538
874 1567
874 1593
874 1656
874 1659
874 1671
874 1708
874 1718
874 1720
874 1730
874 1768
874 1809
874 1818
874 1824
874 1828
874 1848
874 1916
874 1917
874 1925
874 2010
874 2042
874 2064
874 2066
874 2069
874 2090
874 2109
874 2187
874 2197
874 2236
875 884
875 894
875 912
875 928
875 950
875 974
875 978
875 1012
875 1031
875 1034
875 1050
875 1082
875 1095
875 1101
875 1105
875 1148
875 1162
875 1166
875 1188
875 1190
875 1196
875 1220
875 1315
875 1373
875 1423
875 1491
875 1509
875 1531
875 1538
875 1539
875 1551
875 1552
875 1553
875 1595
875 1602
875 1614
875 1620
875 1621
875 1644
875 1648
875 1652
875 1668
875 1690
875 1698
875 1717
875 1778
875 1784
875 1821
875 1873
875 1884
875 1907
875 1915
875 1921
875 1973
875 2045
875 2059
875 2075
875 2105
875 2112
875 2164
875 2210
875 2227
875 2238
875 2244
876 1346
877 907
877 929
877 935
877 990
877 1071
877 1164
877 1231
877 1351
877 1387
877 1499
877 1609
877 1638
877 1788
877 1790
877 1802
877 1830
877 1836
877 1937
877 1969
877 2006
877 2012
877 2020
877 2062
877 2070
878 916
878 917
878 921
878 945
878 948
878 967
878 988
878 1005
878 1047
878 1067
878 1081
878 1086
878 1115
878 1126
878 1129
878 1160
878 1167
878 1171
878 1178
878 1228
878 1296
878 1348
878 1359
878 1400
878 1402
878 1429
878 1490
878 1556
878 1559
878 1572
878 1576
878 1647
878 1768
878 1779
878 1791
878 1801
878 1862
878 1906
878 1919
878 1927
878 1932
878 1937
878 1938
878 1972
878 2032
878 2049
878 2183
878 2228
879 2043
880 886
880 911
880 923
880 924
880 935
880 938
880 961
880 963
880 969
880 979
880 984
880 992
880 1000
880 1009
880 1044
880 1056
880 1100
880 1103
880 1104
880 1111
880 1119
880 1125
880 1130
880 1169
880 1174
880 1220
880 1230
880 1236
880 1249
880 1258
880 1277
880 1282
880 1292
880 1312
880 1332
880 1346
880 1365
880 1369
880 1378
880 1395
880 1397
880 1409
880 1420
880 1421
880 1439
880 1442
880 1459
880 1463
880 1468
880 1470
880 1473
880 1486
880 1491
880 1499
880 1507
880 1533
880 1545
880 1558
880 1566
880 1585
880 1589
880 1607
880 1616
880 1618
880 1628
880 1632
880 1643
880 1688
880 1713
880 1740
880 1759
880 1763
880 1768
880 1782
880 1796
880 1799
880 1802
880 1813
880 1817
880 1818
880 1820
880 1838
880 1853
880 1863
880 1876
880 1928
880 1930
880 1934
880 1948
880 1963
880 1965
880 1982
880 2009
880 2012
880 2043
880 2070
880 2091
880 2097
880 2104
880 2121
880 2181
880 2193
880 2194
880 2213
880 2232
880 2235
880 2246
881 899
881 938
881 1029
881 1267
881 1278
881 1376
881 1431
881 1445
881 1492
881 1501
881 1506
881 1671
881 1746
881 1818
881 1824
881 1883
881 1894
881 1925
881 2010
881 2043
881 2187
881 2249
882 942
882 953
882 954
882 1033
882 1130
882 1141
882 1195
882 1226
882 1227
882 1308
882 1322
882 1467
882 1474
882 1493
882 1526
882 1603
882 1630
882 1697
882 1743
882 1745
882 1799
882 1803
882 1898
882 2026
882 2098
882 2120
882 2134
882 2174
883 937
883 947
883 953
883 1009
883 1029
883 1046
883 1061
883 1065
883 1075
883 1094
883 1103
883 1280
883 1322
883 1337
883 1367
883 1369
883 1384
883 1424
883 1429
883 1431
883 1470
883 1511
883 1560
883 1579
883 1643
883 1645
883 1667
883 1755
883 1782
883 1788
883 1802
883 1803
883 1825
883 1832
883 1859
883 1890
883 1892
883 1903
883 1912
883 1930
883 1948
883 1968
883 1969
883 1987
883 2038
883 2043
883 2055
883 2080
883 2085
883 2118
883 2162
883 2177
883 2193
883 2197
884 912
884 974
884 1105
884 1157
884 1163
884 1455
884 1470
884 1481
884 1531
884 1602
884 1751
884 1764
884 2059
884 2061
884 2149
884 2164
884 2227
885 1331
886 889
886 910
886 920
886 923
886 961
886 984
886 1009
886 1028
886 1029
886 1051
886 1056
886 1066
886 1068
886 1073
886 1100
886 1104
886 1107
886 1119
886 1155
886 1176
886 1230
886 1236
886 1267
886 1320
886 1339
886 1369
886 1378
886 1386
886 1409
886 1421
886 1461
886 1473
886 1491
886 1506
886 1533
886 1603
886 1643
886 1688
886 1755
886 1796
886 1813
886 1818
886 1837
886 1855
886 1863
886 1866
886 1917
886 1930
886 1962
886 1982
886 2052
886 2081
886 2087
886 2121
886 2140
886 2148
886 2202
887 904
887 923
887 942
887 1004
887 1033
887 1035
887 1053
887 1065
887 1080
887 1081
887 1165
887 1193
887 1245
887 1294
887 1304
887 1327
887 1335
887 1338
887 1367
887 1389
887 1398
887 1454
887 1458
887 1474
887 1550
887 1579
887 1590
887 1594
887 1600
887 1604
887 1613
887 1649
887 1653
887 1670
887 1688
887 1694
887 1744
887 1788
887 1826
887 1862
887 1876
887 1889
887 1903
887 1910
887 1914
887 1935
887 1966
887 1993
887 2012
887 2029
887 2089
887 2099
887 2110
887 2132
887 2136
887 2186
887 2188
887 2241
888 945
888 1241
888 1286
888 1329
888 1380
888 1426
888 1441
888 1594
888 1603
888 1637
888 1663
888 1692
888 1741
888 1787
888 1845
888 1850
888 2025
888 2098
889 1008
889 1011
889 1029
889 1054
889 1055
889 1059
889 1066
889 1107
889 1155
889 1176
889 1212
889 1267
889 1268
889 1332
889 1355
889 1384
889 1421
889 1431
889 1461
889 1483
889 1488
889 1506
889 1681
889 1700
889 1702
889 1721
889 1755
889 1765
889 1809
889 1818
889 1837
889 1847
889 1855
889 1883
889 1886
889 1896
889 1911
889 1934
889 1940
889 1962
889 1992
889 2010
889 2011
889 2023
889 2043
889 2052
889 2056
889 2086
889 2087
889 2146
889 2168
889 2171
889 2197
889 2202
889 2233
890 900
890 917
890 920
890 934
890 937
890 947
890 953
890 969
890 1009
890 1029
890 1030
890 1054
890 1062
890 1065
890 1073
890 1075
890 1084
890 1089
890 1094
890 1103
890 1109
890 1111
890 1236
890 1240
890 1245
890 1278
890 1355
890 1367
890 1384
890 1431
890 1460
890 1470
890 1483
890 1488
890 1511
890 1558
890 1567
890 1579
890 1593
890 1598
890 1605
890 1647
890 1679
890 1706
890 1753
890 1755
890 1760
890 1763
890 1768
890 1799
890 1809
890 1828
890 1841
890 1847
890 1859
890 1883
890 1892
890 1903
890 1921
890 1936
890 1940
890 1948
890 1987
890 2008
890 2014
890 2023
890 2036
890 2042
890 2080
890 2091
890 2162
890 2168
890 2180
890 2196
890 2197
890 2213
890 2222
890 2224
891 920
891 1236
891 1346
891 1746
891 1760
891 1799
892 907
892 969
892 979
892 1005
892 1071
892 1100
892 1106
892 1122
892 1160
892 1164
892 1181
892 1187
892 1218
892 1231
892 1262
892 1340
892 1343
892 1351
892 1365
892 1394
892 1413
892 1419
892 1428
892 1438
892 1452
892 1459
892 1510
892 1626
892 1704
892 1806
892 1853
892 1895
892 1969
892 2006
892 2020
892 2041
892 2096
892 2125
892 2170
892 2183
893 951
893 963
893 969
893 1029
893 1054
893 1062
893 1066
893 1079
893 1142
893 1152
893 1195
893 1223
893 1229
893 1240
893 1241
893 1251
893 1288
893 1289
893 1354
893 1369
893 1394
893 1410
893 1430
893 1448
893 1460
893 1483
893 1512
893 1524
893 1566
893 1602
893 1642
893 1643
893 1679
893 1695
893 1701
893 1723
893 1768
893 1773
893 1802
893 1809
893 1817
893 1818
893 1866
893 1902
893 1923
893 1934
893 1959
893 1969
893 1995
893 2036
893 2042
893 2083
893 2100
893 2151
893 2169
893 2206
893 2248
894 900
894 923
894 924
894 935
894 938
894 940
894 942
894 957
894 965
894 976
894 979
894 1006
894 1017
894 1019
894 1020
894 1033
894 1043
894 1063
894 1100
894 1111
894 1117
894 1151
894 1180
894 1212
894 1220
894 1227
894 1233
894 1238
894 1247
894 1260
894 1268
894 1276
894 1322
894 1332
894 1338
894 1358
894 1364
894 1365
894 1377
894 1385
894 1474
894 1478
894 1480
894 1488
894 1492
894 1498
894 1538
894 1554
894 1575
894 1610
894 1613
894 1620
894 1632
894 1658
894 1765
894 1775
894 1816
894 1818
894 1827
894 1870
894 1871
894 1964
894 1974
894 1985
894 1994
894 2006
894 2008
894 2029
894 2043
894 2051
894 2099
894 2108
894 2127
894 2157
894 2158
894 2161
894 2176
894 2188
894 2235
894 2236
894 2246
895 903
895 915
895 918
895 924
895 935
895 992
895 1006
895 1046
895 1062
895 1086
895 1119
895 1129
895 1154
895 1179
895 1241
895 1244
895 1246
895 1253
895 1265
895 1269
895 1283
895 1301
895 1314
895 1370
895 1386
895 1393
895 1399
895 1413
895 1421
895 1440
895 1443
895 1459
895 1468
895 1483
895 1499
895 1507
895 1512
895 1538
895 1596
895 1607
895 1629
895 1630
895 1647
895 1651
895 1653
895 1659
895 1665
895 1673
895 1706
895 1741
895 1748
895 1753
895 1759
895 1771
895 1773
895 1779
895 1795
895 1817
895 1818
895 1827
895 1837
895 1849
895 1878
895 1923
895 1938
895 1955
895 1966
895 1974
895 1982
895 1989
895 2006
895 2018
895 2032
895 2051
895 2072
895 2085
895 2100
895 2107
895 2110
895 2139
895 2153
895 2165
895 2194
895 2231
895 2246
896 1015
896 1067
896 1081
896 1130
896 1152
896 1276
896 1394
896 1438
896 1739
896 1759
896 1799
896 1801
896 1822
896 1853
896 1889
896 1938
896 2046
896 2047
896 2115
896 2116
897 947
897 987
897 1000
897 1010
897 1015
897 1043
897 1102
897 1132
897 1136
897 1143
897 1154
897 1176
897 1222
897 1235
897 1239
897 1246
897 1264
897 1283
897 1300
897 1322
897 1335
897 1336
897 1352
897 1372
897 1375
897 1414
897 1472
897 1516
897 1564
897 1569
897 1658
897 1692
897 1705
897 1794
897 1795
897 1850
897 1910
897 1926
897 1947
897 1953
897 2035
897 2089
897 2118
897 2134
897 2153
897 2188
897 2189
897 2195
898 927
898 981
898 994
898 1010
898 1019
898 1033
898 1048
898 1063
898 1078
898 1102
898 1207
898 1222
898 1226
898 1274
898 1329
898 1346
898 1369
898 1389
898 1442
898 1474
898 1489
898 1492
898 1564
898 1670
898 1704
898 1770
898 1799
898 1842
898 1885
898 1893
898 2165
898 2189
899 934
899 937
899 938
899 1026
899 1057
899 1202
899 1232
899 1242
899 1255
899 1260
899 1278
899 1369
899 1370
899 1376
899 1431
899 1445
899 1452
899 1471
899 1501
899 1570
899 1657
899 1671
899 1695
899 1706
899 1708
899 1718
899 1824
899 1894
899 1916
899 1925
899 1936
899 1942
899 2001
899 2009
899 2069
899 2090
899 2110
899 2160
899 2185
899 2187
899 2202
899 2236
900 924
900 940
900 965
900 976
900 981
900 1000
900 1006
900 1017
900 1020
900 1029
900 1117
900 1147
900 1154
900 1173
900 1180
900 1212
900 1235
900 1274
900 1298
900 1311
900 1370
900 1377
900 1441
900 1460
900 1463
900 1474
900 1480
900 1489
900 1492
900 1554
900 1616
900 1640
900 1654
900 1704
900 1716
900 1753
900 1789
900 1818
900 1827
900 1838
900 1878
900 1885
900 1929
900 1962
900 1985
900 2074
900 2104
900 2156
900 2165
900 2176
900 2191
900 2200
900 2206
900 2231
900 2232
900 2235
901 966
901 1029
901 1139
901 1340
901 1626
901 1709
901 2032
901 2115
902 937
902 1008
902 1011
902 1018
902 1029
902 1033
902 1055
902 1059
902 1066
902 1073
902 1078
902 1084
902 1089
902 1111
902 1257
902 1268
902 1305
902 1307
902 1309
902 1474
902 1483
902 1564
902 1596
902 1656
902 1657
902 1702
902 1708
902 1761
902 1765
902 1805
902 1809
902 1846
902 1875
902 1909
902 1920
902 1940
902 1993
902 2017
902 2023
902 2052
902 2059
902 2066
902 2069
902 2119
902 2146
902 2171
902 2236
903 966
903 1086
903 1103
903 1133
903 1140
903 1154
903 1192
903 1251
903 1253
903 1284
903 1288
903 1322
903 1348
903 1393
903 1497
903 1576
903 1578
903 1582
903 1584
903 1596
903 1638
903 1795
903 1799
903 1837
903 1974
903 1977
903 2044
903 2211
904 942
904 947
904 955
904 957
904 1005
904 1015
904 1283
904 1294
904 1327
904 1338
904 1414
904 1432
904 1454
904 1472
904 1500
904 1549
904 1550
904 1569
904 1590
904 1651
904 1700
904 1739
904 1744
904 1796
904 1892
904 1914
904 1932
904 1966
904 2189
905 918
905 924
905 951
905 1000
905 1010
905 1029
905 1030
905 1044
905 1103
905 1112
905 1116
905 1137
905 1151
905 1154
905 1174
905 1189
905 1200
905 1226
905 1227
905 1239
905 1249
905 1270
905 1285
905 1307
905 1308
905 1310
905 1312
905 1317
905 1318
905 1329
905 1340
905 1342
905 1375
905 1382
905 1393
905 1399
905 1408
905 1413
905 1420
905 1429
905 1436
905 1441
905 1459
905 1474
905 1507
905 1526
905 1567
905 1569
905 1584
905 1588
905 1594
905 1611
905 1639
905 1651
905 1658
905 1692
905 1704
905 1739
905 1741
905 1754
905 1755
905 1768
905 1787
905 1795
905 1799
905 1817
905 1818
905 1852
905 1878
905 1880
905 1889
905 1902
905 1934
905 1947
905 1949
905 1974
905 1975
905 2008
905 2020
905 2050
905 2051
905 2085
905 2103
905 2104
905 2108
905 2134
905 2153
905 2175
905 2181
905 2190
905 2197
905 2204
905 2231
905 2233
905 2246
906 919
906 924
906 969
906 1008
906 1021
906 1029
906 1030
906 1054
906 1059
906 1111
906 1158
906 1230
906 1267
906 1290
906 1298
906 1311
906 1334
906 1372
906 1384
906 1431
906 1444
906 1447
906 1458
906 1470
906 1483
906 1488
906 1538
906 1593
906 1616
906 1654
906 1673
906 1681
906 1690
906 1695
906 1706
906 1709
906 1721
906 1753
906 1755
906 1756
906 1805
906 1809
906 1818
906 1837
906 1877
906 1883
906 1911
906 1947
906 1949
906 1962
906 2008
906 2036
906 2040
906 2043
906 2087
906 2091
906 2095
906 2146
906 2149
906 2197
906 2206
906 2232
907 916
907 929
907 948
907 963
907 990
907 1005
907 1047
907 1115
907 1150
907 1160
907 1164
907 1181
907 1187
907 1231
907 1237
907 1256
907 1264
907 1282
907 1296
907 1328
907 1340
907 1351
907 1374
907 1383
907 1408
907 1419
907 1468
907 1499
907 1576
907 1661
907 1662
907 1783
907 1788
907 1790
907 1791
907 1794
907 1799
907 1806
907 1836
907 1840
907 1854
907 1872
907 1919
907 1927
907 1928
907 1932
907 1937
907 1948
907 2006
907 2042
907 2088
907 2145
907 2153
907 2179
907 2183
907 2228
907 2230
908 914
908 972
908 1027
908 1163
908 1196
908 1260
908 1275
908 1455
908 1491
908 1807
908 2078
908 2223
909 932
909 1108
909 1598
909 1783
909 1951
909 2140
910 920
910 961
910 1009
910 1056
910 1100
910 1104
910 1168
910 1230
910 1236
910 1277
910 1378
910 1421
910 1473
910 1493
910 1505
910 1533
910 1618
910 1713
910 1732
910 1813
910 1818
910 1981
910 1990
910 2081
910 2121
910 2193
911 923
911 938
911 984
911 1006
911 1009
911 1028
911 1044
911 1051
911 1100
911 1119
911 1168
911 1205
911 1230
911 1236
911 1277
911 1283
911 1304
911 1335
911 1378
911 1393
911 1397
911 1409
911 1421
911 1432
911 1434
911 1450
911 1466
911 1473
911 1530
911 1628
911 1813
911 1818
911 1835
911 1855
911 1974
911 1982
911 1994
911 2012
911 2091
912 928
912 939
912 950
912 959
912 978
912 1031
912 1045
912 1148
912 1170
912 1190
912 1200
912 1275
912 1282
912 1291
912 1306
912 1315
912 1326
912 1330
912 1333
912 1341
912 1366
912 1379
912 1381
912 1386
912 1423
912 1427
912 1448
912 1479
912 1551
912 1553
912 1582
912 1583
912 1595
912 1602
912 1620
912 1652
912 1668
912 1672
912 1676
912 1677
912 1683
912 1685
912 1737
912 1753
912 1784
912 1821
912 1884
912 1915
912 1923
912 1928
912 1945
912 1973
912 2075
912 2078
912 2082
912 2135
912 2164
912 2184
912 2207
912 2217
912 2224
913 935
913 941
913 951
913 979
913 983
913 992
913 1071
913 1130
913 1258
913 1262
913 1269
913 1279
913 1292
913 1321
913 1325
913 1340
913 1365
913 1374
913 1393
913 1408
913 1429
913 1459
913 1468
913 1499
913 1576
913 1634
913 1638
913 1656
913 1662
913 1664
913 1679
913 1722
913 1741
913 1750
913 1768
913 1795
913 1799
913 1802
913 1818
913 1853
913 1881
913 1928
913 1932
913 1938
913 1948
913 1963
913 1969
913 1988
913 2006
913 2020
913 2063
913 2104
913 2107
913 2153
913 2168
913 2183
913 2230
914 1027
914 1104
914 1194
914 1198
914 1411
914 1491
914 1533
914 1542
914 1585
914 1650
914 1672
914 2078
915 924
915 940
915 977
915 987
915 1040
915 1046
915 1064
915 1066
915 1125
915 1141
915 1168
915 1173
915 1176
915 1208
915 1212
915 1226
915 1244
915 1246
915 1251
915 1269
915 1276
915 1316
915 1322
915 1348
915 1364
915 1484
915 1492
915 1527
915 1596
915 1616
915 1625
915 1646
915 1647
915 1695
915 1731
915 1771
915 1774
915 1800
915 1807
915 1818
915 1858
915 1929
915 1959
915 1989
915 2010
915 2018
915 2022
915 2028
915 2037
915 2046
915 2083
915 2104
915 2107
915 2139
915 2167
915 2189
915 2195
915 2231
915 2235
915 2245
916 945
916 1021
916 1115
916 1160
916 1228
916 1296
916 1328
916 1348
916 1359
916 1365
916 1408
916 1468
916 1490
916 1493
916 1497
916 1862
916 1932
916 2107
916 2141
916 2230
917 947
917 977
917 1129
917 1131
917 1137
917 1178
917 1298
917 1304
917 1384
917 1467
917 1572
917 1654
917 1673
917 1849
917 1859
917 1892
917 1949
917 1987
917 2118
917 2162
917 2191
917 2233
917 2248
918 924
918 941
918 944
918 960
918 1006
918 1009
918 1015
918 1046
918 1058
918 1179
918 1180
918 1222
918 1246
918 1247
918 1253
918 1261
918 1269
918 1273
918 1276
918 1301
918 1353
918 1370
918 1371
918 1378
918 1393
918 1406
918 1425
918 1474
918 1510
918 1541
918 1554
918 1596
918 1619
918 1647
918 1651
918 1688
918 1741
918 1771
918 1795
918 1796
918 1803
918 1818
918 1822
918 1827
918 1838
918 1855
918 1878
918 1920
918 1938
918 1959
918 1974
918 1989
918 1994
918 2006
918 2018
918 2032
918 2046
918 2048
918 2068
918 2073
918 2090
918 2097
918 2107
918 2108
918 2129
918 2143
918 2153
918 2177
918 2206
918 2231
919 937
919 940
919 1008
919 1011
919 1029
919 1064
919 1132
919 1133
919 1137
919 1158
919 1173
919 1182
919 1189
919 1195
919 1230
919 1240
919 1241
919 1253
919 1260
919 1290
919 1354
919 1414
919 1426
919 1436
919 1444
919 1447
919 1470
919 1476
919 1483
919 1515
919 1524
919 1593
919 1612
919 1625
919 1640
919 1692
919 1695
919 1706
919 1709
919 1711
919 1715
919 1721
919 1753
919 1755
919 1763
919 1785
919 1787
919 1809
919 1865
919 1866
919 1883
919 1888
919 1911
919 1927
919 1929
919 1947
919 1959
919 1977
919 2033
919 2065
919 2095
919 2098
919 2103
919 2110
919 2115
919 2120
919 2146
919 2168
919 2189
919 2232
919 2233
920 923
920 924
920 934
920 938
920 947
920 953
920 957
920 961
920 984
920 1009
920 1019
920 1029
920 1053
920 1056
920 1059
920 1065
920 1071
920 1094
920 1100
920 1103
920 1109
920 1117
920 1119
920 1154
920 1195
920 1230
920 1232
920 1236
920 1241
920 1247
920 1253
920 1277
920 1280
920 1304
920 1322
920 1369
920 1378
920 1384
920 1385
920 1387
920 1391
920 1409
920 1421
920 1424
920 1429
920 1431
920 1434
920 1450
920 1453
920 1470
920 1474
920 1484
920 1485
920 1493
920 1511
920 1520
920 1532
920 1589
920 1607
920 1613
920 1628
920 1632
920 1641
920 1643
920 1651
920 1688
920 1709
920 1732
920 1739
920 1755
920 1760
920 1768
920 1771
920 1788
920 1796
920 1803
920 1813
920 1818
920 1838
920 1859
920 1863
920 1876
920 1890
920 1892
920 1903
920 1911
920 1932
920 1939
920 1987
920 1994
920 2012
920 2026
920 2043
920 2052
920 2076
920 2080
920 2081
920 2108
920 2117
920 2148
920 2153
920 2154
920 2176
920 2177
920 2197
920 2222
921 1071
921 1284
921 1387
921 1408
921 1497
921 1638
921 1802
921 1898
921 1906
921 2230
922 938
922 969
922 1008
922 1029
922 1040
922 1066
922 1107
922 1109
922 1135
922 1191
922 1244
922 1289
922 1298
922 1316
922 1334
922 1355
922 1378
922 1425
922 1434
922 1444
922 1460
922 1554
922 1577
922 1634
922 1654
922 1730
922 1761
922 1763
922 1813
922 1818
922 1849
922 1866
922 1871
922 1875
922 1883
922 1901
922 1902
922 1904
922 1962
922 2008
922 2037
922 2043
922 2051
922 2137
922 2202
922 2206
922 2226
922 2248
923 938
923 941
923 961
923 971
923 980
923 984
923 987
923 988
923 990
923 996
923 1006
923 1009
923 1024
923 1028
923 1033
923 1049
923 1056
923 1058
923 1059
923 1080
923 1099
923 1100
923 1104
923 1117
923 1119
923 1120
923 1129
923 1134
923 1159
923 1171
923 1193
923 1222
923 1225
923 1227
923 1230
923 1232
923 1236
923 1238
923 1241
923 1277
923 1335
923 1349
923 1361
923 1372
923 1378
923 1385
923 1389
923 1390
923 1400
923 1409
923 1421
923 1431
923 1434
923 1442
923 1450
923 1454
923 1473
923 1486
923 1487
923 1507
923 1508
923 1516
923 1545
923 1549
923 1560
923 1565
923 1569
923 1589
923 1594
923 1600
923 1605
923 1607
923 1613
923 1624
923 1628
923 1641
923 1646
923 1653
923 1669
923 1678
923 1732
923 1749
923 1756
923 1759
923 1774
923 1775
923 1782
923 1783
923 1788
923 1796
923 1813
923 1835
923 1846
923 1855
923 1863
923 1876
923 1878
923 1881
923 1905
923 1910
923 1917
923 1962
923 1965
923 1966
923 1982
923 1990
923 1994
923 2006
923 2009
923 2012
923 2031
923 2032
923 2043
923 2049
923 2069
923 2081
923 2087
923 2089
923 2091
923 2097
923 2107
923 2108
923 2110
923 2117
923 2118
923 2120
923 2129
923 2136
923 2137
923 2147
923 2148
923 2161
923 2170
923 2188
923 2189
923 2216
923 2241
924 935
924 938
924 940
924 992
924 994
924 1020
924 1029
924 1038
924 1043
924 1062
924 1063
924 1066
924 1097
924 1098
924 1103
924 1118
924 1121
924 1125
924 1128
924 1136
924 1137
924 1142
924 1147
924 1173
924 1174
924 1176
924 1204
924 1226
924 1230
924 1244
924 1246
924 1253
924 1255
924 1258
924 1261
924 1266
924 1276
924 1289
924 1309
924 1312
924 1318
924 1322
924 1332
924 1337
924 1340
924 1364
924 1365
924 1369
924 1372
924 1382
924 1383
924 1391
924 1401
924 1424
924 1439
924 1440
924 1450
924 1458
924 1463
924 1469
924 1474
924 1476
924 1486
924 1492
924 1499
924 1515
924 1518
924 1532
924 1554
924 1575
924 1591
924 1596
924 1603
924 1612
924 1616
924 1624
924 1630
924 1632
924 1646
924 1656
924 1665
924 1676
924 1705
924 1706
924 1707
924 1709
924 1711
924 1721
924 1736
924 1748
924 1753
924 1763
924 1768
924 1775
924 1778
924 1782
924 1795
924 1799
924 1800
924 1802
924 1810
924 1816
924 1818
924 1820
924 1822
924 1838
924 1846
924 1853
924 1858
924 1860
924 1863
924 1878
924 1888
924 1893
924 1908
924 1910
924 1911
924 1928
924 1931
924 1934
924 1939
924 1962
924 1975
924 1985
924 1989
924 2010
924 2011
924 2018
924 2022
924 2026
924 2050
924 2072
924 2094
924 2099
924 2100
924 2103
924 2104
924 2127
924 2139
924 2141
924 2143
924 2148
924 2157
924 2168
924 2175
924 2181
924 2185
924 2186
924 2188
924 2191
924 2200
924 2232
924 2233
924 2235
925 957
925 1073
925 1107
925 1145
925 1165
925 1272
925 1275
925 1349
925 1355
925 1376
925 1385
925 1415
925 1421
925 1431
925 1461
925 1558
925 1566
925 1567
925 1720
925 1756
925 1759
925 1809
925 1824
925 1875
925 1894
925 1977
925 1984
925 2052
925 2065
925 2140
925 2202
926 975
926 1023
926 1495
926 1666
926 1677
926 1971
926 1986
926 2058
926 2196
926 2223
927 1594
927 2118
928 1012
928 1082
928 1101
928 1148
928 1163
928 1206
928 1275
928 1315
928 1330
928 1381
928 1386
928 1427
928 1509
928 1539
928 1551
928 1553
928 1561
928 1620
928 1668
928 1685
928 1717
928 1764
928 1776
928 1784
928 1884
928 1907
928 1915
928 1945
928 1946
928 1999
928 2072
928 2075
928 2078
928 2112
928 2226
928 2227
928 2242
929 935
929 1195
929 1400
929 1429
929 1499
929 1638
929 1790
929 1836
929 1972
929 2006
929 2062
929 2179
929 2189
930 935
930 948
930 1005
930 1070
930 1152
930 1160
930 1178
930 1270
930 1288
930 1321
930 1323
930 1329
930 1351
930 1408
930 1438
930 1544
930 1562
930 1584
930 1609
930 1635
930 1638
930 1791
930 1799
930 1801
930 1802
930 1810
930 1817
930 1836
930 1983
930 2020
930 2031
930 2094
930 2095
930 2116
930 2124
930 2179
931 1031
931 1045
931 1148
931 1162
931 1190
931 1252
931 1275
931 1373
931 1381
931 1386
931 1451
931 1491
931 1509
931 1542
931 1602
931 1685
931 1833
931 1915
931 1921
931 1973
931 2075
931 2184
932 1108
932 1598
932 1710
932 1951
933 1238
933 1327
933 2231
934 937
934 947
934 963
934 1008
934 1029
934 1030
934 1065
934 1073
934 1245
934 1260
934 1342
934 1355
934 1384
934 1431
934 1470
934 1506
934 1511
934 1558
934 1643
934 1690
934 1720
934 1755
934 1800
934 1818
934 1828
934 1848
934 1859
934 1865
934 1869
934 1890
934 1892
934 1903
934 1921
934 1940
934 1949
934 1987
934 1992
934 2001
934 2023
934 2075
934 2087
934 2162
934 2169
934 2175
934 2197
934 2222
934 2233
934 2248
935 951
935 957
935 960
935 979
935 982
935 983
935 986
935 992
935 1005
935 1009
935 1061
935 1077
935 1103
935 1112
935 1117
935 1124
935 1130
935 1142
935 1154
935 1180
935 1233
935 1246
935 1247
935 1270
935 1279
935 1282
935 1288
935 1289
935 1290
935 1301
935 1321
935 1323
935 1332
935 1340
935 1365
935 1383
935 1393
935 1408
935 1419
935 1438
935 1443
935 1459
935 1468
935 1499
935 1512
935 1562
935 1566
935 1634
935 1638
935 1662
935 1679
935 1700
935 1713
935 1723
935 1748
935 1750
935 1768
935 1771
935 1775
935 1795
935 1799
935 1802
935 1810
935 1812
935 1818
935 1832
935 1836
935 1853
935 1881
935 1915
935 1928
935 1938
935 1948
935 1975
935 1977
935 1989
935 2006
935 2012
935 2020
935 2042
935 2088
935 2103
935 2124
935 2125
935 2127
935 2153
935 2169
935 2176
935 2181
935 2183
935 2188
935 2230
935 2235
935 2246
936 1099
936 1106
936 1167
936 1351
936 1405
936 1559
936 1788
936 1799
936 1887
936 1961
937 947
937 954
937 1029
937 1030
937 1033
937 1062
937 1065
937 1066
937 1073
937 1078
937 1084
937 1094
937 1104
937 1107
937 1158
937 1177
937 1182
937 1189
937 1191
937 1260
937 1268
937 1355
937 1384
937 1392
937 1431
937 1436
937 1443
937 1470
937 1474
937 1483
937 1486
937 1506
937 1511
937 1564
937 1579
937 1593
937 1681
937 1689
937 1706
937 1708
937 1747
937 1755
937 1800
937 1818
937 1828
937 1858
937 1859
937 1865
937 1886
937 1890
937 1892
937 1903
937 1909
937 1921
937 1925
937 1936
937 1940
937 1948
937 1949
937 1966
937 1987
937 1992
937 2001
937 2017
937 2023
937 2035
937 2065
937 2085
937 2091
937 2118
937 2132
937 2154
937 2160
937 2166
937 2185
937 2186
937 2197
937 2206
937 2232
937 2233
937 2248
937 2249
938 942
938 969
938 977
938 981
938 984
938 1000
938 1006
938 1009
938 1015
938 1018
938 1026
938 1029
938 1043
938 1044
938 1046
938 1063
938 1065
938 1066
938 1078
938 1094
938 1100
938 1117
938 1120
938 1125
938 1143
938 1147
938 1157
938 1179
938 1193
938 1212
938 1227
938 1230
938 1232
938 1236
938 1246
938 1249
938 1269
938 1273
938 1277
938 1290
938 1301
938 1312
938 1318
938 1321
938 1322
938 1339
938 1356
938 1364
938 1365
938 1369
938 1370
938 1376
938 1386
938 1391
938 1395
938 1397
938 1408
938 1409
938 1416
938 1425
938 1428
938 1431
938 1432
938 1434
938 1436
938 1437
938 1439
938 1440
938 1442
938 1446
938 1450
938 1460
938 1463
938 1473
938 1474
938 1484
938 1485
938 1486
938 1492
938 1500
938 1501
938 1510
938 1514
938 1520
938 1532
938 1545
938 1554
938 1566
938 1569
938 1575
938 1589
938 1600
938 1607
938 1610
938 1613
938 1616
938 1622
938 1628
938 1632
938 1640
938 1641
938 1646
938 1647
938 1651
938 1658
938 1669
938 1678
938 1682
938 1700
938 1703
938 1707
938 1730
938 1736
938 1754
938 1759
938 1768
938 1783
938 1795
938 1799
938 1802
938 1813
938 1818
938 1819
938 1827
938 1835
938 1838
938 1849
938 1855
938 1858
938 1859
938 1880
938 1881
938 1894
938 1911
938 1918
938 1925
938 1928
938 1934
938 1949
938 1965
938 1973
938 1974
938 1982
938 1989
938 1994
938 2003
938 2008
938 2009
938 2010
938 2022
938 2026
938 2035
938 2043
938 2051
938 2055
938 2065
938 2069
938 2081
938 2082
938 2089
938 2091
938 2095
938 2100
938 2104
938 2117
938 2121
938 2126
938 2133
938 2148
938 2153
938 2160
938 2161
938 2167
938 2173
938 2175
938 2176
938 2177
938 2182
938 2185
938 2186
938 2187
938 2188
938 2194
938 2195
938 2202
938 2204
938 2232
938 2235
938 2246
938 2249
939 992
939 1170
939 1181
939 1187
939 1223
939 1237
939 1277
939 1282
939 1340
939 1383
939 1439
939 1532
939 1632
939 1806
939 1845
939 1924
939 1928
939 1931
939 1948
939 2102
939 2145
939 2161
940 960
940 979
940 1011
940 1096
940 1133
940 1137
940 1173
940 1195
940 1260
940 1261
940 1276
940 1349
940 1376
940 1469
940 1476
940 1492
940 1510
940 1541
940 1554
940 1616
940 1640
940 1647
940 1695
940 1709
940 1711
940 1721
940 1732
940 1754
940 1800
940 1818
940 1822
940 1838
940 1858
940 1881
940 1911
940 1975
940 2026
940 2046
940 2065
940 2091
940 2098
940 2110
940 2120
940 2146
940 2176
940 2181
940 2205
940 2232
940 2246
941 944
941 953
941 955
941 979
941 987
941 1033
941 1035
941 1046
941 1075
941 1136
941 1137
941 1205
941 1222
941 1235
941 1239
941 1264
941 1266
941 1276
941 1284
941 1300
941 1309
941 1322
941 1393
941 1414
941 1442
941 1450
941 1459
941 1476
941 1630
941 1735
941 1744
941 1746
941 1749
941 1774
941 1794
941 1795
941 1825
941 1891
941 1953
941 1989
941 2018
941 2021
941 2029
941 2047
941 2048
941 2101
941 2102
941 2103
941 2118
941 2129
941 2142
941 2143
941 2195
941 2216
942 954
942 957
942 960
942 961
942 1004
942 1006
942 1010
942 1043
942 1046
942 1048
942 1100
942 1103
942 1117
942 1118
942 1125
942 1165
942 1171
942 1179
942 1180
942 1227
942 1238
942 1299
942 1349
942 1356
942 1360
942 1369
942 1385
942 1390
942 1396
942 1472
942 1487
942 1550
942 1575
942 1589
942 1590
942 1600
942 1613
942 1669
942 1694
942 1700
942 1749
942 1766
942 1774
942 1796
942 1807
942 1826
942 1829
942 1920
942 1935
942 1965
942 2012
942 2027
942 2029
942 2082
942 2123
942 2131
942 2147
942 2185
942 2194
942 2205
942 2241
942 2249
943 974
943 1012
943 1045
943 1157
943 1254
943 1275
943 1386
943 1488
943 1509
943 1561
943 1583
943 1668
943 1823
943 1884
943 1907
943 2054
943 2075
944 960
944 1000
944 1075
944 1133
944 1205
944 1222
944 1284
944 1393
944 1399
944 1439
944 1526
944 1630
944 1651
944 1670
944 1762
944 1790
944 1794
944 1822
944 1866
944 1891
944 1932
944 1953
944 2021
944 2048
944 2094
944 2101
944 2103
944 2111
944 2143
944 2157
945 985
945 988
945 1019
945 1099
945 1102
945 1115
945 1118
945 1126
945 1167
945 1228
945 1359
945 1400
945 1402
945 1405
945 1420
945 1559
945 1629
945 1779
945 1938
945 2032
945 2142
945 2189
945 2246
947 953
947 960
947 987
947 1009
947 1015
947 1029
947 1033
947 1037
947 1046
947 1065
947 1073
947 1094
947 1103
947 1131
947 1133
947 1136
947 1137
947 1143
947 1154
947 1222
947 1226
947 1229
947 1239
947 1264
947 1280
947 1304
947 1309
947 1322
947 1361
947 1367
947 1372
947 1384
947 1408
947 1431
947 1432
947 1443
947 1453
947 1470
947 1511
947 1560
947 1565
947 1579
947 1592
947 1603
947 1615
947 1705
947 1739
947 1755
947 1769
947 1794
947 1800
947 1801
947 1803
947 1828
947 1845
947 1850
947 1859
947 1892
947 1903
947 1912
947 1949
947 1960
947 1966
947 1987
947 2018
947 2035
947 2085
947 2089
947 2091
947 2110
947 2118
947 2123
947 2131
947 2132
947 2134
947 2143
947 2162
947 2177
947 2188
947 2197
947 2201
947 2248
948 963
948 967
948 973
948 992
948 1005
948 1067
948 1068
948 1081
948 1086
948 1126
948 1152
948 1158
948 1160
948 1178
948 1223
948 1245
948 1264
948 1270
948 1288
948 1343
948 1351
948 1394
948 1429
948 1438
948 1448
948 1576
948 1609
948 1638
948 1662
948 1690
948 1782
948 1791
948 1801
948 1832
948 1854
948 1906
948 1928
948 1930
948 1932
948 1937
948 1963
948 1983
948 2040
948 2047
948 2064
948 2096
948 2115
948 2124
948 2141
948 2168
948 2179
948 2183
948 2193
948 2218
949 1313
949 1339
949 1431
949 1445
949 1471
949 1480
949 1554
949 1564
949 1752
949 1824
949 1875
949 1894
949 2069
950 965
950 978
950 991
950 1012
950 1025
950 1034
950 1082
950 1101
950 1148
950 1157
950 1162
950 1166
950 1190
950 1201
950 1252
950 1286
950 1326
950 1386
950 1423
950 1465
950 1505
950 1509
950 1529
950 1531
950 1539
950 1552
950 1561
950 1573
950 1582
950 1614
950 1620
950 1621
950 1625
950 1636
950 1648
950 1666
950 1668
950 1682
950 1685
950 1698
950 1821
950 1868
950 1873
950 1884
950 1907
950 1915
950 1973
950 2020
950 2045
950 2082
950 2105
950 2130
950 2135
950 2210
950 2211
950 2215
950 2224
950 2226
950 2238
950 2247
951 963
951 969
951 970
951 979
951 983
951 990
951 1067
951 1070
951 1071
951 1084
951 1088
951 1097
951 1124
951 1130
951 1164
951 1200
951 1223
951 1243
951 1256
951 1274
951 1279
951 1321
951 1348
951 1404
951 1429
951 1448
951 1483
951 1499
951 1512
951 1538
951 1566
951 1576
951 1634
951 1639
951 1656
951 1672
951 1679
951 1685
951 1701
951 1713
951 1768
951 1809
951 1840
951 1872
951 1899
951 1915
951 1923
951 1963
951 1969
951 1975
951 1977
951 2040
951 2070
951 2088
951 2153
951 2169
951 2189
951 2230
953 994
953 995
953 1006
953 1009
953 1046
953 1061
953 1065
953 1070
953 1075
953 1077
953 1081
953 1086
953 1094
953 1103
953 1106
953 1112
953 1119
953 1132
953 1133
953 1162
953 1173
953 1218
953 1225
953 1228
953 1264
953 1280
953 1288
953 1292
953 1304
953 1308
953 1322
953 1323
953 1333
953 1344
953 1348
953 1357
953 1367
953 1368
953 1369
953 1380
953 1384
953 1393
953 1394
953 1408
953 1413
953 1424
953 1429
953 1470
953 1473
953 1493
953 1511
953 1526
953 1544
953 1560
953 1562
953 1579
953 1584
953 1630
953 1643
953 1654
953 1662
953 1667
953 1675
953 1697
953 1711
953 1755
953 1768
953 1782
953 1788
953 1802
953 1803
953 1817
953 1818
953 1832
953 1859
953 1888
953 1889
953 1890
953 1892
953 1898
953 1903
953 1912
953 1930
953 1941
953 1968
953 1969
953 1987
953 1988
953 1994
953 2009
953 2038
953 2077
953 2080
953 2091
953 2098
953 2099
953 2120
953 2129
953 2134
953 2162
953 2193
953 2197
953 2222
953 2230
954 960
954 1000
954 1010
954 1019
954 1020
954 1033
954 1046
954 1116
954 1132
954 1154
954 1161
954 1179
954 1192
954 1212
954 1218
954 1225
954 1226
954 1227
954 1239
954 1280
954 1285
954 1299
954 1314
954 1322
954 1335
954 1358
954 1363
954 1369
954 1375
954 1380
954 1406
954 1413
954 1443
954 1454
954 1460
954 1463
954 1476
954 1503
954 1504
954 1510
954 1517
954 1518
954 1522
954 1530
954 1540
954 1554
954 1569
954 1575
954 1578
954 1596
954 1603
954 1618
954 1624
954 1630
954 1647
954 1653
954 1669
954 1670
954 1722
954 1726
954 1727
954 1735
954 1742
954 1794
954 1795
954 1803
954 1817
954 1825
954 1829
954 1838
954 1859
954 1866
954 1881
954 1892
954 1903
954 1908
954 1989
954 2018
954 2025
954 2027
954 2047
954 2086
954 2089
954 2134
954 2136
954 2142
954 2144
954 2177
954 2189
954 2195
954 2198
954 2201
954 2249
955 1118
955 1174
955 1205
955 1222
955 1284
955 1312
955 1359
955 1393
955 1414
955 1510
955 1549
955 1629
955 1739
955 1762
955 1790
955 1938
955 1966
955 2021
955 2031
955 2048
955 2103
955 2116
955 2142
955 2143
955 2216
955 2246
956 1101
956 1123
956 1148
956 1275
956 1350
956 1376
956 1386
956 1551
956 1563
956 1568
956 1599
956 1620
956 1644
956 1685
956 1814
956 1986
956 2106
956 2113
956 2130
956 2166
956 2196
957 1057
957 1058
957 1143
957 1179
957 1212
957 1233
957 1238
957 1247
957 1277
957 1322
957 1356
957 1360
957 1385
957 1389
957 1431
957 1474
957 1478
957 1520
957 1587
957 1720
957 1743
957 1746
957 1766
957 1771
957 1774
957 1826
957 1911
957 1935
957 1942
957 1984
957 1987
957 2012
957 2015
957 2029
957 2076
957 2102
957 2117
957 2140
957 2159
957 2161
957 2214
957 2241
958 1041
958 1060
958 1350
958 1551
958 1553
958 1691
958 1757
958 1767
958 2237
959 1030
959 1045
959 1275
959 1330
959 1373
959 1386
959 1411
959 1423
959 1497
959 1509
959 1582
959 1620
959 1636
959 1644
959 1672
959 1784
959 1841
959 1884
959 1907
959 1913
959 1921
959 2014
959 2017
959 2060
959 2075
959 2105
959 2152
960 987
960 1015
960 1019
960 1020
960 1028
960 1033
960 1065
960 1081
960 1096
960 1116
960 1169
960 1180
960 1212
960 1226
960 1228
960 1232
960 1235
960 1239
960 1255
960 1261
960 1285
960 1294
960 1308
960 1322
960 1335
960 1358
960 1361
960 1363
960 1375
960 1382
960 1390
960 1406
960 1413
960 1443
960 1460
960 1463
960 1472
960 1476
960 1487
960 1488
960 1489
960 1500
960 1510
960 1522
960 1530
960 1558
960 1575
960 1579
960 1596
960 1600
960 1670
960 1700
960 1739
960 1749
960 1762
960 1769
960 1774
960 1783
960 1788
960 1794
960 1799
960 1800
960 1802
960 1817
960 1825
960 1829
960 1867
960 1881
960 1885
960 1889
960 1904
960 1934
960 1956
960 1975
960 2010
960 2012
960 2031
960 2047
960 2069
960 2086
960 2089
960 2103
960 2110
960 2116
960 2127
960 2134
960 2136
960 2143
960 2177
960 2186
960 2195
960 2198
960 2201
961 980
961 984
961 1006
961 1009
961 1019
961 1028
961 1044
961 1046
961 1051
961 1056
961 1100
961 1104
961 1168
961 1227
961 1230
961 1236
961 1277
961 1349
961 1378
961 1385
961 1397
961 1406
961 1409
961 1421
961 1434
961 1454
961 1473
961 1491
961 1493
961 1516
961 1586
961 1589
961 1607
961 1628
961 1641
961 1688
961 1732
961 1759
961 1796
961 1813
961 1817
961 1818
961 1835
961 1855
961 1863
961 1876
961 1930
961 1965
961 1981
961 1982
961 2012
961 2081
961 2091
961 2121
961 2131
961 2148
961 2194
962 981
962 996
962 1042
962 1053
962 1063
962 1131
962 1137
962 1179
962 1197
962 1235
962 1300
962 1308
962 1345
962 1372
962 1489
962 1549
962 1569
962 1592
962 1739
962 1745
962 1749
962 1769
962 1780
962 1796
962 1850
962 1881
962 1885
962 1926
962 1958
962 1960
962 1994
962 2111
962 2195
962 2216
963 1029
963 1054
963 1066
963 1097
963 1124
963 1145
963 1158
963 1200
963 1223
963 1258
963 1292
963 1324
963 1340
963 1374
963 1419
963 1425
963 1429
963 1448
963 1499
963 1512
963 1558
963 1566
963 1576
963 1635
963 1643
963 1656
963 1662
963 1664
963 1665
963 1690
963 1701
963 1706
963 1723
963 1782
963 1791
963 1799
963 1812
963 1818
963 1832
963 1854
963 1865
963 1923
963 1932
963 1949
963 1962
963 1977
963 1992
963 2040
963 2053
963 2063
963 2088
963 2124
963 2153
963 2160
963 2168
963 2169
963 2183
963 2193
963 2248
964 1215
964 1686
964 1851
964 2049
964 2222
965 975
965 1007
965 1017
965 1063
965 1082
965 1091
965 1095
965 1154
965 1180
965 1196
965 1247
965 1260
965 1263
965 1275
965 1319
965 1362
965 1373
965 1386
965 1411
965 1455
965 1477
965 1509
965 1519
965 1535
965 1542
965 1551
965 1554
965 1582
965 1672
965 1676
965 1684
965 1706
965 1716
965 1725
965 1807
965 1808
965 1833
965 1856
965 1878
965 1907
965 1908
965 1921
965 1971
965 1973
965 2005
965 2017
965 2075
965 2128
965 2178
965 2223
965 2227
965 2238
965 2242
966 967
966 1081
966 1106
966 1130
966 1139
966 1140
966 1152
966 1276
966 1432
966 1438
966 1459
966 1626
966 1739
966 1759
966 1774
966 1801
966 1853
966 1889
966 1932
966 1938
966 1950
966 1983
966 1990
966 2041
966 2046
966 2079
966 2115
966 2116
967 973
967 1005
967 1010
967 1139
967 1152
967 1160
967 1178
967 1181
967 1223
967 1229
967 1245
967 1251
967 1269
967 1343
967 1346
967 1351
967 1369
967 1394
967 1400
967 1402
967 1428
967 1438
967 1442
967 1571
967 1662
967 1773
967 1790
967 1796
967 1799
967 1801
967 1836
967 1849
967 1888
967 1889
967 1928
967 1937
967 1938
967 1954
967 1956
967 1960
967 1969
967 1983
967 2032
967 2047
967 2083
967 2096
967 2115
967 2123
967 2124
967 2141
967 2179
967 2189
967 2218
968 1804
969 983
969 1029
969 1030
969 1038
969 1043
969 1052
969 1062
969 1066
969 1068
969 1073
969 1079
969 1084
969 1109
969 1111
969 1119
969 1142
969 1189
969 1240
969 1260
969 1268
969 1279
969 1290
969 1306
969 1311
969 1322
969 1334
969 1364
969 1369
969 1376
969 1410
969 1425
969 1428
969 1429
969 1430
969 1436
969 1444
969 1456
969 1459
969 1471
969 1473
969 1483
969 1512
969 1517
969 1538
969 1546
969 1558
969 1566
969 1567
969 1569
969 1574
969 1593
969 1605
969 1612
969 1642
969 1643
969 1645
969 1651
969 1656
969 1658
969 1703
969 1706
969 1720
969 1723
969 1730
969 1756
969 1761
969 1763
969 1768
969 1772
969 1797
969 1799
969 1805
969 1809
969 1813
969 1818
969 1837
969 1847
969 1848
969 1853
969 1866
969 1877
969 1880
969 1899
969 1901
969 1902
969 1916
969 1917
969 1923
969 1936
969 1949
969 1959
969 1962
969 1977
969 1995
969 2001
969 2009
969 2036
969 2037
969 2040
969 2042
969 2051
969 2066
969 2090
969 2091
969 2100
969 2109
969 2121
969 2125
969 2162
969 2167
969 2168
969 2171
969 2186
969 2190
969 2195
969 2204
969 2206
969 2207
969 2213
969 2236
969 2246
969 2248
969 2249
970 983
970 990
970 1088
970 1124
970 1164
970 1243
970 1256
970 1265
970 1274
970 1279
970 1499
970 1546
970 1580
970 1656
970 1797
970 1840
970 1872
970 1963
970 1969
970 1977
970 2042
970 2060
970 2070
970 2169
971 1056
971 1080
971 1081
971 1168
971 1204
971 1209
971 1212
971 1222
971 1230
971 1285
971 1322
971 1325
971 1358
971 1393
971 1398
971 1489
971 1572
971 1584
971 1592
971 1619
971 1628
971 1649
971 1684
971 1722
971 1739
971 1744
971 1759
971 1769
971 1774
971 1799
971 1801
971 1870
971 1889
971 1898
971 1950
971 1960
971 1974
971 1994
971 2012
971 2047
971 2074
971 2097
971 2110
971 2118
971 2134
971 2139
971 2143
971 2161
972 1012
972 1275
972 1315
972 1386
972 1491
972 1585
972 1652
972 1757
972 1833
972 1879
972 1884
972 1945
972 2002
972 2078
972 2238
973 990
973 1005
973 1033
973 1067
973 1071
973 1081
973 1106
973 1116
973 1135
973 1140
973 1178
973 1195
973 1218
973 1228
973 1229
973 1245
973 1251
973 1254
973 1264
973 1369
973 1375
973 1387
973 1394
973 1428
973 1626
973 1628
973 1634
973 1679
973 1704
973 1739
973 1759
973 1788
973 1790
973 1799
973 1801
973 1802
973 1889
973 1890
973 1898
973 1938
973 1966
973 1972
973 2038
973 2062
973 2083
973 2089
973 2096
973 2115
973 2123
973 2129
973 2170
973 2179
973 2183
974 1157
974 1163
974 1166
974 1330
974 1362
974 1373
974 1427
974 1477
974 1509
974 1582
974 1583
974 1620
974 1751
974 1907
974 2061
974 2075
974 2164
974 2221
974 2227
975 1007
975 1153
975 1202
975 1275
975 1315
975 1369
975 1386
975 1411
975 1427
975 1495
975 1519
975 1535
975 1606
975 1672
975 1677
975 1693
975 1698
975 1714
975 1717
975 1833
975 1868
975 1971
975 2017
975 2075
975 2082
975 2196
975 2223
976 1042
976 1046
976 1056
976 1057
976 1063
976 1078
976 1151
976 1154
976 1169
976 1180
976 1195
976 1220
976 1241
976 1308
976 1320
976 1352
976 1360
976 1380
976 1382
976 1404
976 1446
976 1498
976 1500
976 1503
976 1554
976 1569
976 1575
976 1603
976 1607
976 1613
976 1641
976 1646
976 1692
976 1694
976 1709
976 1716
976 1732
976 1789
976 1796
976 1859
976 1870
976 1878
976 1920
976 1952
976 1964
976 2004
976 2015
976 2016
976 2018
976 2029
976 2085
976 2091
976 2099
976 2131
976 2157
976 2158
976 2188
976 2195
976 2205
976 2236
977 983
977 1020
977 1125
977 1129
977 1178
977 1230
977 1276
977 1298
977 1312
977 1318
977 1325
977 1391
977 1393
977 1424
977 1439
977 1463
977 1484
977 1654
977 1673
977 1771
977 1832
977 1969
977 2046
977 2126
977 2233
978 1034
978 1082
978 1091
978 1097
978 1153
978 1157
978 1166
978 1203
978 1252
978 1275
978 1306
978 1315
978 1330
978 1341
978 1373
978 1383
978 1386
978 1423
978 1427
978 1448
978 1479
978 1509
978 1519
978 1529
978 1551
978 1561
978 1583
978 1595
978 1620
978 1621
978 1636
978 1643
978 1652
978 1668
978 1672
978 1679
978 1683
978 1685
978 1687
978 1698
978 1763
978 1873
978 1884
978 1907
978 1915
978 1931
978 1945
978 1973
978 2057
978 2061
978 2130
978 2164
978 2217
978 2242
979 990
979 992
979 1009
979 1033
979 1066
979 1071
979 1086
979 1088
979 1118
979 1124
979 1130
979 1147
979 1154
979 1174
979 1187
979 1215
979 1223
979 1227
979 1231
979 1243
979 1246
979 1258
979 1262
979 1270
979 1276
979 1281
979 1284
979 1292
979 1293
979 1296
979 1321
979 1325
979 1329
979 1332
979 1333
979 1340
979 1348
979 1365
979 1369
979 1374
979 1393
979 1408
979 1409
979 1419
979 1420
979 1425
979 1426
979 1429
979 1442
979 1443
979 1448
979 1459
979 1463
979 1468
979 1480
979 1499
979 1554
979 1562
979 1609
979 1626
979 1638
979 1664
979 1711
979 1713
979 1736
979 1740
979 1741
979 1763
979 1768
979 1799
979 1802
979 1810
979 1818
979 1820
979 1853
979 1862
979 1869
979 1878
979 1895
979 1899
979 1928
979 1934
979 1939
979 1948
979 1975
979 1977
979 2006
979 2010
979 2020
979 2022
979 2026
979 2034
979 2041
979 2047
979 2051
979 2063
979 2070
979 2088
979 2098
979 2104
979 2108
979 2127
979 2134
979 2144
979 2145
979 2148
979 2153
979 2175
979 2181
979 2183
979 2186
979 2209
979 2235
980 984
980 1009
980 1044
980 1056
980 1087
980 1100
980 1104
980 1119
980 1230
980 1272
980 1277
980 1346
980 1390
980 1409
980 1421
980 1565
980 1589
980 1607
980 1628
980 1641
980 1688
980 1796
980 1813
980 1863
980 1930
980 2029
980 2081
981 1010
981 1015
981 1042
981 1048
981 1053
981 1063
981 1100
981 1138
981 1154
981 1180
981 1207
981 1226
981 1235
981 1241
981 1274
981 1334
981 1361
981 1377
981 1453
981 1474
981 1489
981 1492
981 1554
981 1592
981 1594
981 1628
981 1640
981 1670
981 1671
981 1704
981 1731
981 1739
981 1749
981 1769
981 1792
981 1796
981 1852
981 1885
981 1902
981 1960
981 1962
981 2074
981 2134
981 2165
981 2195
982 1016
982 1029
982 1081
982 1200
982 1223
982 1317
982 1387
982 1404
982 1419
982 1448
982 1482
982 1499
982 1607
982 1694
982 1771
982 1806
982 1924
982 1928
982 1966
982 1975
982 2070
982 2107
983 990
983 1079
983 1088
983 1124
983 1130
983 1150
983 1164
983 1256
983 1274
983 1279
983 1321
983 1365
983 1428
983 1430
983 1483
983 1499
983 1512
983 1566
983 1576
983 1642
983 1656
983 1673
983 1701
983 1809
983 1818
983 1840
983 1847
983 1872
983 1923
983 1955
983 1963
983 1969
983 1977
983 2010
983 2070
983 2088
983 2146
983 2153
983 2169
983 2183
983 2190
983 2230
984 1006
984 1009
984 1015
984 1044
984 1046
984 1051
984 1056
984 1061
984 1087
984 1100
984 1104
984 1106
984 1119
984 1154
984 1165
984 1168
984 1169
984 1225
984 1230
984 1236
984 1266
984 1277
984 1294
984 1304
984 1311
984 1336
984 1349
984 1356
984 1378
984 1397
984 1409
984 1421
984 1473
984 1486
984 1493
984 1498
984 1500
984 1503
984 1586
984 1589
984 1600
984 1607
984 1613
984 1628
984 1630
984 1637
984 1641
984 1647
984 1669
984 1694
984 1700
984 1732
984 1796
984 1813
984 1835
984 1855
984 1863
984 1875
984 1876
984 1891
984 1894
984 1930
984 1981
984 1994
984 2009
984 2012
984 2035
984 2043
984 2051
984 2052
984 2068
984 2081
984 2091
984 2102
984 2117
984 2118
984 2121
984 2131
984 2148
984 2205
985 988
985 1036
985 1047
985 1099
985 1126
985 1150
985 1164
985 1231
985 1328
985 1402
985 1571
985 1840
985 2031
985 2125
985 2151
985 2193
986 1060
986 1163
986 1315
986 1423
986 1491
986 1496
986 1519
986 1602
986 1614
986 2007
986 2061
986 2075
986 2130
987 990
987 1010
987 1015
987 1033
987 1064
987 1065
987 1067
987 1075
987 1106
987 1136
987 1137
987 1138
987 1139
987 1141
987 1154
987 1208
987 1218
987 1222
987 1239
987 1245
987 1246
987 1251
987 1264
987 1270
987 1283
987 1309
987 1336
987 1372
987 1393
987 1394
987 1417
987 1428
987 1442
987 1489
987 1527
987 1569
987 1592
987 1593
987 1615
987 1625
987 1701
987 1705
987 1722
987 1739
987 1769
987 1788
987 1799
987 1802
987 1840
987 1850
987 1885
987 1889
987 1892
987 1929
987 1960
987 1974
987 2029
987 2035
987 2047
987 2072
987 2083
987 2110
987 2115
987 2134
987 2141
987 2143
987 2151
987 2170
987 2189
987 2200
988 989
988 1036
988 1071
988 1086
988 1099
988 1126
988 1164
988 1167
988 1228
988 1251
988 1284
988 1336
988 1347
988 1359
988 1400
988 1402
988 1405
988 1449
988 1450
988 1556
988 1596
988 1607
988 1633
988 1638
988 1647
988 1705
988 1788
988 1790
988 1799
988 1985
988 1988
988 2032
988 2035
988 2062
988 2083
988 2151
988 2186
989 1167
989 1347
989 1402
989 1405
989 1859
989 2085
990 1047
990 1067
990 1070
990 1071
990 1088
990 1089
990 1114
990 1150
990 1164
990 1174
990 1187
990 1218
990 1222
990 1251
990 1270
990 1274
990 1279
990 1293
990 1296
990 1344
990 1351
990 1387
990 1393
990 1394
990 1417
990 1428
990 1476
990 1499
990 1512
990 1526
990 1576
990 1609
990 1628
990 1638
990 1713
990 1788
990 1790
990 1799
990 1802
990 1817
990 1840
990 1853
990 1872
990 1889
990 1927
990 1932
990 1937
990 1938
990 1962
990 1963
990 1969
990 2034
990 2052
990 2070
990 2080
990 2083
990 2123
990 2124
990 2125
990 2134
990 2151
990 2153
990 2179
990 2188
990 2189
990 2228
991 1315
991 1636
991 1685
991 1878
991 2014
992 1005
992 1009
992 1043
992 1046
992 1067
992 1073
992 1088
992 1089
992 1122
992 1124
992 1130
992 1142
992 1173
992 1174
992 1204
992 1220
992 1230
992 1231
992 1246
992 1277
992 1282
992 1301
992 1312
992 1317
992 1330
992 1332
992 1340
992 1351
992 1369
992 1383
992 1387
992 1391
992 1395
992 1399
992 1408
992 1409
992 1419
992 1429
992 1430
992 1443
992 1459
992 1468
992 1482
992 1483
992 1484
992 1499
992 1507
992 1532
992 1616
992 1634
992 1653
992 1672
992 1713
992 1719
992 1741
992 1748
992 1754
992 1768
992 1771
992 1788
992 1795
992 1799
992 1800
992 1802
992 1809
992 1810
992 1812
992 1818
992 1827
992 1836
992 1838
992 1847
992 1848
992 1853
992 1871
992 1877
992 1890
992 1911
992 1923
992 1924
992 1928
992 1934
992 1938
992 1948
992 1963
992 2006
992 2009
992 2012
992 2020
992 2022
992 2026
992 2042
992 2050
992 2051
992 2054
992 2063
992 2069
992 2070
992 2088
992 2103
992 2104
992 2107
992 2117
992 2125
992 2153
992 2169
992 2177
992 2179
992 2181
992 2183
992 2193
992 2230
992 2235
993 1082
993 1095
993 1250
993 1652
993 1805
993 1902
993 1907
993 2002
994 996
994 1159
994 1171
994 1265
994 1320
994 1516
994 1565
994 1675
994 1775
994 1788
994 1802
994 1807
994 1815
994 1859
994 1903
994 1910
994 1994
994 2049
994 2097
994 2188
994 2235
995 1015
995 1028
995 1046
995 1133
995 1137
995 1222
995 1229
995 1280
995 1304
995 1402
995 1414
995 1426
995 1476
995 1526
995 1579
995 1667
995 1711
995 1783
995 1850
995 1888
995 1891
995 1938
995 2098
995 2143
995 2154
995 2165
996 1051
996 1083
996 1099
996 1154
996 1159
996 1171
996 1193
996 1213
996 1228
996 1285
996 1320
996 1335
996 1338
996 1347
996 1361
996 1389
996 1390
996 1530
996 1565
996 1594
996 1603
996 1615
996 1630
996 1686
996 1699
996 1727
996 1735
996 1741
996 1775
996 1788
996 1791
996 1816
996 1830
996 1831
996 1844
996 1866
996 1889
996 1910
996 1935
996 1994
996 2031
996 2049
996 2073
996 2134
996 2147
996 2188
997 1346
998 1019
998 1179
998 1283
998 1651
998 1783
998 1974
998 1994
1000 1006
1000 1019
1000 1030
1000 1033
1000 1046
1000 1053
1000 1065
1000 1125
1000 1137
1000 1147
1000 1154
1000 1173
1000 1195
1000 1226
1000 1239
1000 1260
1000 1312
1000 1318
1000 1322
1000 1342
1000 1372
1000 1375
1000 1395
1000 1441
1000 1444
1000 1463
1000 1467
1000 1474
1000 1488
1000 1492
1000 1502
1000 1540
1000 1554
1000 1569
1000 1578
1000 1594
1000 1596
1000 1611
1000 1619
1000 1640
1000 1690
1000 1692
1000 1697
1000 1726
1000 1753
1000 1783
1000 1787
1000 1795
1000 1817
1000 1818
1000 1852
1000 1858
1000 1891
1000 1911
1000 1949
1000 1960
1000 2025
1000 2028
1000 2033
1000 2050
1000 2055
1000 2101
1000 2104
1000 2107
1000 2110
1000 2126
1000 2143
1000 2165
1000 2191
1000 2197
1000 2201
1000 2231
1000 2243
1000 2246
1001 1331
1001 1433
1002 1487
1002 1874
1002 2136
1003 1178
1004 1035
1004 1102
1004 1165
1004 1304
1004 1338
1004 1356
1004 1389
1004 1453
1004 1649
1004 1658
1004 1670
1004 1700
1004 1746
1004 1775
1004 1935
1004 1994
1004 2099
1004 2188
1004 2205
1004 2241
1005 1047
1005 1081
1005 1086
1005 1106
1005 1122
1005 1139
1005 1152
1005 1154
1005 1160
1005 1164
1005 1178
1005 1187
1005 1220
1005 1229
1005 1246
1005 1251
1005 1270
1005 1285
1005 1288
1005 1321
1005 1329
1005 1346
1005 1351
1005 1359
1005 1363
1005 1372
1005 1393
1005 1394
1005 1402
1005 1429
1005 1438
1005 1526
1005 1559
1005 1562
1005 1569
1005 1576
1005 1584
1005 1609
1005 1628
1005 1635
1005 1638
1005 1645
1005 1739
1005 1748
1005 1788
1005 1790
1005 1791
1005 1794
1005 1799
1005 1801
1005 1802
1005 1810
1005 1830
1005 1836
1005 1906
1005 1919
1005 1926
1005 1927
1005 1928
1005 1937
1005 1966
1005 1972
1005 1983
1005 2020
1005 2038
1005 2089
1005 2096
1005 2097
1005 2115
1005 2124
1005 2125
1005 2129
1005 2141
1005 2179
1005 2189
1005 2230
1006 1009
1006 1019
1006 1044
1006 1046
1006 1048
1006 1061
1006 1065
1006 1066
1006 1077
1006 1100
1006 1103
1006 1129
1006 1144
1006 1195
1006 1211
1006 1220
1006 1222
1006 1227
1006 1230
1006 1251
1006 1269
1006 1273
1006 1274
1006 1277
1006 1280
1006 1344
1006 1346
1006 1349
1006 1358
1006 1359
1006 1368
1006 1370
1006 1378
1006 1385
1006 1395
1006 1399
1006 1406
1006 1409
1006 1417
1006 1421
1006 1434
1006 1440
1006 1441
1006 1443
1006 1458
1006 1476
1006 1483
1006 1486
1006 1489
1006 1493
1006 1498
1006 1504
1006 1507
1006 1510
1006 1514
1006 1526
1006 1537
1006 1540
1006 1549
1006 1569
1006 1578
1006 1581
1006 1589
1006 1591
1006 1607
1006 1610
1006 1616
1006 1618
1006 1628
1006 1632
1006 1638
1006 1641
1006 1646
1006 1647
1006 1663
1006 1688
1006 1692
1006 1694
1006 1700
1006 1704
1006 1709
1006 1711
1006 1722
1006 1731
1006 1741
1006 1753
1006 1759
1006 1761
1006 1782
1006 1788
1006 1792
1006 1794
1006 1796
1006 1799
1006 1802
1006 1803
1006 1813
1006 1817
1006 1818
1006 1837
1006 1851
1006 1859
1006 1866
1006 1881
1006 1889
1006 1920
1006 1934
1006 1938
1006 1965
1006 1968
1006 1972
1006 1974
1006 1981
1006 1982
1006 1988
1006 1994
1006 2006
1006 2012
1006 2032
1006 2042
1006 2080
1006 2081
1006 2083
1006 2085
1006 2091
1006 2097
1006 2099
1006 2108
1006 2117
1006 2118
1006 2134
1006 2147
1006 2151
1006 2156
1006 2165
1006 2194
1006 2206
1006 2208
1006 2245
1006 2249
1007 1059
1007 1162
1007 1163
1007 1263
1007 1275
1007 1287
1007 1322
1007 1341
1007 1373
1007 1381
1007 1386
1007 1411
1007 1423
1007 1451
1007 1477
1007 1509
1007 1542
1007 1552
1007 1582
1007 1621
1007 1676
1007 1684
1007 1685
1007 1725
1007 1764
1007 1765
1007 1768
1007 1808
1007 1823
1007 1833
1007 1856
1007 1907
1007 1908
1007 1946
1007 1971
1007 1973
1007 2005
1007 2075
1007 2113
1007 2130
1007 2150
1007 2178
1007 2196
1007 2237
1007 2239
1008 1018
1008 1029
1008 1030
1008 1033
1008 1055
1008 1059
1008 1066
1008 1073
1008 1084
1008 1107
1008 1111
1008 1132
1008 1155
1008 1176
1008 1182
1008 1260
1008 1268
1008 1290
1008 1355
1008 1425
1008 1483
1008 1504
1008 1506
1008 1511
1008 1564
1008 1593
1008 1625
1008 1656
1008 1659
1008 1671
1008 1679
1008 1706
1008 1709
1008 1718
1008 1721
1008 1726
1008 1755
1008 1765
1008 1797
1008 1809
1008 1818
1008 1837
1008 1838
1008 1848
1008 1865
1008 1886
1008 1907
1008 1909
1008 1916
1008 1940
1008 1949
1008 1959
1008 1962
1008 1992
1008 1995
1008 2001
1008 2008
1008 2023
1008 2065
1008 2087
1008 2090
1008 2109
1008 2119
1008 2146
1008 2187
1008 2189
1008 2197
1008 2233
1009 1028
1009 1044
1009 1046
1009 1051
1009 1056
1009 1058
1009 1065
1009 1075
1009 1087
1009 1090
1009 1100
1009 1103
1009 1168
1009 1174
1009 1230
1009 1232
1009 1236
1009 1245
1009 1246
1009 1258
1009 1277
1009 1280
1009 1282
1009 1290
1009 1292
1009 1301
1009 1322
1009 1340
1009 1358
1009 1365
1009 1378
1009 1383
1009 1385
1009 1397
1009 1408
1009 1409
1009 1414
1009 1420
1009 1428
1009 1429
1009 1431
1009 1434
1009 1443
1009 1450
1009 1459
1009 1466
1009 1470
1009 1473
1009 1507
1009 1510
1009 1511
1009 1545
1009 1586
1009 1589
1009 1600
1009 1607
1009 1613
1009 1618
1009 1624
1009 1628
1009 1632
1009 1641
1009 1643
1009 1646
1009 1688
1009 1707
1009 1721
1009 1732
1009 1748
1009 1755
1009 1759
1009 1782
1009 1795
1009 1796
1009 1802
1009 1803
1009 1810
1009 1812
1009 1813
1009 1817
1009 1818
1009 1835
1009 1853
1009 1855
1009 1862
1009 1863
1009 1876
1009 1878
1009 1881
1009 1890
1009 1903
1009 1912
1009 1928
1009 1930
1009 1948
1009 1965
1009 1982
1009 1989
1009 2006
1009 2009
1009 2010
1009 2012
1009 2022
1009 2026
1009 2043
1009 2052
1009 2080
1009 2081
1009 2091
1009 2095
1009 2103
1009 2107
1009 2117
1009 2121
1009 2133
1009 2148
1009 2155
1009 2181
1009 2193
1009 2194
1009 2197
1009 2222
1009 2231
1010 1015
1010 1033
1010 1046
1010 1073
1010 1088
1010 1103
1010 1118
1010 1130
1010 1132
1010 1154
1010 1185
1010 1222
1010 1226
1010 1235
1010 1269
1010 1285
1010 1308
1010 1309
1010 1346
1010 1363
1010 1369
1010 1371
1010 1372
1010 1394
1010 1402
1010 1407
1010 1420
1010 1428
1010 1442
1010 1474
1010 1489
1010 1517
1010 1567
1010 1596
1010 1647
1010 1706
1010 1768
1010 1783
1010 1788
1010 1794
1010 1795
1010 1799
1010 1802
1010 1807
1010 1818
1010 1829
1010 1853
1010 1892
1010 1903
1010 1910
1010 1938
1010 1974
1010 2003
1010 2047
1010 2070
1010 2099
1010 2108
1010 2123
1010 2139
1010 2141
1010 2147
1010 2153
1010 2165
1010 2175
1010 2179
1010 2181
1010 2189
1011 1055
1011 1059
1011 1073
1011 1137
1011 1173
1011 1182
1011 1260
1011 1268
1011 1290
1011 1305
1011 1359
1011 1426
1011 1431
1011 1476
1011 1483
1011 1488
1011 1498
1011 1640
1011 1659
1011 1695
1011 1702
1011 1709
1011 1711
1011 1715
1011 1721
1011 1785
1011 1818
1011 1837
1011 1911
1011 1940
1011 2023
1011 2033
1011 2065
1011 2098
1011 2110
1011 2119
1011 2120
1011 2146
1011 2232
1012 1034
1012 1157
1012 1188
1012 1190
1012 1206
1012 1263
1012 1275
1012 1287
1012 1315
1012 1330
1012 1379
1012 1381
1012 1386
1012 1423
1012 1465
1012 1509
1012 1539
1012 1563
1012 1573
1012 1582
1012 1614
1012 1617
1012 1620
1012 1621
1012 1668
1012 1685
1012 1884
1012 1999
1012 2039
1012 2054
1012 2075
1012 2078
1012 2105
1012 2119
1012 2130
1012 2135
1012 2221
1012 2238
1013 1112
1013 1185
1013 1238
1013 1280
1013 1332
1013 1463
1013 1480
1013 1596
1013 1610
1013 1766
1013 1911
1013 2108
1013 2231
1014 1023
1014 1232
1014 1330
1014 1366
1014 1502
1014 1531
1014 1542
1014 1724
1014 1813
1014 2017
1014 2044
1014 2075
1014 2082
1015 1042
1015 1046
1015 1053
1015 1065
1015 1096
1015 1100
1015 1127
1015 1133
1015 1136
1015 1137
1015 1138
1015 1171
1015 1179
1015 1205
1015 1217
1015 1221
1015 1222
1015 1226
1015 1227
1015 1235
1015 1239
1015 1241
1015 1247
1015 1264
1015 1265
1015 1294
1015 1300
1015 1322
1015 1335
1015 1336
1015 1345
1015 1349
1015 1371
1015 1372
1015 1393
1015 1395
1015 1414
1015 1432
1015 1454
1015 1472
1015 1487
1015 1489
1015 1492
1015 1513
1015 1540
1015 1549
1015 1565
1015 1569
1015 1578
1015 1592
1015 1601
1015 1615
1015 1628
1015 1629
1015 1631
1015 1647
1015 1651
1015 1658
1015 1669
1015 1692
1015 1700
1015 1705
1015 1719
1015 1722
1015 1728
1015 1739
1015 1762
1015 1769
1015 1783
1015 1790
1015 1794
1015 1799
1015 1831
1015 1842
1015 1850
1015 1881
1015 1885
1015 1889
1015 1920
1015 1926
1015 1951
1015 1974
1015 1990
1015 1994
1015 2003
1015 2006
1015 2018
1015 2033
1015 2035
1015 2048
1015 2055
1015 2068
1015 2089
1015 2091
1015 2098
1015 2099
1015 2101
1015 2115
1015 2118
1015 2136
1015 2147
1015 2154
1015 2156
1015 2182
1015 2186
1015 2195
1015 2201
1015 2216
1015 2243
1016 1077
1016 1124
1016 1149
1016 1170
1016 1174
1016 1187
1016 1223
1016 1231
1016 1237
1016 1262
1016 1282
1016 1288
1016 1292
1016 1317
1016 1333
1016 1374
1016 1383
1016 1419
1016 1482
1016 1499
1016 1521
1016 1526
1016 1562
1016 1643
1016 1662
1016 1679
1016 1713
1016 1806
1016 1854
1016 1895
1016 1924
1016 1927
1016 1928
1016 1948
1016 1963
1016 2063
1016 2145
1017 1180
1017 1298
1017 1311
1017 1316
1017 1358
1017 1370
1017 1425
1017 1458
1017 1492
1017 1554
1017 1654
1017 1730
1017 1761
1017 1818
1017 1878
1017 1904
1017 1962
1017 2008
1017 2100
1017 2197
1017 2206
1018 1055
1018 1057
1018 1241
1018 1242
1018 1312
1018 1339
1018 1342
1018 1375
1018 1376
1018 1441
1018 1483
1018 1564
1018 1569
1018 1706
1018 1852
1018 1865
1018 1894
1018 1940
1018 2023
1018 2069
1018 2072
1018 2119
1018 2137
1018 2160
1018 2197
1018 2236
1018 2246
1018 2249
1019 1024
1019 1086
1019 1117
1019 1118
1019 1133
1019 1151
1019 1174
1019 1192
1019 1195
1019 1220
1019 1224
1019 1266
1019 1268
1019 1280
1019 1283
1019 1299
1019 1338
1019 1344
1019 1349
1019 1380
1019 1420
1019 1503
1019 1537
1019 1540
1019 1584
1019 1594
1019 1611
1019 1629
1019 1630
1019 1638
1019 1669
1019 1704
1019 1711
1019 1728
1019 1750
1019 1759
1019 1783
1019 1787
1019 1803
1019 1819
1019 1849
1019 1852
1019 1871
1019 1903
1019 1938
1019 1964
1019 1968
1019 2043
1019 2055
1019 2083
1019 2098
1019 2099
1019 2109
1019 2142
1019 2156
1019 2161
1019 2165
1019 2189
1019 2198
1019 2203
1019 2230
1019 2246
1020 1116
1020 1191
1020 1212
1020 1247
1020 1299
1020 1322
1020 1332
1020 1334
1020 1335
1020 1358
1020 1364
1020 1377
1020 1406
1020 1424
1020 1443
1020 1460
1020 1488
1020 1504
1020 1518
1020 1532
1020 1554
1020 1575
1020 1610
1020 1632
1020 1670
1020 1818
1020 1838
1020 1866
1020 1880
1020 1908
1020 1939
1020 1985
1020 2086
1020 2089
1020 2108
1020 2127
1020 2161
1020 2175
1020 2176
1020 2231
1020 2232
1021 1158
1021 1223
1021 1244
1021 1290
1021 1296
1021 1325
1021 1333
1021 1425
1021 1444
1021 1488
1021 1491
1021 1497
1021 1499
1021 1511
1021 1622
1021 1656
1021 1673
1021 1690
1021 1706
1021 1753
1021 1799
1021 1804
1021 1862
1021 1925
1021 1932
1021 1959
1021 1977
1021 2040
1021 2042
1021 2057
1021 2072
1021 2075
1021 2095
1021 2100
1021 2162
1021 2168
1021 2202
1021 2236
1022 1033
1022 1739
1023 1188
1023 1330
1023 1366
1023 1386
1023 1491
1023 1495
1023 1502
1023 1644
1023 1666
1023 1698
1023 1724
1023 1777
1023 1813
1023 1841
1023 1986
1023 2017
1023 2044
1023 2075
1023 2082
1024 1029
1024 1033
1024 1059
1024 1066
1024 1192
1024 1236
1024 1317
1024 1338
1024 1382
1024 1413
1024 1473
1024 1474
1024 1493
1024 1503
1024 1589
1024 1594
1024 1656
1024 1803
1024 1818
1024 1859
1024 1878
1024 1962
1024 1975
1024 2022
1024 2026
1024 2098
1024 2235
1024 2249
1025 1157
1025 1190
1025 1302
1025 1330
1025 1423
1025 1465
1025 1479
1025 1491
1025 1614
1025 1621
1025 1659
1025 1821
1025 2045
1025 2059
1025 2075
1025 2105
1025 2106
1025 2130
1025 2164
1025 2210
1025 2227
1025 2238
1025 2247
1026 1030
1026 1202
1026 1230
1026 1232
1026 1242
1026 1272
1026 1278
1026 1313
1026 1322
1026 1376
1026 1408
1026 1431
1026 1445
1026 1461
1026 1501
1026 1596
1026 1671
1026 1706
1026 1708
1026 1743
1026 1746
1026 1824
1026 1837
1026 1894
1026 1925
1026 1942
1026 2069
1026 2185
1026 2187
1026 2202
1026 2204
1026 2249
1027 1104
1027 1119
1027 1194
1027 1373
1027 1491
1027 1561
1027 1585
1027 1606
1027 1833
1027 2078
1027 2223
1027 2227
1028 1044
1028 1056
1028 1100
1028 1103
1028 1129
1028 1133
1028 1222
1028 1230
1028 1245
1028 1265
1028 1277
1028 1283
1028 1294
1028 1304
1028 1335
1028 1359
1028 1378
1028 1394
1028 1409
1028 1414
1028 1450
1028 1487
1028 1493
1028 1500
1028 1589
1028 1600
1028 1607
1028 1628
1028 1700
1028 1711
1028 1744
1028 1745
1028 1749
1028 1774
1028 1783
1028 1794
1028 1796
1028 1818
1028 1876
1028 1927
1028 1966
1028 1976
1028 1982
1028 2012
1028 2098
1028 2099
1028 2118
1028 2124
1028 2131
1028 2136
1028 2201
1028 2205
1029 1030
1029 1033
1029 1046
1029 1051
1029 1054
1029 1055
1029 1059
1029 1062
1029 1065
1029 1066
1029 1068
1029 1073
1029 1075
1029 1084
1029 1089
1029 1094
1029 1103
1029 1104
1029 1107
1029 1109
1029 1111
1029 1118
1029 1119
1029 1142
1029 1145
1029 1154
1029 1155
1029 1158
1029 1176
1029 1182
1029 1189
1029 1200
1029 1212
1029 1217
1029 1235
1029 1240
1029 1241
1029 1244
1029 1245
1029 1260
1029 1267
1029 1268
1029 1270
1029 1279
1029 1280
1029 1289
1029 1290
1029 1298
1029 1305
1029 1311
1029 1321
1029 1322
1029 1324
1029 1334
1029 1339
1029 1342
1029 1346
1029 1348
1029 1353
1029 1355
1029 1367
1029 1370
1029 1376
1029 1384
1029 1388
1029 1391
1029 1397
1029 1408
1029 1410
1029 1421
1029 1424
1029 1425
1029 1429
1029 1430
1029 1431
1029 1436
1029 1447
1029 1448
1029 1456
1029 1460
1029 1470
1029 1471
1029 1473
1029 1483
1029 1488
1029 1489
1029 1491
1029 1492
1029 1498
1029 1504
1029 1506
1029 1511
1029 1512
1029 1518
1029 1538
1029 1546
1029 1554
1029 1555
1029 1558
1029 1564
1029 1566
1029 1567
1029 1574
1029 1577
1029 1579
1029 1593
1029 1605
1029 1612
1029 1616
1029 1622
1029 1625
1029 1634
1029 1642
1029 1643
1029 1645
1029 1654
1029 1656
1029 1657
1029 1659
1029 1665
1029 1669
1029 1673
1029 1679
1029 1685
1029 1690
1029 1701
1029 1706
1029 1718
1029 1720
1029 1721
1029 1723
1029 1730
1029 1747
1029 1753
1029 1755
1029 1761
1029 1763
1029 1765
1029 1772
1029 1785
1029 1787
1029 1794
1029 1797
1029 1799
1029 1800
1029 1802
1029 1803
1029 1804
1029 1805
1029 1809
1029 1813
1029 1818
1029 1828
1029 1837
1029 1838
1029 1848
1029 1849
1029 1853
1029 1859
1029 1865
1029 1866
1029 1869
1029 1875
1029 1883
1029 1886
1029 1890
1029 1892
1029 1896
1029 1899
1029 1901
1029 1902
1029 1903
1029 1904
1029 1909
1029 1915
1029 1917
1029 1923
1029 1929
1029 1940
1029 1947
1029 1949
1029 1952
1029 1959
1029 1962
1029 1973
1029 1977
1029 1984
1029 1992
1029 1995
1029 2001
1029 2008
1029 2010
1029 2011
1029 2023
1029 2034
1029 2036
1029 2040
1029 2042
1029 2064
1029 2065
1029 2069
1029 2080
1029 2085
1029 2087
1029 2090
1029 2091
1029 2099
1029 2100
1029 2103
1029 2109
1029 2119
1029 2127
1029 2133
1029 2137
1029 2139
1029 2141
1029 2146
1029 2153
1029 2162
1029 2166
1029 2168
1029 2169
1029 2171
1029 2175
1029 2183
1029 2190
1029 2195
1029 2197
1029 2200
1029 2202
1029 2206
1029 2213
1029 2219
1029 2222
1029 2233
1029 2236
1029 2248
1030 1033
1030 1038
1030 1062
1030 1066
1030 1090
1030 1125
1030 1145
1030 1182
1030 1189
1030 1200
1030 1240
1030 1260
1030 1269
1030 1311
1030 1312
1030 1318
1030 1324
1030 1342
1030 1355
1030 1384
1030 1388
1030 1395
1030 1431
1030 1436
1030 1441
1030 1460
1030 1474
1030 1488
1030 1497
1030 1554
1030 1593
1030 1596
1030 1611
1030 1612
1030 1646
1030 1647
1030 1654
1030 1657
1030 1665
1030 1692
1030 1720
1030 1730
1030 1739
1030 1747
1030 1755
1030 1772
1030 1787
1030 1799
1030 1805
1030 1809
1030 1818
1030 1819
1030 1824
1030 1837
1030 1852
1030 1865
1030 1880
1030 1913
1030 1947
1030 1949
1030 1959
1030 1962
1030 1995
1030 2001
1030 2008
1030 2017
1030 2043
1030 2050
1030 2052
1030 2059
1030 2060
1030 2065
1030 2069
1030 2100
1030 2156
1030 2160
1030 2175
1030 2190
1030 2197
1030 2200
1030 2206
1030 2233
1030 2246
1031 1034
1031 1045
1031 1095
1031 1157
1031 1183
1031 1252
1031 1275
1031 1291
1031 1326
1031 1330
1031 1373
1031 1379
1031 1386
1031 1509
1031 1553
1031 1583
1031 1602
1031 1617
1031 1621
1031 1648
1031 1818
1031 1833
1031 1907
1031 1921
1031 1933
1031 1945
1031 1946
1031 2014
1031 2184
1031 2210
1032 1198
1032 1263
1032 1608
1032 1717
1032 2221
1033 1035
1033 1057
1033 1073
1033 1078
1033 1084
1033 1096
1033 1100
1033 1113
1033 1116
1033 1117
1033 1137
1033 1141
1033 1154
1033 1174
1033 1212
1033 1217
1033 1221
1033 1222
1033 1227
1033 1235
1033 1239
1033 1241
1033 1264
1033 1295
1033 1299
1033 1320
1033 1327
1033 1329
1033 1342
1033 1363
1033 1365
1033 1367
1033 1372
1033 1375
1033 1389
1033 1393
1033 1413
1033 1420
1033 1426
1033 1454
1033 1460
1033 1474
1033 1482
1033 1489
1033 1493
1033 1515
1033 1520
1033 1526
1033 1540
1033 1554
1033 1564
1033 1569
1033 1592
1033 1594
1033 1611
1033 1612
1033 1628
1033 1629
1033 1630
1033 1637
1033 1647
1033 1669
1033 1689
1033 1692
1033 1697
1033 1699
1033 1705
1033 1741
1033 1745
1033 1783
1033 1787
1033 1795
1033 1799
1033 1818
1033 1850
1033 1852
1033 1858
1033 1859
1033 1867
1033 1872
1033 1880
1033 1885
1033 1889
1033 1892
1033 1893
1033 1898
1033 1903
1033 1909
1033 1926
1033 1940
1033 1943
1033 1957
1033 1974
1033 2009
1033 2017
1033 2023
1033 2025
1033 2043
1033 2086
1033 2089
1033 2091
1033 2098
1033 2100
1033 2120
1033 2132
1033 2146
1033 2195
1034 1045
1034 1101
1034 1123
1034 1148
1034 1157
1034 1163
1034 1188
1034 1196
1034 1234
1034 1250
1034 1254
1034 1263
1034 1275
1034 1287
1034 1307
1034 1315
1034 1330
1034 1386
1034 1423
1034 1477
1034 1495
1034 1509
1034 1529
1034 1531
1034 1535
1034 1536
1034 1539
1034 1551
1034 1553
1034 1561
1034 1583
1034 1614
1034 1620
1034 1621
1034 1644
1034 1666
1034 1668
1034 1672
1034 1684
1034 1698
1034 1717
1034 1776
1034 1778
1034 1784
1034 1811
1034 1814
1034 1834
1034 1884
1034 1907
1034 1921
1034 1933
1034 1945
1034 1978
1034 2002
1034 2054
1034 2061
1034 2075
1034 2082
1034 2105
1034 2106
1034 2130
1034 2135
1034 2180
1034 2207
1034 2210
1034 2211
1034 2215
1034 2221
1034 2227
1034 2238
1034 2240
1034 2242
1034 2244
1035 1046
1035 1165
1035 1169
1035 1238
1035 1327
1035 1406
1035 1474
1035 1475
1035 1596
1035 1607
1035 1613
1035 1694
1035 1792
1035 1867
1035 1904
1035 2043
1035 2131
1035 2140
1035 2205
1035 2208
1036 1047
1036 1114
1036 1187
1036 1390
1036 1428
1036 1571
1036 1799
1036 1806
1036 2031
1036 2097
1036 2125
1037 1053
1037 1083
1037 1136
1037 1171
1037 1222
1037 1239
1037 1266
1037 1372
1037 1454
1037 1603
1037 1630
1037 1705
1037 1775
1037 1910
1037 1974
1037 2141
1037 2157
1037 2188
1038 1062
1038 1066
1038 1073
1038 1079
1038 1084
1038 1098
1038 1111
1038 1240
1038 1255
1038 1260
1038 1266
1038 1276
1038 1279
1038 1289
1038 1311
1038 1332
1038 1334
1038 1354
1038 1425
1038 1431
1038 1436
1038 1447
1038 1460
1038 1471
1038 1483
1038 1538
1038 1541
1038 1546
1038 1567
1038 1603
1038 1630
1038 1642
1038 1656
1038 1730
1038 1768
1038 1797
1038 1822
1038 1902
1038 1910
1038 1916
1038 1917
1038 1959
1038 1995
1038 2036
1038 2042
1038 2046
1038 2066
1038 2069
1038 2090
1038 2100
1038 2127
1038 2157
1038 2168
1038 2185
1038 2200
1038 2206
1038 2248
1039 1968
1040 1066
1040 1107
1040 1128
1040 1158
1040 1176
1040 1191
1040 1244
1040 1268
1040 1273
1040 1278
1040 1290
1040 1388
1040 1436
1040 1439
1040 1444
1040 1454
1040 1463
1040 1473
1040 1488
1040 1511
1040 1569
1040 1625
1040 1681
1040 1706
1040 1720
1040 1721
1040 1726
1040 1753
1040 1763
1040 1772
1040 1804
1040 1860
1040 1863
1040 1892
1040 1894
1040 1940
1040 2043
1040 2121
1040 2162
1040 2202
1041 1060
1041 2017
1042 1063
1042 1120
1042 1137
1042 1138
1042 1221
1042 1222
1042 1235
1042 1253
1042 1283
1042 1352
1042 1370
1042 1395
1042 1414
1042 1453
1042 1474
1042 1489
1042 1549
1042 1592
1042 1619
1042 1669
1042 1670
1042 1731
1042 1739
1042 1769
1042 1794
1042 1796
1042 1881
1042 1885
1042 1889
1042 1892
1042 1920
1042 1974
1042 1994
1042 2016
1042 2068
1042 2085
1042 2115
1042 2231
1043 1046
1043 1054
1043 1117
1043 1132
1043 1163
1043 1176
1043 1180
1043 1205
1043 1240
1043 1269
1043 1270
1043 1307
1043 1322
1043 1358
1043 1364
1043 1369
1043 1391
1043 1486
1043 1517
1043 1527
1043 1554
1043 1565
1043 1625
1043 1630
1043 1659
1043 1706
1043 1712
1043 1772
1043 1795
1043 1799
1043 1818
1043 1875
1043 1929
1043 2010
1043 2052
1043 2072
1043 2083
1043 2100
1043 2127
1043 2134
1043 2139
1043 2167
1043 2175
1043 2189
1043 2200
1044 1048
1044 1051
1044 1056
1044 1087
1044 1100
1044 1129
1044 1135
1044 1144
1044 1154
1044 1168
1044 1217
1044 1221
1044 1224
1044 1225
1044 1230
1044 1236
1044 1265
1044 1277
1044 1304
1044 1340
1044 1356
1044 1368
1044 1409
1044 1434
1044 1450
1044 1487
1044 1507
1044 1510
1044 1514
1044 1533
1044 1545
1044 1569
1044 1589
1044 1591
1044 1600
1044 1607
1044 1613
1044 1618
1044 1628
1044 1641
1044 1647
1044 1688
1044 1728
1044 1759
1044 1768
1044 1796
1044 1807
1044 1817
1044 1818
1044 1835
1044 1850
1044 1876
1044 1930
1044 1938
1044 1965
1044 1981
1044 1982
1044 2081
1044 2091
1044 2148
1044 2165
1044 2194
1045 1074
1045 1095
1045 1148
1045 1153
1045 1157
1045 1162
1045 1252
1045 1275
1045 1291
1045 1326
1045 1330
1045 1386
1045 1423
1045 1509
1045 1515
1045 1529
1045 1531
1045 1582
1045 1595
1045 1620
1045 1621
1045 1630
1045 1672
1045 1687
1045 1698
1045 1717
1045 1755
1045 1797
1045 1800
1045 1833
1045 1841
1045 1873
1045 1877
1045 1899
1045 1921
1045 1933
1045 1945
1045 1946
1045 2075
1045 2105
1045 2180
1045 2184
1045 2211
1045 2227
1045 2238
1045 2244
1046 1048
1046 1054
1046 1066
1046 1073
1046 1075
1046 1084
1046 1090
1046 1100
1046 1109
1046 1125
1046 1129
1046 1132
1046 1133
1046 1138
1046 1143
1046 1144
1046 1155
1046 1157
1046 1169
1046 1174
1046 1179
1046 1204
1046 1205
1046 1212
1046 1220
1046 1221
1046 1227
1046 1230
1046 1235
1046 1236
1046 1241
1046 1246
1046 1251
1046 1280
1046 1282
1046 1283
1046 1288
1046 1289
1046 1294
1046 1301
1046 1310
1046 1320
1046 1321
1046 1322
1046 1340
1046 1344
1046 1346
1046 1356
1046 1358
1046 1359
1046 1375
1046 1376
1046 1393
1046 1394
1046 1396
1046 1406
1046 1408
1046 1414
1046 1421
1046 1428
1046 1454
1046 1474
1046 1475
1046 1476
1046 1483
1046 1489
1046 1492
1046 1512
1046 1518
1046 1522
1046 1526
1046 1540
1046 1549
1046 1566
1046 1570
1046 1572
1046 1579
1046 1581
1046 1601
1046 1603
1046 1608
1046 1613
1046 1630
1046 1645
1046 1646
1046 1651
1046 1653
1046 1654
1046 1658
1046 1659
1046 1669
1046 1671
1046 1682
1046 1694
1046 1697
1046 1704
1046 1726
1046 1732
1046 1741
1046 1742
1046 1743
1046 1748
1046 1759
1046 1780
1046 1794
1046 1795
1046 1799
1046 1802
1046 1803
1046 1818
1046 1825
1046 1828
1046 1859
1046 1863
1046 1865
1046 1868
1046 1874
1046 1875
1046 1883
1046 1891
1046 1903
1046 1923
1046 1926
1046 1928
1046 1930
1046 1940
1046 1945
1046 1948
1046 1949
1046 1951
1046 1973
1046 1982
1046 1989
1046 1994
1046 2003
1046 2012
1046 2018
1046 2035
1046 2043
1046 2045
1046 2051
1046 2052
1046 2055
1046 2072
1046 2076
1046 2082
1046 2085
1046 2089
1046 2099
1046 2103
1046 2104
1046 2110
1046 2117
1046 2118
1046 2139
1046 2142
1046 2143
1046 2147
1046 2166
1046 2174
1046 2182
1046 2185
1046 2189
1046 2195
1046 2201
1046 2203
1046 2204
1046 2231
1046 2235
1046 2236
1046 2243
1046 2249
1047 1088
1047 1099
1047 1150
1047 1164
1047 1171
1047 1181
1047 1243
1047 1325
1047 1559
1047 1840
1047 1872
1047 1961
1047 1969
1047 2032
1047 2228
1048 1063
1048 1133
1048 1137
1048 1165
1048 1169
1048 1195
1048 1226
1048 1227
1048 1235
1048 1274
1048 1342
1048 1359
1048 1368
1048 1378
1048 1437
1048 1453
1048 1472
1048 1474
1048 1476
1048 1489
1048 1492
1048 1514
1048 1540
1048 1547
1048 1554
1048 1581
1048 1586
1048 1611
1048 1640
1048 1646
1048 1669
1048 1694
1048 1695
1048 1704
1048 1711
1048 1783
1048 1803
1048 1807
1048 1852
1048 1875
1048 1885
1048 1903
1048 1911
1048 1926
1048 1960
1048 1982
1048 2023
1048 2033
1048 2074
1048 2077
1048 2120
1048 2131
1048 2146
1048 2156
1048 2165
1048 2194
1048 2195
1048 2198
1048 2205
1048 2208
1048 2222
1048 2225
1049 1107
1049 1314
1049 1409
1049 1474
1049 1545
1049 1671
1049 2133
1049 2236
1050 1142
1050 1315
1050 1330
1050 1373
1050 1386
1050 1423
1050 1509
1050 1525
1050 1582
1050 1606
1050 1620
1050 1636
1050 1652
1050 1672
1050 1685
1050 1689
1050 1821
1050 1893
1050 1907
1050 1915
1050 1995
1050 1996
1050 2075
1050 2150
1050 2210
1050 2221
1050 2227
1051 1168
1051 1277
1051 1409
1051 1487
1051 1607
1051 1628
1051 1688
1051 1796
1051 1855
1051 1863
1051 2121
1052 1289
1052 1369
1052 1504
1052 1622
1052 1995
1052 2109
1053 1063
1053 1136
1053 1137
1053 1221
1053 1226
1053 1230
1053 1239
1053 1309
1053 1414
1053 1474
1053 1549
1053 1569
1053 1572
1053 1631
1053 1670
1053 1699
1053 1739
1053 1745
1053 1749
1053 1770
1053 1774
1053 1794
1053 1855
1053 1874
1053 1885
1053 1894
1053 1911
1053 1920
1053 1968
1053 1991
1053 2003
1053 2012
1053 2026
1053 2029
1053 2068
1053 2091
1053 2118
1053 2141
1053 2143
1053 2201
1053 2222
1053 2231
1053 2241
1054 1066
1054 1068
1054 1073
1054 1084
1054 1089
1054 1107
1054 1109
1054 1111
1054 1125
1054 1176
1054 1191
1054 1232
1054 1272
1054 1290
1054 1298
1054 1354
1054 1356
1054 1370
1054 1376
1054 1388
1054 1410
1054 1421
1054 1430
1054 1431
1054 1506
1054 1512
1054 1538
1054 1558
1054 1564
1054 1567
1054 1605
1054 1642
1054 1645
1054 1654
1054 1656
1054 1664
1054 1671
1054 1673
1054 1679
1054 1706
1054 1720
1054 1721
1054 1761
1054 1809
1054 1818
1054 1837
1054 1847
1054 1863
1054 1866
1054 1916
1054 1934
1054 1962
1054 1967
1054 1975
1054 1977
1054 1992
1054 2036
1054 2042
1054 2052
1054 2064
1054 2065
1054 2066
1054 2069
1054 2072
1054 2087
1054 2090
1054 2166
1054 2185
1054 2202
1054 2206
1054 2236
1054 2249
1055 1066
1055 1176
1055 1268
1055 1307
1055 1355
1055 1483
1055 1659
1055 1702
1055 1706
1055 1761
1055 1765
1055 1940
1055 1955
1055 2023
1055 2052
1055 2119
1055 2146
1055 2171
1056 1080
1056 1100
1056 1104
1056 1155
1056 1169
1056 1180
1056 1220
1056 1225
1056 1230
1056 1236
1056 1277
1056 1304
1056 1332
1056 1378
1056 1380
1056 1391
1056 1409
1056 1421
1056 1425
1056 1454
1056 1473
1056 1491
1056 1493
1056 1498
1056 1503
1056 1550
1056 1586
1056 1589
1056 1607
1056 1613
1056 1628
1056 1641
1056 1688
1056 1694
1056 1732
1056 1759
1056 1792
1056 1796
1056 1813
1056 1818
1056 1849
1056 1859
1056 1863
1056 1875
1056 1876
1056 1930
1056 1952
1056 1965
1056 1981
1056 1982
1056 1990
1056 2008
1056 2012
1056 2055
1056 2081
1056 2085
1056 2131
1056 2142
1056 2148
1056 2205
1057 1059
1057 1089
1057 1111
1057 1155
1057 1202
1057 1241
1057 1242
1057 1255
1057 1307
1057 1327
1057 1339
1057 1360
1057 1364
1057 1376
1057 1385
1057 1431
1057 1446
1057 1478
1057 1498
1057 1554
1057 1564
1057 1671
1057 1708
1057 1718
1057 1747
1057 1753
1057 1824
1057 1837
1057 1870
1057 1894
1057 1942
1057 1952
1057 1964
1057 2015
1057 2056
1057 2137
1057 2147
1057 2158
1057 2160
1057 2202
1057 2233
1057 2236
1057 2249
1058 1059
1058 1100
1058 1112
1058 1230
1058 1232
1058 1277
1058 1290
1058 1322
1058 1385
1058 1391
1058 1397
1058 1409
1058 1434
1058 1520
1058 1532
1058 1600
1058 1607
1058 1632
1058 1641
1058 1681
1058 1709
1058 1715
1058 1739
1058 1743
1058 1774
1058 1813
1058 1818
1058 1881
1058 1965
1058 1982
1058 2012
1058 2065
1058 2076
1058 2117
1058 2121
1058 2134
1058 2148
1058 2161
1058 2174
1058 2205
1058 2235
1059 1066
1059 1073
1059 1074
1059 1089
1059 1107
1059 1118
1059 1155
1059 1176
1059 1233
1059 1247
1059 1268
1059 1275
1059 1289
1059 1290
1059 1298
1059 1365
1059 1370
1059 1421
1059 1460
1059 1473
1059 1520
1059 1558
1059 1565
1059 1593
1059 1656
1059 1706
1059 1720
1059 1730
1059 1765
1059 1771
1059 1816
1059 1818
1059 1828
1059 1846
1059 1849
1059 1866
1059 1883
1059 1886
1059 1894
1059 1896
1059 1908
1059 1911
1059 1923
1059 1959
1059 1992
1059 2020
1059 2023
1059 2036
1059 2042
1059 2043
1059 2064
1059 2091
1059 2104
1059 2109
1059 2121
1059 2153
1059 2159
1059 2202
1059 2219
1060 1315
1060 1326
1060 1410
1060 1412
1060 1465
1060 1519
1060 1529
1060 1551
1060 1614
1060 1621
1060 1668
1060 1757
1060 2007
1060 2059
1060 2075
1060 2105
1060 2164
1060 2238
1060 2247
1061 1103
1061 1211
1061 1220
1061 1280
1061 1323
1061 1346
1061 1357
1061 1369
1061 1413
1061 1452
1061 1489
1061 1607
1061 1667
1061 1700
1061 1747
1061 1782
1061 1799
1061 1802
1061 1898
1061 1931
1061 1968
1061 2043
1061 2097
1061 2099
1061 2134
1061 2165
1061 2206
1062 1064
1062 1066
1062 1073
1062 1084
1062 1098
1062 1111
1062 1191
1062 1240
1062 1255
1062 1260
1062 1266
1062 1278
1062 1279
1062 1289
1062 1290
1062 1334
1062 1354
1062 1376
1062 1425
1062 1430
1062 1436
1062 1439
1062 1447
1062 1460
1062 1471
1062 1483
1062 1488
1062 1538
1062 1546
1062 1558
1062 1566
1062 1567
1062 1591
1062 1593
1062 1602
1062 1605
1062 1612
1062 1625
1062 1630
1062 1642
1062 1690
1062 1701
1062 1720
1062 1768
1062 1804
1062 1809
1062 1818
1062 1822
1062 1828
1062 1848
1062 1853
1062 1894
1062 1899
1062 1902
1062 1910
1062 1917
1062 1923
1062 1929
1062 1947
1062 1955
1062 1959
1062 1962
1062 1977
1062 1995
1062 2026
1062 2036
1062 2042
1062 2066
1062 2090
1062 2100
1062 2127
1062 2168
1062 2185
1062 2190
1062 2200
1062 2206
1062 2213
1062 2232
1062 2248
1063 1129
1063 1137
1063 1138
1063 1143
1063 1154
1063 1180
1063 1205
1063 1221
1063 1235
1063 1264
1063 1274
1063 1298
1063 1346
1063 1361
1063 1453
1063 1472
1063 1474
1063 1488
1063 1489
1063 1492
1063 1514
1063 1537
1063 1538
1063 1554
1063 1575
1063 1592
1063 1654
1063 1670
1063 1704
1063 1716
1063 1730
1063 1739
1063 1749
1063 1769
1063 1770
1063 1789
1063 1796
1063 1799
1063 1802
1063 1838
1063 1852
1063 1859
1063 1874
1063 1878
1063 1885
1063 1960
1063 1962
1063 1974
1063 1975
1063 2003
1063 2029
1063 2074
1063 2089
1063 2099
1063 2104
1063 2134
1063 2189
1063 2206
1063 2222
1064 1109
1064 1110
1064 1111
1064 1176
1064 1208
1064 1260
1064 1269
1064 1305
1064 1311
1064 1376
1064 1425
1064 1458
1064 1482
1064 1504
1064 1527
1064 1593
1064 1625
1064 1673
1064 1690
1064 1701
1064 1706
1064 1730
1064 1751
1064 1753
1064 1809
1064 1836
1064 1846
1064 1883
1064 1929
1064 1955
1064 1969
1064 1993
1064 2036
1064 2037
1064 2040
1064 2100
1064 2104
1064 2139
1064 2168
1064 2213
1064 2248
1065 1073
1065 1075
1065 1094
1065 1112
1065 1136
1065 1137
1065 1221
1065 1235
1065 1241
1065 1245
1065 1264
1065 1280
1065 1304
1065 1309
1065 1322
1065 1336
1065 1372
1065 1384
1065 1391
1065 1394
1065 1408
1065 1424
1065 1429
1065 1431
1065 1470
1065 1486
1065 1511
1065 1560
1065 1569
1065 1647
1065 1705
1065 1707
1065 1739
1065 1755
1065 1788
1065 1790
1065 1799
1065 1828
1065 1850
1065 1859
1065 1889
1065 1892
1065 1903
1065 1912
1065 1948
1065 1974
1065 2023
1065 2035
1065 2047
1065 2080
1065 2085
1065 2089
1065 2091
1065 2129
1065 2131
1065 2132
1065 2134
1065 2162
1065 2177
1065 2189
1065 2197
1066 1073
1066 1079
1066 1089
1066 1104
1066 1107
1066 1111
1066 1119
1066 1155
1066 1176
1066 1182
1066 1185
1066 1212
1066 1217
1066 1227
1066 1230
1066 1241
1066 1242
1066 1244
1066 1260
1066 1268
1066 1269
1066 1271
1066 1272
1066 1289
1066 1293
1066 1311
1066 1312
1066 1324
1066 1339
1066 1342
1066 1353
1066 1354
1066 1355
1066 1365
1066 1369
1066 1375
1066 1384
1066 1388
1066 1391
1066 1397
1066 1410
1066 1425
1066 1430
1066 1431
1066 1436
1066 1456
1066 1459
1066 1463
1066 1470
1066 1471
1066 1483
1066 1504
1066 1505
1066 1506
1066 1511
1066 1512
1066 1524
1066 1538
1066 1558
1066 1566
1066 1567
1066 1593
1066 1612
1066 1642
1066 1643
1066 1645
1066 1659
1066 1664
1066 1665
1066 1673
1066 1681
1066 1701
1066 1706
1066 1718
1066 1720
1066 1721
1066 1723
1066 1726
1066 1747
1066 1753
1066 1755
1066 1756
1066 1765
1066 1768
1066 1772
1066 1802
1066 1809
1066 1818
1066 1837
1066 1838
1066 1841
1066 1846
1066 1847
1066 1866
1066 1869
1066 1875
1066 1880
1066 1883
1066 1902
1066 1909
1066 1923
1066 1934
1066 1936
1066 1940
1066 1955
1066 1962
1066 1967
1066 1992
1066 1993
1066 1995
1066 1996
1066 2010
1066 2022
1066 2023
1066 2036
1066 2042
1066 2046
1066 2052
1066 2056
1066 2069
1066 2072
1066 2087
1066 2100
1066 2101
1066 2119
1066 2146
1066 2162
1066 2167
1066 2168
1066 2169
1066 2177
1066 2186
1066 2189
1066 2190
1066 2197
1066 2200
1066 2202
1066 2206
1066 2233
1066 2236
1066 2245
1066 2248
1067 1081
1067 1106
1067 1122
1067 1126
1067 1131
1067 1139
1067 1154
1067 1158
1067 1160
1067 1218
1067 1222
1067 1270
1067 1309
1067 1359
1067 1371
1067 1372
1067 1394
1067 1402
1067 1428
1067 1429
1067 1432
1067 1442
1067 1450
1067 1549
1067 1572
1067 1576
1067 1690
1067 1739
1067 1768
1067 1791
1067 1799
1067 1801
1067 1836
1067 1854
1067 1889
1067 1919
1067 1932
1067 1956
1067 1966
1067 1977
1067 2040
1067 2041
1067 2088
1067 2089
1067 2096
1067 2115
1067 2141
1067 2168
1067 2170
1067 2179
1067 2183
1067 2189
1067 2228
1068 1097
1068 1111
1068 1119
1068 1142
1068 1200
1068 1223
1068 1244
1068 1249
1068 1271
1068 1307
1068 1324
1068 1373
1068 1374
1068 1394
1068 1425
1068 1448
1068 1480
1068 1512
1068 1566
1068 1593
1068 1643
1068 1645
1068 1665
1068 1668
1068 1679
1068 1701
1068 1723
1068 1755
1068 1782
1068 1802
1068 1841
1068 1923
1068 1930
1068 1962
1068 1995
1068 2065
1068 2072
1068 2100
1068 2110
1068 2133
1068 2169
1068 2173
1068 2193
1068 2197
1068 2206
1068 2219
1068 2233
1069 1255
1069 1716
1069 1743
1069 1894
1069 1979
1069 2102
1069 2174
1069 2187
1070 1071
1070 1086
1070 1099
1070 1140
1070 1218
1070 1270
1070 1279
1070 1323
1070 1325
1070 1333
1070 1351
1070 1387
1070 1544
1070 1562
1070 1576
1070 1591
1070 1609
1070 1635
1070 1667
1070 1723
1070 1782
1070 1791
1070 1802
1070 1887
1070 1906
1070 1912
1070 1915
1070 1930
1070 2020
1070 2079
1070 2124
1071 1077
1071 1086
1071 1088
1071 1124
1071 1150
1071 1164
1071 1174
1071 1187
1071 1195
1071 1229
1071 1243
1071 1251
1071 1254
1071 1256
1071 1270
1071 1279
1071 1282
1071 1284
1071 1321
1071 1348
1071 1349
1071 1387
1071 1408
1071 1429
1071 1438
1071 1459
1071 1468
1071 1499
1071 1555
1071 1567
1071 1576
1071 1602
1071 1634
1071 1638
1071 1661
1071 1662
1071 1679
1071 1701
1071 1713
1071 1750
1071 1768
1071 1788
1071 1791
1071 1802
1071 1806
1071 1840
1071 1872
1071 1890
1071 1895
1071 1923
1071 1924
1071 1927
1071 1928
1071 1938
1071 1963
1071 1969
1071 1977
1071 2006
1071 2020
1071 2022
1071 2038
1071 2040
1071 2062
1071 2070
1071 2080
1071 2083
1071 2088
1071 2116
1071 2125
1071 2153
1071 2183
1071 2230
1071 2246
1072 1184
1072 1234
1072 1275
1072 1315
1072 1465
1072 1648
1072 1834
1072 2039
1073 1084
1073 1089
1073 1094
1073 1109
1073 1111
1073 1155
1073 1161
1073 1176
1073 1240
1073 1268
1073 1269
1073 1289
1073 1298
1073 1311
1073 1316
1073 1322
1073 1332
1073 1334
1073 1353
1073 1355
1073 1358
1073 1367
1073 1369
1073 1384
1073 1430
1073 1431
1073 1460
1073 1471
1073 1483
1073 1492
1073 1497
1073 1504
1073 1517
1073 1524
1073 1538
1073 1558
1073 1564
1073 1567
1073 1569
1073 1605
1073 1623
1073 1654
1073 1656
1073 1690
1073 1706
1073 1718
1073 1720
1073 1730
1073 1755
1073 1772
1073 1805
1073 1809
1073 1818
1073 1828
1073 1837
1073 1848
1073 1859
1073 1866
1073 1875
1073 1877
1073 1892
1073 1896
1073 1902
1073 1903
1073 1909
1073 1917
1073 1923
1073 1936
1073 1940
1073 1949
1073 1962
1073 1967
1073 1987
1073 1995
1073 2001
1073 2023
1073 2036
1073 2042
1073 2043
1073 2065
1073 2066
1073 2069
1073 2072
1073 2090
1073 2100
1073 2131
1073 2162
1073 2167
1073 2171
1073 2175
1073 2186
1073 2197
1073 2202
1073 2206
1073 2231
1073 2248
1073 2249
1074 1254
1074 1315
1074 1362
1074 1370
1074 1529
1074 1572
1074 1682
1074 1687
1074 1823
1074 1833
1074 1907
1074 1921
1074 2060
1074 2061
1074 2075
1074 2180
1074 2221
1075 1103
1075 1129
1075 1137
1075 1187
1075 1197
1075 1205
1075 1218
1075 1222
1075 1226
1075 1235
1075 1251
1075 1280
1075 1282
1075 1283
1075 1304
1075 1309
1075 1322
1075 1348
1075 1393
1075 1406
1075 1414
1075 1424
1075 1441
1075 1453
1075 1470
1075 1489
1075 1526
1075 1569
1075 1626
1075 1643
1075 1722
1075 1755
1075 1783
1075 1788
1075 1794
1075 1795
1075 1799
1075 1802
1075 1803
1075 1825
1075 1853
1075 1890
1075 1891
1075 1892
1075 1931
1075 1947
1075 1953
1075 1959
1075 1969
1075 2021
1075 2048
1075 2080
1075 2101
1075 2118
1075 2125
1075 2134
1075 2142
1075 2143
1075 2153
1075 2203
1075 2234
1076 1118
1076 1321
1076 1346
1076 1849
1077 1106
1077 1122
1077 1152
1077 1164
1077 1187
1077 1218
1077 1229
1077 1251
1077 1270
1077 1288
1077 1323
1077 1333
1077 1351
1077 1365
1077 1408
1077 1438
1077 1460
1077 1526
1077 1544
1077 1562
1077 1576
1077 1584
1077 1609
1077 1638
1077 1667
1077 1723
1077 1799
1077 1802
1077 1806
1077 1810
1077 1812
1077 1850
1077 1887
1077 1988
1077 2042
1077 2083
1077 2088
1077 2095
1077 2124
1077 2230
1078 1222
1078 1283
1078 1356
1078 1372
1078 1474
1078 1498
1078 1564
1078 1613
1078 1646
1078 1745
1078 1838
1078 1885
1078 1893
1078 1909
1078 2017
1078 2153
1078 2157
1078 2158
1078 2189
1079 1107
1079 1155
1079 1195
1079 1240
1079 1251
1079 1311
1079 1317
1079 1354
1079 1394
1079 1397
1079 1410
1079 1425
1079 1430
1079 1460
1079 1483
1079 1512
1079 1524
1079 1566
1079 1567
1079 1642
1079 1695
1079 1703
1079 1723
1079 1785
1079 1818
1079 1847
1079 1866
1079 1899
1079 1902
1079 1923
1079 1936
1079 1955
1079 1959
1079 1995
1079 2036
1079 2037
1079 2042
1079 2065
1079 2083
1079 2100
1079 2146
1079 2169
1079 2190
1080 1120
1080 1127
1080 1159
1080 1213
1080 1265
1080 1389
1080 1391
1080 1398
1080 1516
1080 1569
1080 1770
1080 1842
1080 1898
1080 1905
1080 1914
1080 1994
1080 2091
1080 2097
1080 2134
1080 2151
1081 1100
1081 1116
1081 1139
1081 1152
1081 1160
1081 1178
1081 1245
1081 1249
1081 1309
1081 1310
1081 1325
1081 1343
1081 1351
1081 1371
1081 1394
1081 1414
1081 1428
1081 1432
1081 1438
1081 1440
1081 1450
1081 1486
1081 1487
1081 1507
1081 1549
1081 1572
1081 1626
1081 1628
1081 1694
1081 1699
1081 1722
1081 1731
1081 1739
1081 1774
1081 1782
1081 1791
1081 1801
1081 1817
1081 1822
1081 1830
1081 1889
1081 1919
1081 1932
1081 1937
1081 1966
1081 1972
1081 1983
1081 1993
1081 2003
1081 2012
1081 2041
1081 2062
1081 2089
1081 2094
1081 2096
1081 2110
1081 2115
1081 2123
1081 2134
1081 2136
1081 2141
1081 2179
1081 2205
1081 2216
1082 1101
1082 1110
1082 1157
1082 1162
1082 1184
1082 1250
1082 1373
1082 1386
1082 1411
1082 1465
1082 1531
1082 1542
1082 1561
1082 1620
1082 1636
1082 1644
1082 1648
1082 1652
1082 1668
1082 1672
1082 1676
1082 1682
1082 1685
1082 1687
1082 1706
1082 1784
1082 1884
1082 1907
1082 1942
1082 1999
1082 2002
1082 2007
1082 2075
1082 2105
1082 2113
1082 2184
1082 2226
1082 2227
1082 2239
1083 1098
1083 1136
1083 1159
1083 1171
1083 1193
1083 1222
1083 1347
1083 1361
1083 1389
1083 1401
1083 1603
1083 1630
1083 1649
1083 1686
1083 1705
1083 1727
1083 1775
1083 1816
1083 1826
1083 1910
1083 1981
1083 2188
1084 1111
1084 1227
1084 1240
1084 1242
1084 1268
1084 1279
1084 1290
1084 1311
1084 1324
1084 1353
1084 1355
1084 1370
1084 1376
1084 1411
1084 1471
1084 1473
1084 1492
1084 1494
1084 1504
1084 1506
1084 1538
1084 1558
1084 1567
1084 1605
1084 1656
1084 1671
1084 1720
1084 1761
1084 1768
1084 1797
1084 1809
1084 1813
1084 1818
1084 1848
1084 1865
1084 1875
1084 1910
1084 1916
1084 1917
1084 1940
1084 1949
1084 1962
1084 1977
1084 1995
1084 2010
1084 2023
1084 2036
1084 2065
1084 2066
1084 2069
1084 2080
1084 2090
1084 2100
1084 2109
1084 2154
1084 2160
1084 2185
1084 2195
1084 2197
1084 2202
1084 2206
1084 2213
1085 1120
1085 1516
1085 1523
1085 1675
1085 1815
1085 1994
1086 1103
1086 1135
1086 1160
1086 1164
1086 1169
1086 1187
1086 1223
1086 1229
1086 1251
1086 1270
1086 1273
1086 1284
1086 1321
1086 1325
1086 1365
1086 1369
1086 1394
1086 1408
1086 1425
1086 1459
1086 1468
1086 1499
1086 1507
1086 1526
1086 1576
1086 1584
1086 1638
1086 1662
1086 1731
1086 1741
1086 1750
1086 1788
1086 1799
1086 1802
1086 1806
1086 1832
1086 1898
1086 1911
1086 1923
1086 1932
1086 1938
1086 1963
1086 1966
1086 1988
1086 2006
1086 2020
1086 2032
1086 2038
1086 2083
1086 2088
1086 2134
1086 2183
1086 2230
1087 1230
1087 1272
1087 1500
1087 1600
1087 1607
1087 1641
1087 1688
1087 1813
1087 2205
1088 1124
1088 1130
1088 1164
1088 1256
1088 1274
1088 1279
1088 1293
1088 1296
1088 1348
1088 1365
1088 1369
1088 1387
1088 1425
1088 1452
1088 1459
1088 1499
1088 1612
1088 1656
1088 1713
1088 1768
1088 1799
1088 1836
1088 1840
1088 1853
1088 1872
1088 1915
1088 1924
1088 1928
1088 1939
1088 1963
1088 1969
1088 1975
1088 1977
1088 1988
1088 2009
1088 2026
1088 2051
1088 2070
1088 2153
1088 2181
1088 2230
1089 1111
1089 1155
1089 1169
1089 1247
1089 1249
1089 1253
1089 1255
1089 1289
1089 1311
1089 1339
1089 1353
1089 1358
1089 1364
1089 1397
1089 1505
1089 1558
1089 1567
1089 1605
1089 1612
1089 1653
1089 1656
1089 1665
1089 1706
1089 1708
1089 1718
1089 1719
1089 1720
1089 1723
1089 1744
1089 1747
1089 1785
1089 1787
1089 1805
1089 1818
1089 1828
1089 1837
1089 1838
1089 1846
1089 1847
1089 1875
1089 1877
1089 1883
1089 1889
1089 1916
1089 1927
1089 1940
1089 1949
1089 1962
1089 1967
1089 1974
1089 1993
1089 1994
1089 2023
1089 2036
1089 2042
1089 2051
1089 2069
1089 2085
1089 2087
1089 2090
1089 2091
1089 2118
1089 2119
1089 2121
1089 2146
1089 2160
1089 2231
1089 2246
1090 1289
1090 1312
1090 1353
1090 1511
1090 1567
1090 1692
1090 1818
1090 1852
1090 1880
1090 1934
1090 1975
1090 2103
1090 2107
1090 2231
1091 1093
1091 1166
1091 1362
1091 1973
1091 2227
1092 1131
1092 1143
1092 1169
1092 1467
1092 1489
1092 1572
1092 1710
1092 1745
1092 1850
1092 1874
1092 1885
1092 1958
1092 2012
1092 2118
1092 2205
1093 1177
1093 1234
1093 1275
1093 1326
1093 1362
1093 1648
1093 1684
1093 1873
1093 1908
1093 1921
1093 1973
1093 1996
1093 2057
1093 2128
1093 2178
1093 2227
1093 2240
1094 1242
1094 1290
1094 1313
1094 1334
1094 1337
1094 1355
1094 1384
1094 1408
1094 1424
1094 1429
1094 1445
1094 1506
1094 1511
1094 1671
1094 1706
1094 1824
1094 1828
1094 1859
1094 1894
1094 1903
1094 1912
1094 1949
1094 1987
1094 2023
1094 2035
1094 2069
1094 2132
1094 2162
1094 2197
1094 2202
1094 2222
1094 2248
1095 1163
1095 1206
1095 1263
1095 1275
1095 1287
1095 1291
1095 1315
1095 1326
1095 1330
1095 1362
1095 1386
1095 1423
1095 1427
1095 1491
1095 1502
1095 1535
1095 1536
1095 1621
1095 1784
1095 1833
1095 1921
1095 1945
1095 1971
1095 2075
1095 2184
1095 2237
1096 1144
1096 1209
1096 1218
1096 1226
1096 1235
1096 1241
1096 1294
1096 1308
1096 1327
1096 1335
1096 1436
1096 1452
1096 1500
1096 1759
1096 1762
1096 1783
1096 1794
1096 1885
1096 1904
1096 1934
1096 1956
1096 2012
1096 2099
1096 2116
1096 2136
1096 2189
1096 2195
1096 2201
1096 2216
1097 1119
1097 1154
1097 1158
1097 1181
1097 1187
1097 1189
1097 1200
1097 1223
1097 1231
1097 1240
1097 1282
1097 1289
1097 1374
1097 1431
1097 1436
1097 1448
1097 1452
1097 1460
1097 1470
1097 1473
1097 1482
1097 1512
1097 1521
1097 1566
1097 1567
1097 1585
1097 1605
1097 1634
1097 1643
1097 1665
1097 1679
1097 1701
1097 1703
1097 1723
1097 1747
1097 1772
1097 1802
1097 1806
1097 1809
1097 1841
1097 1916
1097 1923
1097 1924
1097 1928
1097 1977
1097 1989
1097 2042
1097 2065
1097 2066
1097 2100
1097 2145
1097 2153
1097 2169
1097 2197
1097 2248
1098 1103
1098 1136
1098 1225
1098 1239
1098 1255
1098 1266
1098 1290
1098 1310
1098 1322
1098 1348
1098 1354
1098 1413
1098 1447
1098 1492
1098 1522
1098 1591
1098 1603
1098 1630
1098 1646
1098 1705
1098 1741
1098 1743
1098 1775
1098 1797
1098 1822
1098 1867
1098 1931
1098 2012
1098 2100
1098 2104
1098 2127
1098 2157
1098 2174
1098 2185
1098 2200
1099 1120
1099 1126
1099 1167
1099 1171
1099 1174
1099 1251
1099 1265
1099 1325
1099 1359
1099 1390
1099 1402
1099 1405
1099 1438
1099 1507
1099 1629
1099 1674
1099 1675
1099 1686
1099 1734
1099 1783
1099 1799
1099 1876
1099 1938
1099 1961
1099 1994
1099 2031
1099 2048
1099 2151
1099 2246
1100 1103
1100 1104
1100 1119
1100 1122
1100 1129
1100 1160
1100 1165
1100 1167
1100 1168
1100 1179
1100 1217
1100 1221
1100 1222
1100 1227
1100 1230
1100 1236
1100 1274
1100 1277
1100 1304
1100 1309
1100 1335
1100 1346
1100 1378
1100 1385
1100 1409
1100 1421
1100 1429
1100 1434
1100 1454
1100 1473
1100 1476
1100 1486
1100 1487
1100 1493
1100 1498
1100 1508
1100 1532
1100 1533
1100 1537
1100 1545
1100 1565
1100 1586
1100 1589
1100 1600
1100 1607
1100 1613
1100 1628
1100 1632
1100 1641
1100 1643
1100 1688
1100 1694
1100 1697
1100 1732
1100 1739
1100 1744
1100 1749
1100 1752
1100 1759
1100 1774
1100 1782
1100 1783
1100 1792
1100 1796
1100 1799
1100 1813
1100 1817
1100 1818
1100 1846
1100 1855
1100 1863
1100 1876
1100 1908
1100 1917
1100 1930
1100 1932
1100 1956
1100 1965
1100 1974
1100 1981
1100 1982
1100 1990
1100 1994
1100 2009
1100 2012
1100 2029
1100 2043
1100 2081
1100 2089
1100 2091
1100 2107
1100 2110
1100 2117
1100 2118
1100 2121
1100 2134
1100 2136
1100 2145
1100 2194
1101 1148
1101 1206
1101 1306
1101 1386
1101 1423
1101 1477
1101 1529
1101 1551
1101 1553
1101 1563
1101 1582
1101 1583
1101 1599
1101 1620
1101 1621
1101 1644
1101 1648
1101 1652
1101 1676
1101 1682
1101 1685
1101 1784
1101 1814
1101 2044
1101 2075
1101 2106
1101 2112
1101 2130
1101 2152
1101 2196
1101 2211
1101 2224
1102 1327
1102 1361
1102 1389
1102 1398
1102 1489
1102 1516
1102 1688
1102 1727
1102 1775
1102 1876
1102 2031
1102 2188
1103 1169
1103 1181
1103 1187
1103 1225
1103 1251
1103 1266
1103 1273
1103 1277
1103 1280
1103 1282
1103 1284
1103 1304
1103 1310
1103 1322
1103 1343
1103 1365
1103 1367
1103 1390
1103 1408
1103 1413
1103 1421
1103 1428
1103 1431
1103 1434
1103 1443
1103 1459
1103 1468
1103 1486
1103 1493
1103 1507
1103 1527
1103 1537
1103 1560
1103 1576
1103 1578
1103 1579
1103 1581
1103 1584
1103 1607
1103 1630
1103 1638
1103 1658
1103 1688
1103 1755
1103 1780
1103 1782
1103 1788
1103 1799
1103 1802
1103 1803
1103 1806
1103 1829
1103 1845
1103 1859
1103 1876
1103 1890
1103 1892
1103 1895
1103 1903
1103 1930
1103 1931
1103 1939
1103 1988
1103 1995
1103 2006
1103 2009
1103 2029
1103 2034
1103 2051
1103 2063
1103 2080
1103 2085
1103 2088
1103 2100
1103 2117
1103 2119
1103 2120
1103 2131
1103 2145
1103 2181
1103 2193
1103 2197
1103 2203
1103 2205
1104 1119
1104 1155
1104 1230
1104 1236
1104 1277
1104 1298
1104 1334
1104 1374
1104 1378
1104 1409
1104 1421
1104 1434
1104 1450
1104 1473
1104 1491
1104 1505
1104 1507
1104 1532
1104 1533
1104 1585
1104 1632
1104 1641
1104 1643
1104 1645
1104 1668
1104 1671
1104 1730
1104 1732
1104 1756
1104 1782
1104 1809
1104 1813
1104 1835
1104 1862
1104 1863
1104 1875
1104 1884
1104 1930
1104 1982
1104 1990
1104 2005
1104 2009
1104 2065
1104 2078
1104 2081
1104 2121
1104 2133
1104 2148
1104 2173
1104 2193
1104 2194
1105 1157
1105 1190
1105 1353
1105 1602
1105 1821
1105 1833
1105 2059
1105 2130
1105 2210
1105 2238
1106 1122
1106 1136
1106 1139
1106 1140
1106 1149
1106 1160
1106 1178
1106 1218
1106 1237
1106 1245
1106 1270
1106 1288
1106 1309
1106 1333
1106 1351
1106 1363
1106 1372
1106 1387
1106 1394
1106 1428
1106 1432
1106 1476
1106 1521
1106 1544
1106 1559
1106 1562
1106 1609
1106 1626
1106 1782
1106 1799
1106 1802
1106 1888
1106 1950
1106 1966
1106 2038
1106 2041
1106 2062
1106 2079
1106 2089
1106 2096
1106 2115
1106 2124
1106 2131
1106 2141
1106 2145
1106 2161
1106 2170
1106 2189
1107 1119
1107 1155
1107 1176
1107 1189
1107 1241
1107 1267
1107 1268
1107 1272
1107 1294
1107 1305
1107 1376
1107 1384
1107 1415
1107 1421
1107 1461
1107 1488
1107 1505
1107 1506
1107 1512
1107 1574
1107 1613
1107 1616
1107 1641
1107 1673
1107 1681
1107 1700
1107 1720
1107 1721
1107 1723
1107 1755
1107 1756
1107 1765
1107 1809
1107 1818
1107 1824
1107 1837
1107 1847
1107 1866
1107 1883
1107 1886
1107 1911
1107 1940
1107 1958
1107 1984
1107 1992
1107 2010
1107 2023
1107 2043
1107 2052
1107 2056
1107 2065
1107 2069
1107 2087
1107 2109
1107 2168
1107 2171
1107 2197
1107 2202
1107 2205
1108 1217
1108 1283
1108 1360
1108 1414
1108 1464
1108 1474
1108 1543
1108 1598
1108 1710
1108 1783
1108 1818
1108 1855
1108 1910
1108 1951
1108 2003
1108 2029
1108 2065
1109 1125
1109 1290
1109 1298
1109 1311
1109 1316
1109 1355
1109 1356
1109 1376
1109 1424
1109 1577
1109 1593
1109 1625
1109 1634
1109 1645
1109 1654
1109 1671
1109 1706
1109 1730
1109 1809
1109 1828
1109 1869
1109 1875
1109 1896
1109 1902
1109 1904
1109 1912
1109 1929
1109 1962
1109 1992
1109 2011
1109 2037
1109 2052
1109 2072
1109 2206
1109 2236
1109 2248
1109 2249
1110 1148
1110 1206
1110 1250
1110 1529
1110 1531
1110 1542
1110 1551
1110 1582
1110 1602
1110 1608
1110 1612
1110 1620
1110 1652
1110 1682
1110 1784
1110 1833
1110 1873
1110 2061
1110 2075
1110 2210
1111 1117
1111 1240
1111 1253
1111 1279
1111 1289
1111 1290
1111 1311
1111 1322
1111 1364
1111 1370
1111 1384
1111 1425
1111 1460
1111 1471
1111 1480
1111 1488
1111 1497
1111 1501
1111 1504
1111 1512
1111 1538
1111 1554
1111 1558
1111 1567
1111 1605
1111 1654
1111 1656
1111 1671
1111 1673
1111 1678
1111 1702
1111 1703
1111 1718
1111 1720
1111 1723
1111 1730
1111 1747
1111 1751
1111 1768
1111 1809
1111 1828
1111 1832
1111 1837
1111 1848
1111 1883
1111 1904
1111 1916
1111 1917
1111 1940
1111 1948
1111 1962
1111 1977
1111 2036
1111 2042
1111 2065
1111 2066
1111 2069
1111 2087
1111 2090
1111 2109
1111 2160
1111 2166
1111 2186
1111 2213
1112 1151
1112 1212
1112 1220
1112 1280
1112 1311
1112 1324
1112 1332
1112 1378
1112 1385
1112 1391
1112 1393
1112 1395
1112 1434
1112 1463
1112 1474
1112 1480
1112 1486
1112 1511
1112 1520
1112 1596
1112 1607
1112 1647
1112 1705
1112 1709
1112 1715
1112 1721
1112 1743
1112 1759
1112 1772
1112 1790
1112 1805
1112 1849
1112 1850
1112 1859
1112 1869
1112 1871
1112 1908
1112 1917
1112 1967
1112 1985
1112 2012
1112 2035
1112 2043
1112 2076
1112 2099
1112 2100
1112 2110
1112 2174
1112 2186
1113 1425
1113 1704
1113 1720
1113 1865
1113 1995
1113 2100
1113 2202
1113 2233
1114 1171
1114 1283
1114 1393
1114 1534
1114 1840
1114 1844
1114 1851
1114 2031
1114 2032
1114 2151
1115 1228
1115 1265
1115 1296
1115 1322
1115 1328
1115 1348
1115 1359
1115 1517
1115 1675
1115 1799
1115 1994
1115 2151
1115 2189
1116 1154
1116 1264
1116 1283
1116 1285
1116 1322
1116 1329
1116 1335
1116 1338
1116 1358
1116 1375
1116 1406
1116 1413
1116 1414
1116 1443
1116 1460
1116 1488
1116 1575
1116 1592
1116 1594
1116 1631
1116 1653
1116 1670
1116 1692
1116 1739
1116 1749
1116 1794
1116 1799
1116 1827
1116 1866
1116 1908
1116 1926
1116 1934
1116 1958
1116 1966
1116 1994
1116 2089
1116 2103
1116 2127
1116 2136
1117 1151
1117 1180
1117 1212
1117 1220
1117 1238
1117 1241
1117 1268
1117 1322
1117 1332
1117 1358
1117 1365
1117 1385
1117 1419
1117 1461
1117 1478
1117 1480
1117 1492
1117 1538
1117 1554
1117 1610
1117 1644
1117 1672
1117 1687
1117 1723
1117 1766
1117 1853
1117 1870
1117 1871
1117 1964
1117 1984
1117 2020
1117 2022
1117 2052
1117 2127
1117 2155
1117 2158
1117 2161
1117 2170
1117 2188
1118 1174
1118 1229
1118 1241
1118 1246
1118 1318
1118 1321
1118 1329
1118 1346
1118 1361
1118 1366
1118 1420
1118 1442
1118 1459
1118 1537
1118 1565
1118 1629
1118 1704
1118 1741
1118 1752
1118 1759
1118 1763
1118 1768
1118 1771
1118 1796
1118 1816
1118 1818
1118 1825
1118 1849
1118 1870
1118 1888
1118 1938
1118 2020
1118 2081
1118 2139
1118 2142
1118 2175
1118 2246
1119 1129
1119 1155
1119 1194
1119 1200
1119 1230
1119 1232
1119 1236
1119 1242
1119 1244
1119 1267
1119 1277
1119 1324
1119 1339
1119 1370
1119 1373
1119 1374
1119 1376
1119 1392
1119 1409
1119 1421
1119 1425
1119 1431
1119 1434
1119 1473
1119 1483
1119 1487
1119 1491
1119 1505
1119 1507
1119 1512
1119 1532
1119 1564
1119 1607
1119 1624
1119 1628
1119 1632
1119 1643
1119 1656
1119 1668
1119 1671
1119 1718
1119 1720
1119 1753
1119 1782
1119 1796
1119 1809
1119 1813
1119 1818
1119 1837
1119 1863
1119 1875
1119 1884
1119 1898
1119 1904
1119 1916
1119 1917
1119 1923
1119 1930
1119 1982
1119 1990
1119 1995
1119 2009
1119 2052
1119 2065
1119 2069
1119 2081
1119 2100
1119 2131
1119 2133
1119 2137
1119 2148
1119 2166
1119 2173
1119 2193
1120 1154
1120 1193
1120 1204
1120 1228
1120 1241
1120 1338
1120 1359
1120 1361
1120 1393
1120 1424
1120 1516
1120 1523
1120 1607
1120 1669
1120 1675
1120 1735
1120 1769
1120 1775
1120 1796
1120 1815
1120 1844
1120 1939
1120 1994
1120 2031
1120 2097
1120 2139
1120 2182
1121 1125
1121 1173
1121 1212
1121 1230
1121 1247
1121 1249
1121 1322
1121 1358
1121 1382
1121 1395
1121 1408
1121 1420
1121 1443
1121 1469
1121 1474
1121 1616
1121 1639
1121 1736
1121 1800
1121 1847
1121 1858
1121 1871
1121 2006
1121 2010
1121 2022
1121 2026
1121 2050
1121 2104
1121 2139
1121 2191
1121 2232
1121 2235
1122 1140
1122 1218
1122 1251
1122 1286
1122 1288
1122 1420
1122 1428
1122 1432
1122 1537
1122 1559
1122 1722
1122 1739
1122 1744
1122 1799
1122 1802
1122 1887
1122 1890
1122 1938
1122 2020
1122 2086
1122 2141
1122 2170
1122 2216
1123 1214
1123 1557
1123 1684
1123 1757
1123 1946
1123 2078
1123 2171
1123 2178
1124 1164
1124 1270
1124 1274
1124 1387
1124 1408
1124 1419
1124 1482
1124 1499
1124 1576
1124 1602
1124 1634
1124 1656
1124 1679
1124 1713
1124 1782
1124 1817
1124 1840
1124 1853
1124 1872
1124 1924
1124 1985
1124 2034
1124 2070
1124 2129
1124 2153
1124 2169
1124 2183
1124 2193
1124 2230
1125 1147
1125 1173
1125 1204
1125 1227
1125 1230
1125 1298
1125 1312
1125 1317
1125 1318
1125 1332
1125 1356
1125 1376
1125 1382
1125 1391
1125 1395
1125 1397
1125 1416
1125 1439
1125 1463
1125 1484
1125 1518
1125 1616
1125 1624
1125 1639
1125 1640
1125 1653
1125 1654
1125 1671
1125 1678
1125 1740
1125 1753
1125 1800
1125 1818
1125 1820
1125 1858
1125 1863
1125 1871
1125 1880
1125 1911
1125 1994
1125 2043
1125 2045
1125 2050
1125 2071
1125 2072
1125 2082
1125 2104
1125 2126
1125 2161
1125 2181
1125 2185
1125 2191
1125 2232
1125 2249
1126 1140
1126 1150
1126 1167
1126 1228
1126 1265
1126 1328
1126 1359
1126 1383
1126 1402
1126 1576
1126 1969
1126 2032
1126 2151
1126 2228
1127 1205
1127 1228
1127 1530
1127 1735
1127 1794
1127 2048
1128 1142
1128 1244
1128 1253
1128 1311
1128 1324
1128 1511
1128 1558
1128 1654
1128 1706
1128 1730
1128 1751
1128 1828
1128 1860
1128 1863
1128 1883
1128 1916
1128 1955
1128 1962
1128 2072
1128 2206
1129 1178
1129 1220
1129 1235
1129 1274
1129 1282
1129 1286
1129 1298
1129 1325
1129 1383
1129 1413
1129 1437
1129 1442
1129 1489
1129 1514
1129 1581
1129 1589
1129 1592
1129 1603
1129 1611
1129 1630
1129 1654
1129 1662
1129 1669
1129 1673
1129 1769
1129 1818
1129 1840
1129 1849
1129 1853
1129 1885
1129 1891
1129 1960
1129 1969
1129 1974
1129 2025
1129 2074
1129 2077
1129 2099
1129 2156
1129 2165
1129 2233
1130 1230
1130 1246
1130 1262
1130 1279
1130 1317
1130 1321
1130 1348
1130 1365
1130 1369
1130 1408
1130 1429
1130 1445
1130 1468
1130 1485
1130 1499
1130 1663
1130 1708
1130 1713
1130 1736
1130 1768
1130 1795
1130 1797
1130 1799
1130 1802
1130 1853
1130 1878
1130 1891
1130 1893
1130 1902
1130 1938
1130 2006
1130 2009
1130 2020
1130 2026
1130 2042
1130 2070
1130 2153
1131 1143
1131 1235
1131 1352
1131 1467
1131 1489
1131 1549
1131 1569
1131 1572
1131 1710
1131 1745
1131 1774
1131 1794
1131 1796
1131 1850
1131 1874
1131 1958
1131 1960
1131 2099
1131 2118
1131 2134
1131 2195
1132 1212
1132 1227
1132 1239
1132 1241
1132 1283
1132 1299
1132 1322
1132 1358
1132 1364
1132 1369
1132 1399
1132 1429
1132 1507
1132 1517
1132 1527
1132 1540
1132 1569
1132 1578
1132 1596
1132 1630
1132 1667
1132 1689
1132 1706
1132 1803
1132 1829
1132 1881
1132 1959
1132 1968
1132 1995
1132 1996
1132 2018
1132 2043
1132 2101
1132 2150
1132 2189
1132 2234
1133 1137
1133 1154
1133 1162
1133 1167
1133 1195
1133 1222
1133 1229
1133 1241
1133 1251
1133 1260
1133 1270
1133 1280
1133 1304
1133 1321
1133 1344
1133 1345
1133 1347
1133 1349
1133 1359
1133 1368
1133 1394
1133 1399
1133 1400
1133 1402
1133 1414
1133 1417
1133 1426
1133 1476
1133 1507
1133 1517
1133 1522
1133 1526
1133 1537
1133 1540
1133 1547
1133 1576
1133 1579
1133 1591
1133 1630
1133 1640
1133 1667
1133 1669
1133 1692
1133 1694
1133 1695
1133 1697
1133 1709
1133 1711
1133 1721
1133 1722
1133 1739
1133 1741
1133 1756
1133 1773
1133 1779
1133 1783
1133 1803
1133 1809
1133 1812
1133 1817
1133 1818
1133 1850
1133 1859
1133 1888
1133 1890
1133 1891
1133 1898
1133 1911
1133 1938
1133 1982
1133 1988
1133 2033
1133 2034
1133 2038
1133 2083
1133 2085
1133 2098
1133 2103
1133 2110
1133 2120
1133 2129
1133 2131
1133 2146
1133 2154
1133 2198
1133 2200
1133 2216
1133 2246
1134 1185
1134 1349
1134 1382
1134 1387
1134 1497
1134 1554
1134 1607
1134 1610
1134 1678
1134 1818
1134 1827
1134 2107
1134 2108
1134 2176
1134 2231
1135 1195
1135 1229
1135 1251
1135 1394
1135 1417
1135 1443
1135 1537
1135 1638
1135 1773
1135 1849
1135 1912
1135 1938
1135 2083
1136 1137
1136 1218
1136 1222
1136 1226
1136 1239
1136 1255
1136 1264
1136 1266
1136 1309
1136 1336
1136 1372
1136 1401
1136 1569
1136 1603
1136 1630
1136 1705
1136 1739
1136 1762
1136 1775
1136 1790
1136 1816
1136 1840
1136 1850
1136 1889
1136 1910
1136 1926
1136 1974
1136 2035
1136 2047
1136 2048
1136 2100
1136 2134
1136 2157
1136 2185
1136 2186
1136 2189
1136 2200
1136 2201
1137 1173
1137 1178
1137 1182
1137 1195
1137 1207
1137 1220
1137 1222
1137 1226
1137 1235
1137 1239
1137 1245
1137 1260
1137 1264
1137 1266
1137 1285
1137 1300
1137 1304
1137 1336
1137 1344
1137 1347
1137 1349
1137 1359
1137 1372
1137 1393
1137 1394
1137 1402
1137 1413
1137 1414
1137 1426
1137 1435
1137 1443
1137 1453
1137 1467
1137 1476
1137 1489
1137 1527
1137 1547
1137 1569
1137 1579
1137 1592
1137 1596
1137 1611
1137 1640
1137 1692
1137 1695
1137 1705
1137 1709
1137 1711
1137 1715
1137 1721
1137 1745
1137 1759
1137 1769
1137 1783
1137 1785
1137 1790
1137 1799
1137 1836
1137 1850
1137 1852
1137 1859
1137 1885
1137 1888
1137 1889
1137 1911
1137 1926
1137 1927
1137 1950
1137 1960
1137 1966
1137 1968
1137 1972
1137 1976
1137 1985
1137 2033
1137 2035
1137 2065
1137 2089
1137 2096
1137 2097
1137 2098
1137 2101
1137 2110
1137 2111
1137 2115
1137 2118
1137 2120
1137 2129
1137 2134
1137 2141
1137 2143
1137 2146
1137 2188
1137 2189
1137 2195
1137 2209
1137 2216
1137 2222
1137 2232
1138 1179
1138 1221
1138 1235
1138 1241
1138 1247
1138 1345
1138 1432
1138 1453
1138 1454
1138 1474
1138 1486
1138 1489
1138 1592
1138 1651
1138 1739
1138 1749
1138 1769
1138 1792
1138 1796
1138 1885
1138 1920
1138 1960
1138 1972
1138 1974
1138 1994
1138 2029
1138 2118
1138 2182
1139 1152
1139 1178
1139 1245
1139 1309
1139 1394
1139 1432
1139 1438
1139 1442
1139 1459
1139 1549
1139 1569
1139 1572
1139 1626
1139 1731
1139 1769
1139 1774
1139 1801
1139 1822
1139 1850
1139 1878
1139 1889
1139 1950
1139 1983
1139 1990
1139 2041
1139 2047
1139 2089
1139 2094
1139 2096
1139 2115
1139 2116
1139 2134
1139 2141
1139 2170
1139 2179
1139 2189
1140 1195
1140 1218
1140 1265
1140 1270
1140 1293
1140 1387
1140 1438
1140 1507
1140 1634
1140 1662
1140 1667
1140 1783
1140 1817
1140 1932
1140 1950
1140 1956
1140 2041
1140 2062
1140 2079
1140 2153
1140 2169
1140 2216
1141 1173
1141 1226
1141 1239
1141 1284
1141 1312
1141 1324
1141 1342
1141 1375
1141 1393
1141 1441
1141 1480
1141 1517
1141 1526
1141 1529
1141 1569
1141 1593
1141 1596
1141 1611
1141 1692
1141 1742
1141 1743
1141 1787
1141 1799
1141 1852
1141 1929
1141 1960
1141 2050
1141 2145
1141 2189
1141 2243
1141 2246
1142 1244
1142 1253
1142 1288
1142 1322
1142 1365
1142 1369
1142 1410
1142 1460
1142 1512
1142 1562
1142 1582
1142 1584
1142 1609
1142 1634
1142 1642
1142 1654
1142 1673
1142 1706
1142 1717
1142 1720
1142 1723
1142 1730
1142 1747
1142 1753
1142 1768
1142 1772
1142 1802
1142 1810
1142 1841
1142 1846
1142 1853
1142 1860
1142 1863
1142 1866
1142 1902
1142 1916
1142 1936
1142 1949
1142 1955
1142 1989
1142 1995
1142 2009
1142 2042
1142 2072
1142 2095
1142 2100
1142 2167
1142 2248
1143 1179
1143 1193
1143 1217
1143 1218
1143 1220
1143 1235
1143 1300
1143 1309
1143 1335
1143 1376
1143 1442
1143 1446
1143 1454
1143 1467
1143 1489
1143 1510
1143 1514
1143 1549
1143 1569
1143 1572
1143 1591
1143 1669
1143 1726
1143 1745
1143 1749
1143 1769
1143 1772
1143 1774
1143 1794
1143 1831
1143 1850
1143 1874
1143 1949
1143 1958
1143 1960
1143 2016
1143 2035
1143 2072
1143 2099
1143 2118
1143 2134
1143 2136
1143 2182
1143 2195
1144 1274
1144 1322
1144 1349
1144 1442
1144 1486
1144 1514
1144 1743
1144 1807
1144 1867
1144 1960
1144 2074
1144 2156
1144 2174
1144 2198
1145 1200
1145 1324
1145 1355
1145 1384
1145 1385
1145 1415
1145 1421
1145 1600
1145 1720
1145 1721
1145 1865
1145 1866
1145 1875
1145 1949
1145 1984
1145 2001
1145 2052
1145 2065
1145 2233
1147 1154
1147 1173
1147 1204
1147 1240
1147 1249
1147 1318
1147 1322
1147 1334
1147 1340
1147 1364
1147 1369
1147 1382
1147 1395
1147 1410
1147 1443
1147 1458
1147 1463
1147 1474
1147 1492
1147 1497
1147 1596
1147 1616
1147 1645
1147 1647
1147 1706
1147 1736
1147 1753
1147 1778
1147 1795
1147 1797
1147 1800
1147 1802
1147 1818
1147 1820
1147 1838
1147 1853
1147 1858
1147 1878
1147 1898
1147 1902
1147 1975
1147 2010
1147 2026
1147 2037
1147 2046
1147 2050
1147 2103
1147 2104
1147 2139
1147 2153
1147 2191
1147 2204
1147 2206
1147 2232
1147 2235
1148 1157
1148 1206
1148 1275
1148 1315
1148 1326
1148 1330
1148 1362
1148 1379
1148 1386
1148 1423
1148 1491
1148 1509
1148 1531
1148 1539
1148 1548
1148 1551
1148 1552
1148 1553
1148 1563
1148 1582
1148 1602
1148 1620
1148 1644
1148 1652
1148 1672
1148 1676
1148 1685
1148 1687
1148 1698
1148 1737
1148 1814
1148 1821
1148 1823
1148 1833
1148 1915
1148 1973
1148 1999
1148 2042
1148 2070
1148 2075
1148 2106
1148 2112
1148 2142
1148 2184
1148 2207
1148 2227
1148 2244
1149 1187
1149 1237
1149 1374
1149 1499
1149 1521
1149 1526
1149 1562
1149 1806
1149 1975
1149 2170
1150 1164
1150 1274
1150 1297
1150 1661
1150 1788
1150 1840
1150 1872
1150 1969
1150 2218
1151 1154
1151 1180
1151 1212
1151 1268
1151 1283
1151 1311
1151 1312
1151 1395
1151 1478
1151 1488
1151 1520
1151 1538
1151 1554
1151 1653
1151 1709
1151 1715
1151 1743
1151 1870
1151 1920
1151 1964
1151 1974
1151 2012
1151 2043
1151 2051
1151 2076
1151 2099
1151 2158
1151 2174
1152 1178
1152 1245
1152 1351
1152 1365
1152 1394
1152 1410
1152 1438
1152 1452
1152 1609
1152 1626
1152 1632
1152 1634
1152 1635
1152 1762
1152 1801
1152 1822
1152 1836
1152 1893
1152 1926
1152 1937
1152 1966
1152 2041
1152 2070
1152 2079
1152 2094
1152 2096
1152 2110
1152 2115
1152 2116
1152 2124
1152 2141
1152 2189
1153 1163
1153 1194
1153 1198
1153 1202
1153 1275
1153 1350
1153 1358
1153 1386
1153 1411
1153 1568
1153 1585
1153 1621
1153 1668
1153 1676
1153 1685
1153 1687
1153 1714
1153 1764
1153 1839
1153 1884
1153 1971
1153 2054
1153 2075
1153 2156
1153 2223
1153 2242
1154 1179
1154 1180
1154 1212
1154 1218
1154 1220
1154 1222
1154 1227
1154 1241
1154 1247
1154 1253
1154 1265
1154 1283
1154 1284
1154 1304
1154 1308
1154 1310
1154 1329
1154 1335
1154 1365
1154 1370
1154 1375
1154 1378
1154 1389
1154 1393
1154 1399
1154 1413
1154 1414
1154 1420
1154 1426
1154 1429
1154 1431
1154 1454
1154 1459
1154 1460
1154 1478
1154 1493
1154 1498
1154 1526
1154 1537
1154 1540
1154 1554
1154 1569
1154 1584
1154 1594
1154 1601
1154 1603
1154 1626
1154 1646
1154 1692
1154 1699
1154 1704
1154 1739
1154 1741
1154 1743
1154 1759
1154 1772
1154 1783
1154 1787
1154 1789
1154 1790
1154 1796
1154 1799
1154 1801
1154 1818
1154 1831
1154 1852
1154 1867
1154 1878
1154 1880
1154 1885
1154 1917
1154 1926
1154 1934
1154 1969
1154 1974
1154 1975
1154 1994
1154 2012
1154 2025
1154 2034
1154 2041
1154 2085
1154 2089
1154 2091
1154 2098
1154 2108
1154 2147
1154 2153
1154 2165
1154 2174
1154 2175
1154 2186
1154 2189
1154 2216
1154 2231
1154 2232
1154 2235
1155 1202
1155 1242
1155 1267
1155 1268
1155 1287
1155 1327
1155 1355
1155 1388
1155 1392
1155 1397
1155 1421
1155 1425
1155 1436
1155 1446
1155 1461
1155 1480
1155 1483
1155 1493
1155 1498
1155 1505
1155 1506
1155 1510
1155 1512
1155 1593
1155 1628
1155 1643
1155 1651
1155 1656
1155 1659
1155 1681
1155 1755
1155 1765
1155 1818
1155 1837
1155 1841
1155 1870
1155 1910
1155 1940
1155 1962
1155 1964
1155 1992
1155 1995
1155 2015
1155 2023
1155 2042
1155 2056
1155 2081
1155 2087
1155 2091
1155 2100
1155 2121
1155 2139
1155 2146
1155 2158
1155 2172
1155 2202
1155 2236
1155 2249
1156 1338
1156 1476
1156 2031
1156 2188
1157 1166
1157 1188
1157 1196
1157 1252
1157 1254
1157 1287
1157 1306
1157 1386
1157 1411
1157 1423
1157 1465
1157 1488
1157 1491
1157 1509
1157 1531
1157 1539
1157 1552
1157 1553
1157 1561
1157 1583
1157 1585
1157 1614
1157 1617
1157 1620
1157 1661
1157 1668
1157 1672
1157 1682
1157 1698
1157 1821
1157 1868
1157 1873
1157 1884
1157 1907
1157 1915
1157 1945
1157 1971
1157 1973
1157 2045
1157 2059
1157 2082
1157 2105
1157 2112
1157 2130
1157 2196
1157 2227
1157 2244
1157 2247
1158 1230
1158 1240
1158 1244
1158 1290
1158 1311
1158 1334
1158 1353
1158 1429
1158 1444
1158 1458
1158 1470
1158 1488
1158 1511
1158 1576
1158 1596
1158 1612
1158 1690
1158 1706
1158 1730
1158 1753
1158 1755
1158 1756
1158 1763
1158 1765
1158 1768
1158 1791
1158 1802
1158 1805
1158 1809
1158 1832
1158 1875
1158 1883
1158 1901
1158 1902
1158 1932
1158 1940
1158 1947
1158 1949
1158 1955
1158 1959
1158 1962
1158 1995
1158 2009
1158 2040
1158 2072
1158 2095
1158 2104
1158 2139
1158 2162
1158 2168
1158 2169
1158 2197
1158 2206
1158 2248
1158 2249
1159 1168
1159 1171
1159 1213
1159 1265
1159 1329
1159 1378
1159 1775
1159 1958
1159 1994
1159 2031
1159 2099
1160 1164
1160 1178
1160 1187
1160 1229
1160 1231
1160 1245
1160 1251
1160 1296
1160 1321
1160 1329
1160 1343
1160 1346
1160 1351
1160 1359
1160 1394
1160 1408
1160 1426
1160 1429
1160 1438
1160 1526
1160 1559
1160 1576
1160 1578
1160 1609
1160 1626
1160 1628
1160 1635
1160 1638
1160 1645
1160 1739
1160 1748
1160 1773
1160 1791
1160 1799
1160 1801
1160 1806
1160 1836
1160 1854
1160 1862
1160 1872
1160 1885
1160 1895
1160 1902
1160 1906
1160 1919
1160 1927
1160 1928
1160 1932
1160 1937
1160 1940
1160 1947
1160 1966
1160 1972
1160 1974
1160 1983
1160 2032
1160 2035
1160 2038
1160 2040
1160 2041
1160 2064
1160 2096
1160 2115
1160 2124
1160 2125
1160 2129
1160 2141
1160 2179
1161 1173
1161 1269
1161 1358
1161 1429
1161 1497
1161 1596
1161 1658
1161 1706
1161 1837
1161 1847
1161 2026
1161 2069
1161 2174
1161 2246
1162 1206
1162 1275
1162 1315
1162 1326
1162 1330
1162 1381
1162 1386
1162 1413
1162 1455
1162 1494
1162 1509
1162 1644
1162 1648
1162 1711
1162 1833
1162 1945
1162 2002
1162 2075
1162 2122
1162 2129
1162 2211
1162 2226
1162 2237
1163 1184
1163 1196
1163 1252
1163 1254
1163 1263
1163 1305
1163 1306
1163 1315
1163 1330
1163 1381
1163 1386
1163 1411
1163 1423
1163 1451
1163 1491
1163 1496
1163 1509
1163 1531
1163 1542
1163 1620
1163 1636
1163 1644
1163 1668
1163 1672
1163 1687
1163 1698
1163 1717
1163 1751
1163 1764
1163 1814
1163 1818
1163 1821
1163 1884
1163 1907
1163 1944
1163 1971
1163 1973
1163 1978
1163 1996
1163 2002
1163 2017
1163 2050
1163 2060
1163 2061
1163 2075
1163 2078
1163 2082
1163 2106
1163 2112
1163 2164
1163 2206
1163 2207
1163 2217
1163 2221
1163 2223
1164 1187
1164 1218
1164 1231
1164 1243
1164 1256
1164 1270
1164 1274
1164 1279
1164 1321
1164 1325
1164 1329
1164 1351
1164 1438
1164 1499
1164 1576
1164 1609
1164 1634
1164 1638
1164 1656
1164 1661
1164 1679
1164 1750
1164 1788
1164 1799
1164 1817
1164 1836
1164 1840
1164 1872
1164 1887
1164 1895
1164 1927
1164 1937
1164 1963
1164 1969
1164 1977
1164 2070
1164 2080
1164 2116
1164 2124
1164 2125
1164 2228
1164 2230
1165 1169
1165 1280
1165 1349
1165 1382
1165 1406
1165 1500
1165 1503
1165 1594
1165 1600
1165 1607
1165 1613
1165 1637
1165 1694
1165 1726
1165 1792
1165 1867
1165 1891
1165 1935
1165 2012
1165 2043
1165 2118
1165 2131
1165 2205
1166 1203
1166 1254
1166 1275
1166 1306
1166 1330
1166 1341
1166 1342
1166 1362
1166 1366
1166 1373
1166 1381
1166 1423
1166 1427
1166 1436
1166 1477
1166 1509
1166 1539
1166 1561
1166 1582
1166 1583
1166 1602
1166 1636
1166 1668
1166 1672
1166 1685
1166 1768
1166 1808
1166 1823
1166 1833
1166 1856
1166 1903
1166 1907
1166 1947
1166 1973
1166 2072
1166 2075
1166 2178
1166 2184
1166 2211
1166 2238
1167 1229
1167 1251
1167 1328
1167 1347
1167 1359
1167 1402
1167 1438
1167 1515
1167 1559
1167 1640
1167 1674
1167 1711
1167 1721
1167 1773
1167 1799
1167 1961
1167 2032
1167 2120
1167 2151
1167 2192
1168 1222
1168 1230
1168 1236
1168 1265
1168 1368
1168 1378
1168 1421
1168 1476
1168 1493
1168 1507
1168 1537
1168 1589
1168 1591
1168 1618
1168 1628
1168 1688
1168 1774
1168 1796
1168 1813
1168 1817
1168 1818
1168 1835
1168 1881
1168 1930
1168 1981
1168 1988
1168 1990
1168 1994
1168 2031
1168 2081
1168 2091
1168 2097
1168 2131
1169 1174
1169 1195
1169 1212
1169 1220
1169 1227
1169 1230
1169 1235
1169 1284
1169 1298
1169 1325
1169 1349
1169 1380
1169 1406
1169 1419
1169 1449
1169 1450
1169 1463
1169 1467
1169 1469
1169 1486
1169 1487
1169 1489
1169 1492
1169 1500
1169 1503
1169 1522
1169 1586
1169 1641
1169 1653
1169 1662
1169 1680
1169 1694
1169 1721
1169 1726
1169 1732
1169 1742
1169 1752
1169 1792
1169 1799
1169 1818
1169 1859
1169 1890
1169 1928
1169 1952
1169 1958
1169 1987
1169 1992
1169 2003
1169 2025
1169 2032
1169 2080
1169 2085
1169 2099
1169 2119
1169 2131
1169 2170
1169 2171
1169 2195
1169 2201
1169 2203
1169 2205
1169 2235
1169 2243
1170 1181
1170 1187
1170 1223
1170 1231
1170 1237
1170 1282
1170 1337
1170 1383
1170 1419
1170 1448
1170 1482
1170 1806
1170 1924
1170 1928
1170 1948
1170 2145
1171 1193
1171 1213
1171 1228
1171 1239
1171 1338
1171 1359
1171 1361
1171 1390
1171 1486
1171 1489
1171 1530
1171 1540
1171 1569
1171 1591
1171 1686
1171 1727
1171 1775
1171 1779
1171 1830
1171 1889
1171 1910
1171 2031
1171 2032
1171 2151
1171 2188
1172 1719
1173 1180
1173 1204
1173 1220
1173 1226
1173 1230
1173 1249
1173 1260
1173 1261
1173 1312
1173 1318
1173 1340
1173 1369
1173 1382
1173 1383
1173 1391
1173 1395
1173 1413
1173 1418
1173 1443
1173 1463
1173 1473
1173 1474
1173 1476
1173 1484
1173 1492
1173 1532
1173 1583
1173 1612
1173 1616
1173 1640
1173 1642
1173 1647
1173 1695
1173 1707
1173 1708
1173 1709
1173 1721
1173 1736
1173 1755
1173 1778
1173 1785
1173 1800
1173 1802
1173 1816
1173 1818
1173 1820
1173 1838
1173 1847
1173 1858
1173 1871
1173 1878
1173 1880
1173 1890
1173 1893
1173 1898
1173 1911
1173 1928
1173 1934
1173 1962
1173 1975
1173 2010
1173 2022
1173 2026
1173 2050
1173 2069
1173 2104
1173 2107
1173 2139
1173 2146
1173 2191
1173 2232
1173 2235
1174 1192
1174 1220
1174 1230
1174 1236
1174 1243
1174 1246
1174 1270
1174 1282
1174 1325
1174 1329
1174 1332
1174 1365
1174 1391
1174 1408
1174 1413
1174 1414
1174 1420
1174 1429
1174 1430
1174 1443
1174 1452
1174 1458
1174 1459
1174 1467
1174 1468
1174 1480
1174 1482
1174 1484
1174 1486
1174 1499
1174 1520
1174 1537
1174 1572
1174 1622
1174 1629
1174 1713
1174 1740
1174 1750
1174 1753
1174 1754
1174 1759
1174 1763
1174 1766
1174 1799
1174 1802
1174 1804
1174 1809
1174 1810
1174 1818
1174 1820
1174 1862
1174 1863
1174 1867
1174 1890
1174 1899
1174 1924
1174 1928
1174 1934
1174 1938
1174 1939
1174 1963
1174 2006
1174 2020
1174 2021
1174 2022
1174 2034
1174 2041
1174 2080
1174 2088
1174 2104
1174 2127
1174 2139
1174 2142
1174 2153
1174 2168
1174 2175
1174 2181
1174 2209
1174 2235
1174 2246
1175 1818
1176 1241
1176 1244
1176 1246
1176 1267
1176 1268
1176 1289
1176 1290
1176 1342
1176 1355
1176 1461
1176 1483
1176 1506
1176 1593
1176 1625
1176 1681
1176 1701
1176 1702
1176 1745
1176 1755
1176 1794
1176 1804
1176 1818
1176 1824
1176 1837
1176 1886
1176 1929
1176 1940
1176 1949
1176 1992
1176 2010
1176 2023
1176 2037
1176 2043
1176 2052
1176 2056
1176 2087
1176 2090
1176 2160
1176 2202
1176 2233
1177 1330
1177 1362
1177 1908
1177 1921
1177 1996
1177 2227
1177 2240
1178 1245
1178 1286
1178 1298
1178 1351
1178 1394
1178 1402
1178 1428
1178 1438
1178 1486
1178 1626
1178 1654
1178 1662
1178 1673
1178 1790
1178 1796
1178 1801
1178 1822
1178 1836
1178 1849
1178 1850
1178 1895
1178 1919
1178 1927
1178 1928
1178 1932
1178 1937
1178 1938
1178 1950
1178 1966
1178 1972
1178 1983
1178 2041
1178 2089
1178 2096
1178 2115
1178 2141
1178 2179
1178 2233
1178 2234
1179 1221
1179 1283
1179 1294
1179 1335
1179 1345
1179 1393
1179 1396
1179 1414
1179 1432
1179 1454
1179 1472
1179 1474
1179 1549
1179 1628
1179 1629
1179 1651
1179 1658
1179 1739
1179 1765
1179 1769
1179 1774
1179 1796
1179 1859
1179 1871
1179 1892
1179 1910
1179 1920
1179 1949
1179 1974
1179 1982
1179 2003
1179 2012
1179 2037
1179 2051
1179 2068
1179 2076
1179 2089
1179 2118
1179 2157
1179 2182
1180 1204
1180 1220
1180 1233
1180 1247
1180 1268
1180 1308
1180 1358
1180 1370
1180 1377
1180 1463
1180 1474
1180 1488
1180 1492
1180 1509
1180 1538
1180 1554
1180 1707
1180 1716
1180 1738
1180 1771
1180 1789
1180 1818
1180 1847
1180 1870
1180 1878
1180 1964
1180 1971
1180 1974
1180 1975
1180 2005
1180 2008
1180 2017
1180 2029
1180 2043
1180 2099
1180 2104
1180 2127
1180 2144
1180 2156
1180 2161
1180 2206
1180 2235
1181 1187
1181 1200
1181 1223
1181 1231
1181 1282
1181 1343
1181 1365
1181 1394
1181 1419
1181 1432
1181 1448
1181 1482
1181 1507
1181 1638
1181 1662
1181 1679
1181 1790
1181 1799
1181 1806
1181 1817
1181 1850
1181 1924
1181 1927
1181 1928
1181 1931
1181 2031
1181 2116
1181 2145
1182 1260
1182 1342
1182 1355
1182 1410
1182 1425
1182 1436
1182 1456
1182 1483
1182 1593
1182 1695
1182 1706
1182 1709
1182 1720
1182 1721
1182 1747
1182 1772
1182 1865
1182 1911
1182 1927
1182 1949
1182 1962
1182 2036
1182 2065
1182 2069
1182 2100
1182 2133
1182 2146
1182 2189
1182 2190
1182 2197
1182 2200
1182 2206
1182 2233
1183 1529
1183 1617
1183 1733
1183 1833
1183 1933
1184 1306
1184 1381
1184 1978
1184 2060
1184 2061
1184 2078
1184 2207
1184 2217
1185 1235
1185 1238
1185 1332
1185 1369
1185 1478
1185 1480
1185 1610
1185 1678
1185 1766
1185 1818
1185 1911
1185 2010
1185 2043
1185 2108
1185 2231
1186 2234
1187 1195
1187 1200
1187 1218
1187 1223
1187 1231
1187 1237
1187 1243
1187 1262
1187 1282
1187 1284
1187 1288
1187 1292
1187 1296
1187 1297
1187 1333
1187 1343
1187 1374
1187 1383
1187 1419
1187 1440
1187 1448
1187 1482
1187 1521
1187 1526
1187 1537
1187 1562
1187 1584
1187 1630
1187 1638
1187 1643
1187 1647
1187 1662
1187 1679
1187 1782
1187 1802
1187 1806
1187 1817
1187 1832
1187 1836
1187 1840
1187 1845
1187 1854
1187 1895
1187 1916
1187 1924
1187 1927
1187 1928
1187 1931
1187 1948
1187 1956
1187 1963
1187 1969
1187 2034
1187 2038
1187 2063
1187 2080
1187 2125
1187 2145
1187 2179
1188 1212
1188 1358
1188 1379
1188 1423
1188 1539
1188 1614
1188 1672
1188 1802
1188 2075
1188 2130
1189 1223
1189 1240
1189 1241
1189 1249
1189 1260
1189 1289
1189 1305
1189 1311
1189 1325
1189 1374
1189 1392
1189 1398
1189 1410
1189 1436
1189 1483
1189 1489
1189 1596
1189 1616
1189 1695
1189 1722
1189 1755
1189 1765
1189 1772
1189 1785
1189 1799
1189 1863
1189 1865
1189 1871
1189 1949
1189 1967
1189 1995
1189 2008
1189 2037
1189 2065
1189 2104
1189 2142
1189 2146
1189 2190
1189 2204
1189 2206
1189 2233
1190 1201
1190 1206
1190 1315
1190 1330
1190 1427
1190 1479
1190 1491
1190 1529
1190 1535
1190 1539
1190 1573
1190 1583
1190 1614
1190 1620
1190 1621
1190 1636
1190 1652
1190 1668
1190 1682
1190 1687
1190 1821
1190 1833
1190 1841
1190 1971
1190 2045
1190 2075
1190 2106
1190 2130
1190 2238
1191 1212
1191 1273
1191 1298
1191 1311
1191 1316
1191 1322
1191 1334
1191 1353
1191 1358
1191 1460
1191 1473
1191 1488
1191 1504
1191 1518
1191 1596
1191 1654
1191 1730
1191 1866
1191 1875
1191 1901
1191 1962
1191 2043
1191 2052
1191 2171
1191 2202
1191 2231
1192 1362
1192 1382
1192 1500
1192 1503
1192 1517
1192 1575
1192 1596
1192 1694
1192 1792
1193 1218
1193 1335
1193 1361
1193 1390
1193 1443
1193 1487
1193 1670
1193 1727
1193 1775
1193 1935
1193 1958
1193 2031
1193 2089
1193 2188
1193 2241
1194 1202
1194 1263
1194 1315
1194 1330
1194 1411
1194 1491
1194 1496
1194 1542
1194 1585
1194 1643
1194 1650
1194 1668
1194 1672
1194 1676
1194 1729
1194 1818
1194 1833
1194 1841
1194 1863
1194 1884
1194 1943
1194 2000
1194 2054
1194 2075
1194 2078
1194 2128
1194 2172
1194 2221
1194 2223
1194 2242
1195 1225
1195 1229
1195 1237
1195 1251
1195 1286
1195 1308
1195 1310
1195 1344
1195 1349
1195 1387
1195 1399
1195 1426
1195 1438
1195 1441
1195 1493
1195 1497
1195 1537
1195 1579
1195 1634
1195 1638
1195 1640
1195 1653
1195 1669
1195 1695
1195 1697
1195 1709
1195 1711
1195 1721
1195 1742
1195 1773
1195 1803
1195 1806
1195 1845
1195 1898
1195 1911
1195 1938
1195 1965
1195 2018
1195 2083
1195 2098
1195 2107
1195 2115
1195 2120
1195 2136
1195 2146
1195 2194
1195 2198
1195 2205
1195 2230
1195 2242
1195 2243
1196 1206
1196 1260
1196 1263
1196 1330
1196 1379
1196 1381
1196 1423
1196 1427
1196 1474
1196 1489
1196 1494
1196 1509
1196 1536
1196 1539
1196 1582
1196 1621
1196 1636
1196 1684
1196 1685
1196 1698
1196 1717
1196 1729
1196 1757
1196 1769
1196 1807
1196 1960
1196 2074
1196 2075
1196 2078
1196 2128
1196 2178
1196 2210
1196 2238
1196 2239
1196 2244
1197 1453
1197 1594
1197 1651
1197 1780
1197 1850
1197 1885
1197 2047
1197 2080
1197 2111
1197 2147
1198 1202
1198 1350
1198 1542
1198 1608
1198 1650
1198 1687
1198 1714
1198 1717
1198 1884
1198 2128
1198 2221
1199 1594
1200 1223
1200 1231
1200 1237
1200 1282
1200 1298
1200 1324
1200 1333
1200 1341
1200 1343
1200 1374
1200 1383
1200 1384
1200 1404
1200 1421
1200 1448
1200 1456
1200 1482
1200 1512
1200 1546
1200 1566
1200 1602
1200 1605
1200 1634
1200 1643
1200 1652
1200 1662
1200 1665
1200 1672
1200 1673
1200 1679
1200 1701
1200 1704
1200 1763
1200 1799
1200 1806
1200 1809
1200 1865
1200 1916
1200 1923
1200 1924
1200 1928
1200 1931
1200 1940
1200 1948
1200 1949
1200 1962
1200 1977
1200 2036
1200 2042
1200 2103
1200 2145
1200 2155
1200 2169
1200 2183
1200 2206
1200 2248
1201 1258
1201 1292
1201 1410
1201 1418
1201 1479
1201 1505
1201 1529
1201 1539
1201 1573
1201 1614
1201 1621
1201 1664
1201 1668
1201 1682
1201 1687
1201 1821
1201 1833
1201 1873
1201 2009
1201 2045
1201 2053
1202 1242
1202 1263
1202 1275
1202 1381
1202 1411
1202 1431
1202 1451
1202 1491
1202 1496
1202 1501
1202 1536
1202 1650
1202 1676
1202 1708
1202 1714
1202 1717
1202 1729
1202 1900
1202 1943
1202 1971
1202 2000
1202 2121
1202 2150
1202 2172
1202 2223
1202 2229
1202 2233
1202 2242
1203 1306
1203 1315
1203 1373
1203 1502
1203 1561
1203 1582
1203 1620
1203 1672
1203 1721
1203 1907
1203 2000
1203 2075
1203 2227
1204 1230
1204 1241
1204 1247
1204 1249
1204 1308
1204 1358
1204 1420
1204 1439
1204 1484
1204 1492
1204 1554
1204 1579
1204 1616
1204 1639
1204 1646
1204 1669
1204 1711
1204 1746
1204 1800
1204 1802
1204 1818
1204 1820
1204 1858
1204 1878
1204 1926
1204 1928
1204 2010
1204 2022
1204 2036
1204 2104
1204 2139
1204 2161
1204 2191
1204 2232
1204 2235
1205 1212
1205 1222
1205 1226
1205 1229
1205 1235
1205 1265
1205 1266
1205 1284
1205 1329
1205 1345
1205 1389
1205 1393
1205 1432
1205 1510
1205 1530
1205 1630
1205 1646
1205 1704
1205 1705
1205 1735
1205 1762
1205 1773
1205 1794
1205 1799
1205 1850
1205 1891
1205 1910
1205 1919
1205 2012
1205 2021
1205 2031
1205 2048
1205 2089
1205 2091
1205 2101
1205 2103
1205 2118
1205 2143
1205 2216
1206 1250
1206 1275
1206 1287
1206 1315
1206 1341
1206 1373
1206 1386
1206 1423
1206 1491
1206 1509
1206 1529
1206 1531
1206 1563
1206 1585
1206 1620
1206 1647
1206 1668
1206 1684
1206 1730
1206 1737
1206 1811
1206 1833
1206 1873
1206 1884
1206 1907
1206 1915
1206 1973
1206 1999
1206 2000
1206 2072
1206 2105
1206 2112
1206 2196
1206 2206
1206 2226
1206 2227
1207 1329
1207 1453
1207 1472
1207 1489
1207 1492
1207 1554
1207 1592
1207 1769
1207 1780
1207 1885
1207 1960
1207 2074
1207 2099
1207 2118
1207 2195
1208 1226
1208 1251
1208 1284
1208 1526
1208 1527
1208 1625
1208 1783
1208 1929
1208 2022
1208 2139
1209 1304
1209 1435
1209 1615
1209 1799
1209 1851
1209 2098
1210 1221
1210 1794
1210 2118
1211 1220
1211 1346
1211 2099
1211 2206
1212 1220
1212 1227
1212 1241
1212 1247
1212 1260
1212 1299
1212 1322
1212 1332
1212 1340
1212 1346
1212 1356
1212 1358
1212 1363
1212 1364
1212 1367
1212 1370
1212 1376
1212 1393
1212 1401
1212 1406
1212 1420
1212 1463
1212 1467
1212 1471
1212 1488
1212 1489
1212 1492
1212 1504
1212 1506
1212 1510
1212 1513
1212 1518
1212 1520
1212 1522
1212 1554
1212 1616
1212 1639
1212 1646
1212 1695
1212 1709
1212 1721
1212 1722
1212 1743
1212 1744
1212 1746
1212 1807
1212 1816
1212 1818
1212 1827
1212 1838
1212 1866
1212 1870
1212 1875
1212 1883
1212 1889
1212 1901
1212 1908
1212 1980
1212 2003
1212 2018
1212 2023
1212 2026
1212 2027
1212 2043
1212 2047
1212 2051
1212 2072
1212 2076
1212 2086
1212 2089
1212 2099
1212 2104
1212 2110
1212 2117
1212 2139
1212 2161
1212 2174
1212 2177
1212 2186
1212 2195
1212 2202
1212 2204
1212 2231
1212 2232
1213 1327
1213 1359
1213 1361
1213 1489
1213 1516
1213 1649
1213 1694
1213 1775
1213 1842
1213 1850
1213 1898
1213 1910
1213 2031
1213 2188
1214 1548
1214 1684
1214 1714
1214 1725
1214 1946
1214 2130
1214 2171
1214 2178
1215 1338
1216 1338
1216 1432
1216 1464
1216 1543
1216 1565
1216 1598
1216 1710
1216 1951
1216 2118
1217 1221
1217 1283
1217 1332
1217 1397
1217 1487
1217 1572
1217 1615
1217 1651
1217 1739
1217 1746
1217 1783
1217 1874
1217 1875
1217 1949
1217 1951
1217 1974
1217 2043
1217 2118
1217 2182
1217 2195
1218 1222
1218 1237
1218 1249
1218 1264
1218 1265
1218 1283
1218 1288
1218 1309
1218 1333
1218 1336
1218 1338
1218 1363
1218 1372
1218 1374
1218 1375
1218 1428
1218 1432
1218 1454
1218 1562
1218 1565
1218 1571
1218 1607
1218 1628
1218 1630
1218 1669
1218 1697
1218 1799
1218 1802
1218 1840
1218 1849
1218 1887
1218 1931
1218 1950
1218 1956
1218 1966
1218 2006
1218 2047
1218 2086
1218 2089
1218 2116
1218 2134
1218 2141
1218 2170
1218 2189
1219 1265
1220 1226
1220 1227
1220 1235
1220 1251
1220 1266
1220 1274
1220 1307
1220 1310
1220 1329
1220 1344
1220 1346
1220 1359
1220 1387
1220 1413
1220 1443
1220 1452
1220 1463
1220 1489
1220 1500
1220 1503
1220 1514
1220 1522
1220 1575
1220 1600
1220 1601
1220 1620
1220 1646
1220 1647
1220 1653
1220 1658
1220 1688
1220 1692
1220 1700
1220 1704
1220 1753
1220 1783
1220 1799
1220 1802
1220 1807
1220 1818
1220 1867
1220 1878
1220 1910
1220 1931
1220 1968
1220 2006
1220 2018
1220 2051
1220 2097
1220 2099
1220 2104
1220 2134
1220 2151
1220 2165
1220 2191
1220 2200
1220 2206
1220 2208
1220 2235
1221 1236
1221 1241
1221 1283
1221 1304
1221 1356
1221 1414
1221 1450
1221 1454
1221 1472
1221 1486
1221 1487
1221 1572
1221 1586
1221 1594
1221 1651
1221 1728
1221 1774
1221 1783
1221 1796
1221 1855
1221 1874
1221 1875
1221 1920
1221 1974
1221 1982
1221 1998
1221 2012
1221 2035
1221 2068
1221 2085
1221 2118
1221 2143
1221 2147
1221 2182
1221 2195
1222 1239
1222 1241
1222 1243
1222 1264
1222 1266
1222 1283
1222 1300
1222 1309
1222 1325
1222 1352
1222 1372
1222 1393
1222 1414
1222 1442
1222 1454
1222 1474
1222 1569
1222 1592
1222 1603
1222 1630
1222 1646
1222 1651
1222 1658
1222 1699
1222 1705
1222 1722
1222 1739
1222 1744
1222 1745
1222 1775
1222 1790
1222 1794
1222 1801
1222 1850
1222 1851
1222 1870
1222 1872
1222 1889
1222 1891
1222 1895
1222 1950
1222 1953
1222 1969
1222 1974
1222 1994
1222 2021
1222 2035
1222 2041
1222 2048
1222 2089
1222 2098
1222 2101
1222 2110
1222 2118
1222 2134
1222 2136
1222 2141
1222 2143
1222 2154
1222 2156
1222 2157
1222 2165
1222 2188
1222 2189
1222 2216
1223 1231
1223 1237
1223 1282
1223 1289
1223 1292
1223 1298
1223 1311
1223 1316
1223 1333
1223 1373
1223 1374
1223 1383
1223 1404
1223 1425
1223 1442
1223 1448
1223 1456
1223 1479
1223 1482
1223 1546
1223 1566
1223 1634
1223 1643
1223 1654
1223 1656
1223 1665
1223 1679
1223 1701
1223 1707
1223 1730
1223 1753
1223 1763
1223 1765
1223 1806
1223 1813
1223 1841
1223 1853
1223 1902
1223 1916
1223 1923
1223 1924
1223 1928
1223 1948
1223 1967
1223 1975
1223 1977
1223 2040
1223 2100
1223 2119
1223 2145
1223 2168
1223 2169
1223 2173
1223 2206
1223 2213
1223 2248
1224 1368
1224 1380
1224 1452
1224 1476
1224 1503
1224 1817
1224 2080
1224 2142
1224 2143
1224 2165
1225 1249
1225 1266
1225 1274
1225 1280
1225 1304
1225 1307
1225 1308
1225 1310
1225 1399
1225 1413
1225 1434
1225 1441
1225 1467
1225 1493
1225 1498
1225 1507
1225 1537
1225 1584
1225 1589
1225 1600
1225 1607
1225 1619
1225 1628
1225 1630
1225 1641
1225 1645
1225 1669
1225 1688
1225 1692
1225 1704
1225 1732
1225 1759
1225 1783
1225 1794
1225 1799
1225 1803
1225 1818
1225 1829
1225 1849
1225 1852
1225 1859
1225 1867
1225 1903
1225 1931
1225 1938
1225 1965
1225 1990
1225 2006
1225 2038
1225 2085
1225 2134
1225 2153
1225 2234
1226 1235
1226 1239
1226 1265
1226 1309
1226 1310
1226 1318
1226 1346
1226 1348
1226 1363
1226 1372
1226 1375
1226 1382
1226 1393
1226 1432
1226 1452
1226 1489
1226 1492
1226 1499
1226 1549
1226 1569
1226 1594
1226 1609
1226 1649
1226 1692
1226 1762
1226 1787
1226 1790
1226 1794
1226 1799
1226 1800
1226 1802
1226 1820
1226 1842
1226 1850
1226 1889
1226 1959
1226 1968
1226 1990
1226 1994
1226 2003
1226 2012
1226 2026
1226 2034
1226 2050
1226 2091
1226 2104
1226 2141
1226 2189
1226 2191
1226 2195
1226 2201
1226 2216
1226 2222
1226 2232
1226 2235
1227 1241
1227 1308
1227 1334
1227 1375
1227 1378
1227 1389
1227 1397
1227 1398
1227 1441
1227 1463
1227 1489
1227 1492
1227 1526
1227 1538
1227 1547
1227 1554
1227 1594
1227 1603
1227 1616
1227 1628
1227 1646
1227 1649
1227 1669
1227 1697
1227 1722
1227 1741
1227 1742
1227 1753
1227 1799
1227 1803
1227 1825
1227 1865
1227 1875
1227 1878
1227 1891
1227 1898
1227 1926
1227 1934
1227 1952
1227 1982
1227 2004
1227 2012
1227 2025
1227 2026
1227 2051
1227 2104
1227 2110
1227 2120
1227 2134
1227 2165
1227 2186
1227 2195
1228 1328
1228 1335
1228 1363
1228 1390
1228 1413
1228 1490
1228 1530
1228 1675
1228 1727
1228 1735
1228 2031
1228 2048
1228 2089
1229 1251
1229 1270
1229 1284
1229 1288
1229 1305
1229 1346
1229 1359
1229 1393
1229 1394
1229 1399
1229 1402
1229 1410
1229 1537
1229 1554
1229 1559
1229 1562
1229 1564
1229 1576
1229 1638
1229 1711
1229 1773
1229 1788
1229 1799
1229 1802
1229 1818
1229 1888
1229 1938
1229 1969
1229 2032
1229 2048
1229 2083
1229 2124
1229 2151
1229 2167
1229 2200
1229 2230
1229 2242
1230 1232
1230 1236
1230 1249
1230 1258
1230 1268
1230 1272
1230 1277
1230 1282
1230 1292
1230 1311
1230 1312
1230 1325
1230 1332
1230 1356
1230 1358
1230 1369
1230 1378
1230 1383
1230 1385
1230 1386
1230 1395
1230 1397
1230 1408
1230 1409
1230 1434
1230 1439
1230 1447
1230 1450
1230 1458
1230 1461
1230 1470
1230 1473
1230 1486
1230 1489
1230 1491
1230 1493
1230 1510
1230 1522
1230 1533
1230 1545
1230 1554
1230 1575
1230 1585
1230 1589
1230 1607
1230 1610
1230 1612
1230 1613
1230 1618
1230 1624
1230 1625
1230 1628
1230 1632
1230 1641
1230 1643
1230 1662
1230 1664
1230 1688
1230 1706
1230 1732
1230 1740
1230 1746
1230 1753
1230 1755
1230 1756
1230 1763
1230 1768
1230 1771
1230 1800
1230 1802
1230 1809
1230 1813
1230 1818
1230 1835
1230 1838
1230 1853
1230 1863
1230 1876
1230 1928
1230 1930
1230 1947
1230 1948
1230 1955
1230 1965
1230 1974
1230 1981
1230 1982
1230 1988
1230 1990
1230 2009
1230 2010
1230 2012
1230 2050
1230 2069
1230 2095
1230 2104
1230 2108
1230 2117
1230 2121
1230 2126
1230 2133
1230 2148
1230 2161
1230 2168
1230 2175
1230 2181
1230 2194
1230 2204
1230 2235
1230 2246
1231 1237
1231 1262
1231 1282
1231 1359
1231 1383
1231 1404
1231 1419
1231 1448
1231 1459
1231 1482
1231 1499
1231 1537
1231 1662
1231 1741
1231 1790
1231 1799
1231 1806
1231 1836
1231 1840
1231 1872
1231 1895
1231 1906
1231 1924
1231 1927
1231 1928
1231 1932
1231 1948
1231 2006
1231 2020
1231 2042
1231 2063
1231 2145
1231 2177
1231 2183
1232 1255
1232 1339
1232 1370
1232 1376
1232 1431
1232 1501
1232 1531
1232 1542
1232 1589
1232 1643
1232 1671
1232 1708
1232 1805
1232 1818
1232 1824
1232 1894
1232 1916
1232 1925
1232 1955
1232 2012
1232 2069
1232 2109
1232 2137
1232 2160
1232 2171
1232 2185
1232 2187
1232 2249
1233 1247
1233 1316
1233 1317
1233 1358
1233 1474
1233 1480
1233 1506
1233 1520
1233 1743
1233 1766
1233 1771
1233 1774
1233 1818
1233 1936
1233 1980
1233 2043
1233 2102
1233 2140
1233 2159
1233 2174
1234 1330
1234 1381
1234 1509
1234 1672
1234 1811
1234 1833
1234 1921
1234 2014
1234 2075
1234 2224
1235 1241
1235 1247
1235 1274
1235 1300
1235 1304
1235 1359
1235 1363
1235 1372
1235 1375
1235 1377
1235 1382
1235 1389
1235 1393
1235 1414
1235 1442
1235 1453
1235 1467
1235 1472
1235 1474
1235 1489
1235 1492
1235 1554
1235 1569
1235 1581
1235 1586
1235 1592
1235 1611
1235 1646
1235 1649
1235 1669
1235 1670
1235 1704
1235 1722
1235 1739
1235 1745
1235 1769
1235 1783
1235 1794
1235 1799
1235 1818
1235 1842
1235 1851
1235 1852
1235 1885
1235 1892
1235 1926
1235 1958
1235 1960
1235 1985
1235 2012
1235 2018
1235 2021
1235 2035
1235 2047
1235 2048
1235 2074
1235 2089
1235 2092
1235 2099
1235 2101
1235 2118
1235 2134
1235 2136
1235 2138
1235 2142
1235 2165
1235 2189
1235 2195
1235 2201
1235 2222
1235 2243
1236 1238
1236 1277
1236 1283
1236 1346
1236 1349
1236 1355
1236 1378
1236 1397
1236 1406
1236 1409
1236 1421
1236 1434
1236 1473
1236 1474
1236 1491
1236 1493
1236 1520
1236 1533
1236 1613
1236 1616
1236 1628
1236 1632
1236 1653
1236 1688
1236 1713
1236 1715
1236 1732
1236 1759
1236 1760
1236 1782
1236 1783
1236 1796
1236 1799
1236 1813
1236 1818
1236 1846
1236 1863
1236 1875
1236 1876
1236 1877
1236 1930
1236 1982
1236 1990
1236 2012
1236 2043
1236 2052
1236 2069
1236 2081
1236 2117
1236 2121
1236 2181
1236 2193
1236 2235
1237 1333
1237 1419
1237 1448
1237 1482
1237 1507
1237 1521
1237 1526
1237 1537
1237 1662
1237 1667
1237 1673
1237 1806
1237 1845
1237 1924
1237 1932
1237 2006
1237 2038
1237 2080
1237 2145
1237 2183
1238 1242
1238 1349
1238 1353
1238 1396
1238 1461
1238 1478
1238 1480
1238 1501
1238 1520
1238 1610
1238 1643
1238 1668
1238 1766
1238 1818
1238 1884
1238 1911
1238 1962
1238 1980
1238 2043
1238 2108
1238 2159
1238 2160
1238 2231
1238 2236
1239 1241
1239 1312
1239 1329
1239 1336
1239 1342
1239 1372
1239 1375
1239 1414
1239 1441
1239 1474
1239 1569
1239 1594
1239 1603
1239 1629
1239 1630
1239 1692
1239 1705
1239 1739
1239 1775
1239 1787
1239 1790
1239 1799
1239 1822
1239 1850
1239 1885
1239 1889
1239 1926
1239 1960
1239 1974
1239 2035
1239 2089
1239 2131
1239 2141
1239 2157
1239 2189
1239 2201
1239 2202
1239 2243
1239 2246
1240 1241
1240 1244
1240 1260
1240 1279
1240 1311
1240 1334
1240 1341
1240 1342
1240 1392
1240 1393
1240 1410
1240 1425
1240 1430
1240 1436
1240 1444
1240 1460
1240 1465
1240 1471
1240 1483
1240 1512
1240 1538
1240 1546
1240 1566
1240 1567
1240 1593
1240 1596
1240 1612
1240 1616
1240 1622
1240 1642
1240 1645
1240 1656
1240 1703
1240 1730
1240 1768
1240 1795
1240 1797
1240 1799
1240 1809
1240 1818
1240 1848
1240 1865
1240 1866
1240 1883
1240 1899
1240 1901
1240 1902
1240 1904
1240 1916
1240 1917
1240 1947
1240 1949
1240 1955
1240 1959
1240 1962
1240 1995
1240 2009
1240 2036
1240 2037
1240 2042
1240 2065
1240 2066
1240 2090
1240 2100
1240 2109
1240 2168
1240 2171
1240 2190
1240 2197
1240 2204
1240 2206
1240 2213
1240 2233
1240 2248
1241 1244
1241 1251
1241 1253
1241 1275
1241 1283
1241 1313
1241 1320
1241 1332
1241 1359
1241 1361
1241 1376
1241 1384
1241 1394
1241 1399
1241 1408
1241 1413
1241 1425
1241 1431
1241 1436
1241 1444
1241 1460
1241 1486
1241 1487
1241 1492
1241 1512
1241 1522
1241 1537
1241 1545
1241 1554
1241 1579
1241 1603
1241 1616
1241 1646
1241 1651
1241 1658
1241 1660
1241 1669
1241 1671
1241 1709
1241 1723
1241 1752
1241 1783
1241 1794
1241 1802
1241 1818
1241 1821
1241 1837
1241 1852
1241 1865
1241 1874
1241 1891
1241 1901
1241 1911
1241 1934
1241 1964
1241 2023
1241 2026
1241 2031
1241 2104
1241 2107
1241 2115
1241 2139
1241 2142
1241 2147
1241 2160
1241 2174
1241 2175
1241 2177
1241 2189
1241 2190
1241 2195
1241 2200
1241 2231
1241 2249
1242 1255
1242 1267
1242 1339
1242 1360
1242 1370
1242 1376
1242 1397
1242 1431
1242 1478
1242 1536
1242 1558
1242 1564
1242 1610
1242 1671
1242 1681
1242 1706
1242 1708
1242 1718
1242 1720
1242 1753
1242 1809
1242 1824
1242 1894
1242 1909
1242 1916
1242 1942
1242 1962
1242 1984
1242 2069
1242 2137
1242 2160
1242 2168
1242 2172
1242 2236
1242 2249
1243 1274
1243 1333
1243 1365
1243 1424
1243 1428
1243 1499
1243 1634
1243 1673
1243 1679
1243 1705
1243 1788
1243 1790
1243 1806
1243 1872
1243 1932
1243 1969
1243 1977
1243 1989
1243 2031
1243 2070
1243 2170
1243 2189
1243 2230
1244 1253
1244 1268
1244 1271
1244 1320
1244 1324
1244 1334
1244 1355
1244 1431
1244 1444
1244 1458
1244 1460
1244 1506
1244 1511
1244 1512
1244 1612
1244 1625
1244 1643
1244 1656
1244 1673
1244 1685
1244 1690
1244 1701
1244 1706
1244 1721
1244 1741
1244 1751
1244 1753
1244 1756
1244 1763
1244 1768
1244 1802
1244 1804
1244 1805
1244 1818
1244 1846
1244 1860
1244 1863
1244 1864
1244 1883
1244 1890
1244 1893
1244 1902
1244 1938
1244 1941
1244 1947
1244 1949
1244 1955
1244 1959
1244 1962
1244 1995
1244 2009
1244 2011
1244 2036
1244 2037
1244 2040
1244 2042
1244 2069
1244 2072
1244 2095
1244 2104
1244 2168
1244 2224
1244 2248
1245 1264
1245 1280
1245 1304
1245 1329
1245 1367
1245 1394
1245 1402
1245 1428
1245 1431
1245 1453
1245 1507
1245 1626
1245 1755
1245 1783
1245 1790
1245 1801
1245 1803
1245 1859
1245 1889
1245 1892
1245 1903
1245 2023
1245 2047
1245 2096
1245 2111
1245 2115
1245 2131
1245 2132
1245 2141
1245 2179
1245 2188
1245 2197
1246 1251
1246 1270
1246 1282
1246 1288
1246 1301
1246 1322
1246 1333
1246 1337
1246 1365
1246 1383
1246 1408
1246 1419
1246 1420
1246 1452
1246 1459
1246 1468
1246 1482
1246 1499
1246 1527
1246 1544
1246 1701
1246 1713
1246 1723
1246 1748
1246 1768
1246 1773
1246 1795
1246 1799
1246 1802
1246 1810
1246 1812
1246 1818
1246 1836
1246 1853
1246 1893
1246 1899
1246 1928
1246 1929
1246 1938
1246 1948
1246 1969
1246 1975
1246 2006
1246 2020
1246 2042
1246 2063
1246 2083
1246 2088
1246 2103
1246 2145
1246 2153
1246 2175
1246 2181
1246 2183
1246 2189
1246 2230
1246 2246
1247 1294
1247 1322
1247 1358
1247 1395
1247 1414
1247 1424
1247 1434
1247 1474
1247 1478
1247 1480
1247 1489
1247 1506
1247 1517
1247 1520
1247 1532
1247 1533
1247 1577
1247 1587
1247 1607
1247 1618
1247 1653
1247 1658
1247 1700
1247 1707
1247 1716
1247 1743
1247 1766
1247 1771
1247 1774
1247 1818
1247 1835
1247 1838
1247 1847
1247 1939
1247 1979
1247 1980
1247 2003
1247 2008
1247 2018
1247 2043
1247 2076
1247 2102
1247 2118
1247 2136
1247 2139
1247 2140
1247 2149
1247 2159
1247 2161
1247 2174
1247 2231
1247 2243
1248 1403
1249 1292
1249 1307
1249 1317
1249 1346
1249 1358
1249 1397
1249 1408
1249 1429
1249 1436
1249 1439
1249 1463
1249 1513
1249 1532
1249 1533
1249 1569
1249 1596
1249 1616
1249 1645
1249 1647
1249 1658
1249 1662
1249 1682
1249 1705
1249 1720
1249 1726
1249 1736
1249 1746
1249 1768
1249 1782
1249 1791
1249 1800
1249 1801
1249 1802
1249 1805
1249 1818
1249 1830
1249 1832
1249 1854
1249 1875
1249 1893
1249 1908
1249 1919
1249 1930
1249 1948
1249 2009
1249 2010
1249 2026
1249 2028
1249 2038
1249 2050
1249 2051
1249 2104
1249 2139
1249 2181
1249 2186
1249 2193
1249 2232
1249 2246
1250 1275
1250 1315
1250 1330
1250 1353
1250 1386
1250 1411
1250 1478
1250 1531
1250 1539
1250 1644
1250 1652
1250 1682
1250 1714
1250 2002
1250 2113
1250 2130
1250 2196
1250 2221
1250 2227
1251 1270
1251 1284
1251 1288
1251 1359
1251 1394
1251 1399
1251 1402
1251 1410
1251 1417
1251 1426
1251 1507
1251 1526
1251 1527
1251 1537
1251 1544
1251 1559
1251 1562
1251 1576
1251 1638
1251 1701
1251 1711
1251 1741
1251 1768
1251 1773
1251 1799
1251 1802
1251 1806
1251 1817
1251 1938
1251 1969
1251 1988
1251 2032
1251 2083
1251 2096
1251 2099
1251 2151
1251 2189
1251 2230
1252 1291
1252 1315
1252 1330
1252 1349
1252 1366
1252 1379
1252 1381
1252 1423
1252 1491
1252 1509
1252 1519
1252 1548
1252 1551
1252 1567
1252 1582
1252 1583
1252 1620
1252 1652
1252 1672
1252 1685
1252 1764
1252 1833
1252 1841
1252 1921
1252 1946
1252 1973
1252 2014
1252 2054
1252 2075
1252 2078
1252 2180
1252 2227
1252 2233
1253 1271
1253 1277
1253 1353
1253 1370
1253 1379
1253 1393
1253 1396
1253 1460
1253 1538
1253 1574
1253 1625
1253 1629
1253 1651
1253 1659
1253 1665
1253 1701
1253 1706
1253 1719
1253 1732
1253 1751
1253 1753
1253 1805
1253 1837
1253 1846
1253 1860
1253 1863
1253 1871
1253 1883
1253 1916
1253 1920
1253 1955
1253 1974
1253 2036
1253 2072
1253 2085
1253 2190
1253 2231
1253 2248
1254 1275
1254 1315
1254 1330
1254 1373
1254 1386
1254 1423
1254 1494
1254 1509
1254 1535
1254 1685
1254 1833
1254 1915
1254 1973
1254 2075
1254 2211
1255 1266
1255 1289
1255 1290
1255 1339
1255 1354
1255 1365
1255 1385
1255 1431
1255 1447
1255 1504
1255 1564
1255 1570
1255 1591
1255 1603
1255 1630
1255 1646
1255 1705
1255 1706
1255 1708
1255 1720
1255 1755
1255 1804
1255 1816
1255 1822
1255 1824
1255 1894
1255 1910
1255 1916
1255 1936
1255 1942
1255 2052
1255 2069
1255 2100
1255 2127
1255 2137
1255 2157
1255 2160
1255 2185
1255 2187
1255 2197
1255 2200
1255 2233
1256 1270
1256 1274
1256 1296
1256 1365
1256 1499
1256 1576
1256 1634
1256 1638
1256 1679
1256 1840
1256 1853
1256 1872
1256 1963
1256 1969
1256 2020
1256 2070
1256 2230
1257 1305
1257 1307
1257 1401
1257 1587
1257 1846
1258 1262
1258 1274
1258 1292
1258 1321
1258 1329
1258 1340
1258 1365
1258 1404
1258 1408
1258 1418
1258 1419
1258 1440
1258 1459
1258 1468
1258 1483
1258 1507
1258 1510
1258 1566
1258 1634
1258 1638
1258 1662
1258 1664
1258 1665
1258 1679
1258 1704
1258 1782
1258 1802
1258 1812
1258 1817
1258 1818
1258 1832
1258 1853
1258 1854
1258 1895
1258 1923
1258 1930
1258 2020
1258 2038
1258 2045
1258 2053
1258 2063
1258 2153
1258 2155
1258 2169
1258 2175
1258 2193
1260 1290
1260 1311
1260 1324
1260 1374
1260 1387
1260 1388
1260 1392
1260 1425
1260 1431
1260 1455
1260 1470
1260 1476
1260 1483
1260 1504
1260 1538
1260 1567
1260 1577
1260 1593
1260 1596
1260 1625
1260 1640
1260 1695
1260 1708
1260 1709
1260 1711
1260 1715
1260 1720
1260 1721
1260 1730
1260 1747
1260 1755
1260 1785
1260 1787
1260 1797
1260 1805
1260 1807
1260 1809
1260 1848
1260 1866
1260 1902
1260 1904
1260 1911
1260 1925
1260 1959
1260 1992
1260 1995
1260 2023
1260 2065
1260 2100
1260 2110
1260 2119
1260 2120
1260 2128
1260 2133
1260 2146
1260 2168
1260 2185
1260 2197
1260 2206
1260 2232
1260 2233
1261 1276
1261 1317
1261 1368
1261 1429
1261 1463
1261 1469
1261 1476
1261 1541
1261 1596
1261 1800
1261 1817
1261 1820
1261 1838
1261 1858
1261 1881
1261 1911
1261 1934
1261 1985
1261 2046
1261 2104
1261 2116
1261 2177
1261 2198
1261 2216
1262 1274
1262 1292
1262 1317
1262 1321
1262 1340
1262 1358
1262 1369
1262 1383
1262 1408
1262 1418
1262 1419
1262 1429
1262 1440
1262 1452
1262 1463
1262 1482
1262 1484
1262 1485
1262 1546
1262 1571
1262 1643
1262 1662
1262 1664
1262 1665
1262 1668
1262 1713
1262 1754
1262 1768
1262 1782
1262 1799
1262 1806
1262 1812
1262 1818
1262 1832
1262 1836
1262 1853
1262 1854
1262 1884
1262 1895
1262 1907
1262 1924
1262 1928
1262 1930
1262 1931
1262 1948
1262 2006
1262 2020
1262 2053
1262 2063
1262 2086
1262 2088
1262 2145
1262 2153
1262 2155
1262 2181
1262 2183
1262 2193
1262 2230
1262 2248
1263 1275
1263 1287
1263 1315
1263 1366
1263 1386
1263 1411
1263 1423
1263 1496
1263 1509
1263 1536
1263 1606
1263 1608
1263 1650
1263 1654
1263 1660
1263 1672
1263 1676
1263 1689
1263 1693
1263 1703
1263 1714
1263 1717
1263 1729
1263 1814
1263 1943
1263 1944
1263 1946
1263 1955
1263 1971
1263 1973
1263 1996
1263 2000
1263 2014
1263 2017
1263 2054
1263 2128
1263 2135
1263 2150
1263 2172
1263 2211
1263 2221
1263 2229
1263 2239
1263 2242
1264 1304
1264 1309
1264 1329
1264 1336
1264 1358
1264 1367
1264 1372
1264 1375
1264 1394
1264 1628
1264 1705
1264 1722
1264 1739
1264 1749
1264 1799
1264 1840
1264 1849
1264 1850
1264 1859
1264 1889
1264 1892
1264 1898
1264 1910
1264 1937
1264 1953
1264 1966
1264 1985
1264 2035
1264 2047
1264 2085
1264 2089
1264 2110
1264 2132
1264 2134
1264 2143
1264 2222
1265 1294
1265 1327
1265 1354
1265 1356
1265 1390
1265 1393
1265 1413
1265 1454
1265 1486
1265 1507
1265 1549
1265 1586
1265 1601
1265 1628
1265 1651
1265 1719
1265 1734
1265 1774
1265 1796
1265 1898
1265 1910
1265 1974
1265 1975
1265 1998
1265 2012
1265 2031
1265 2048
1265 2116
1265 2147
1265 2151
1265 2153
1265 2165
1265 2198
1265 2216
1266 1269
1266 1280
1266 1284
1266 1310
1266 1344
1266 1443
1266 1447
1266 1499
1266 1507
1266 1510
1266 1527
1266 1575
1266 1591
1266 1603
1266 1630
1266 1741
1266 1768
1266 1775
1266 1803
1266 1816
1266 1878
1266 1888
1266 1931
1266 1938
1266 1972
1266 2006
1266 2048
1266 2100
1266 2141
1266 2157
1266 2185
1266 2188
1267 1327
1267 1372
1267 1377
1267 1384
1267 1431
1267 1461
1267 1474
1267 1506
1267 1605
1267 1681
1267 1720
1267 1755
1267 1785
1267 1818
1267 1837
1267 1847
1267 1866
1267 1875
1267 1886
1267 1992
1267 2023
1267 2052
1267 2056
1267 2069
1267 2087
1267 2102
1267 2201
1267 2202
1267 2213
1268 1355
1268 1370
1268 1461
1268 1483
1268 1488
1268 1506
1268 1538
1268 1554
1268 1681
1268 1702
1268 1704
1268 1706
1268 1753
1268 1765
1268 1804
1268 1809
1268 1818
1268 1838
1268 1909
1268 1940
1268 1974
1268 2023
1268 2052
1268 2099
1268 2119
1268 2146
1268 2158
1268 2161
1269 1276
1269 1301
1269 1314
1269 1322
1269 1364
1269 1369
1269 1387
1269 1444
1269 1482
1269 1486
1269 1497
1269 1517
1269 1527
1269 1541
1269 1596
1269 1607
1269 1678
1269 1706
1269 1748
1269 1795
1269 1814
1269 1818
1269 1827
1269 1837
1269 1881
1269 1885
1269 1892
1269 1904
1269 1959
1269 1985
1269 1989
1269 2009
1269 2018
1269 2026
1269 2046
1269 2071
1269 2073
1269 2091
1269 2107
1269 2139
1269 2153
1269 2175
1269 2186
1269 2231
1269 2246
1270 1282
1270 1288
1270 1292
1270 1321
1270 1323
1270 1325
1270 1333
1270 1344
1270 1351
1270 1374
1270 1393
1270 1394
1270 1399
1270 1408
1270 1438
1270 1507
1270 1526
1270 1527
1270 1544
1270 1554
1270 1562
1270 1576
1270 1591
1270 1593
1270 1609
1270 1625
1270 1629
1270 1630
1270 1634
1270 1635
1270 1638
1270 1662
1270 1701
1270 1750
1270 1773
1270 1782
1270 1787
1270 1791
1270 1799
1270 1802
1270 1804
1270 1817
1270 1822
1270 1832
1270 1840
1270 1890
1270 1906
1270 1919
1270 1923
1270 1929
1270 1930
1270 1931
1270 1963
1270 1969
1270 1988
1270 2012
1270 2020
1270 2034
1270 2037
1270 2041
1270 2062
1270 2080
1270 2083
1270 2088
1270 2099
1270 2124
1270 2139
1270 2173
1270 2183
1270 2189
1270 2225
1270 2230
1271 1369
1271 1417
1271 1460
1271 1673
1271 1723
1271 1753
1271 1802
1271 1916
1271 1955
1271 1962
1271 2190
1271 2248
1272 1454
1272 1634
1272 1645
1272 1650
1272 1818
1272 1870
1272 1892
1272 1958
1272 1984
1272 2051
1272 2052
1272 2123
1272 2182
1272 2185
1273 1290
1273 1311
1273 1353
1273 1425
1273 1448
1273 1458
1273 1460
1273 1473
1273 1501
1273 1546
1273 1574
1273 1741
1273 1761
1273 1875
1273 1899
1273 1901
1273 1902
1273 1947
1273 2007
1273 2037
1273 2091
1273 2121
1273 2171
1273 2202
1273 2206
1273 2236
1274 1279
1274 1292
1274 1307
1274 1340
1274 1344
1274 1348
1274 1413
1274 1418
1274 1440
1274 1442
1274 1474
1274 1492
1274 1499
1274 1503
1274 1510
1274 1514
1274 1554
1274 1571
1274 1581
1274 1646
1274 1661
1274 1662
1274 1664
1274 1694
1274 1704
1274 1788
1274 1799
1274 1802
1274 1807
1274 1832
1274 1840
1274 1854
1274 1859
1274 1872
1274 1895
1274 1931
1274 1960
1274 1963
1274 1969
1274 1977
1274 2053
1274 2063
1274 2070
1274 2074
1274 2099
1274 2155
1274 2156
1274 2165
1274 2228
1275 1287
1275 1306
1275 1319
1275 1330
1275 1355
1275 1362
1275 1373
1275 1381
1275 1386
1275 1411
1275 1423
1275 1427
1275 1451
1275 1465
1275 1477
1275 1480
1275 1494
1275 1509
1275 1519
1275 1525
1275 1529
1275 1535
1275 1542
1275 1551
1275 1582
1275 1585
1275 1608
1275 1620
1275 1621
1275 1636
1275 1644
1275 1668
1275 1672
1275 1677
1275 1682
1275 1684
1275 1685
1275 1712
1275 1717
1275 1724
1275 1725
1275 1729
1275 1777
1275 1778
1275 1814
1275 1821
1275 1839
1275 1856
1275 1873
1275 1884
1275 1907
1275 1908
1275 1933
1275 1944
1275 1945
1275 1946
1275 1971
1275 1973
1275 1984
1275 1999
1275 2002
1275 2014
1275 2017
1275 2061
1275 2105
1275 2106
1275 2127
1275 2130
1275 2135
1275 2140
1275 2150
1275 2152
1275 2178
1275 2180
1275 2211
1275 2221
1275 2223
1275 2224
1275 2227
1275 2239
1275 2242
1276 1438
1276 1484
1276 1541
1276 1771
1276 1795
1276 1818
1276 1827
1276 2018
1276 2041
1276 2046
1276 2071
1276 2073
1276 2107
1276 2144
1276 2177
1276 2245
1276 2246
1277 1322
1277 1370
1277 1378
1277 1385
1277 1391
1277 1393
1277 1397
1277 1408
1277 1409
1277 1421
1277 1434
1277 1454
1277 1468
1277 1473
1277 1474
1277 1487
1277 1491
1277 1493
1277 1510
1277 1532
1277 1545
1277 1581
1277 1586
1277 1589
1277 1607
1277 1613
1277 1624
1277 1628
1277 1632
1277 1641
1277 1643
1277 1651
1277 1681
1277 1688
1277 1719
1277 1732
1277 1741
1277 1759
1277 1772
1277 1813
1277 1818
1277 1835
1277 1859
1277 1862
1277 1863
1277 1866
1277 1875
1277 1876
1277 1911
1277 1930
1277 1948
1277 1952
1277 1965
1277 1969
1277 1974
1277 1981
1277 1982
1277 1990
1277 2006
1277 2009
1277 2012
1277 2051
1277 2052
1277 2076
1277 2078
1277 2081
1277 2099
1277 2100
1277 2107
1277 2117
1277 2121
1277 2133
1277 2148
1277 2161
1277 2167
1277 2194
1278 1376
1278 1415
1278 1445
1278 1501
1278 1671
1278 1706
1278 1708
1278 1756
1278 1863
1278 1925
1278 2069
1278 2185
1278 2187
1278 2202
1278 2236
1279 1311
1279 1324
1279 1334
1279 1348
1279 1365
1279 1425
1279 1448
1279 1471
1279 1499
1279 1512
1279 1538
1279 1558
1279 1566
1279 1567
1279 1605
1279 1634
1279 1656
1279 1679
1279 1701
1279 1768
1279 1840
1279 1848
1279 1872
1279 1899
1279 1915
1279 1923
1279 1963
1279 1969
1279 1975
1279 1977
1279 2066
1279 2070
1279 2088
1279 2090
1279 2109
1279 2153
1279 2169
1279 2189
1280 1304
1280 1308
1280 1322
1280 1345
1280 1349
1280 1367
1280 1369
1280 1378
1280 1384
1280 1406
1280 1413
1280 1417
1280 1424
1280 1429
1280 1431
1280 1463
1280 1470
1280 1475
1280 1511
1280 1526
1280 1579
1280 1643
1280 1653
1280 1694
1280 1739
1280 1755
1280 1802
1280 1803
1280 1830
1280 1859
1280 1867
1280 1881
1280 1890
1280 1891
1280 1892
1280 1898
1280 1903
1280 1912
1280 1969
1280 2018
1280 2055
1280 2080
1280 2085
1280 2089
1280 2099
1280 2104
1280 2177
1280 2197
1280 2203
1280 2204
1280 2222
1281 1317
1281 1419
1281 1469
1281 1881
1281 1975
1281 2006
1281 2246
1282 1288
1282 1333
1282 1340
1282 1351
1282 1369
1282 1383
1282 1408
1282 1419
1282 1424
1282 1443
1282 1448
1282 1468
1282 1482
1282 1499
1282 1521
1282 1526
1282 1562
1282 1576
1282 1584
1282 1609
1282 1638
1282 1643
1282 1679
1282 1713
1282 1723
1282 1748
1282 1788
1282 1799
1282 1802
1282 1806
1282 1810
1282 1812
1282 1818
1282 1840
1282 1853
1282 1887
1282 1895
1282 1923
1282 1924
1282 1928
1282 1931
1282 1948
1282 1963
1282 2006
1282 2038
1282 2040
1282 2063
1282 2095
1282 2103
1282 2125
1282 2145
1282 2153
1282 2181
1282 2183
1282 2193
1282 2230
1282 2235
1283 1318
1283 1335
1283 1352
1283 1360
1283 1364
1283 1395
1283 1396
1283 1414
1283 1426
1283 1450
1283 1454
1283 1464
1283 1486
1283 1503
1283 1543
1283 1549
1283 1565
1283 1586
1283 1598
1283 1607
1283 1631
1283 1637
1283 1647
1283 1651
1283 1688
1283 1692
1283 1710
1283 1721
1283 1745
1283 1748
1283 1752
1283 1783
1283 1791
1283 1794
1283 1796
1283 1799
1283 1807
1283 1831
1283 1844
1283 1850
1283 1851
1283 1855
1283 1859
1283 1905
1283 1906
1283 1910
1283 1947
1283 1951
1283 1960
1283 1974
1283 1982
1283 1998
1283 2003
1283 2016
1283 2029
1283 2035
1283 2067
1283 2074
1283 2083
1283 2085
1283 2090
1283 2091
1283 2097
1283 2099
1283 2136
1283 2138
1283 2140
1283 2165
1283 2182
1283 2186
1283 2246
1284 1288
1284 1344
1284 1348
1284 1393
1284 1526
1284 1527
1284 1576
1284 1596
1284 1638
1284 1722
1284 1799
1284 1802
1284 1906
1284 1931
1284 1969
1284 2038
1284 2048
1284 2083
1284 2143
1284 2145
1284 2230
1285 1322
1285 1335
1285 1346
1285 1358
1285 1361
1285 1363
1285 1375
1285 1406
1285 1413
1285 1442
1285 1443
1285 1460
1285 1504
1285 1522
1285 1530
1285 1565
1285 1569
1285 1584
1285 1653
1285 1670
1285 1722
1285 1731
1285 1735
1285 1739
1285 1769
1285 1783
1285 1787
1285 1794
1285 1799
1285 1825
1285 1831
1285 1850
1285 1889
1285 2047
1285 2086
1285 2089
1285 2127
1285 2134
1285 2136
1285 2189
1285 2198
1286 1308
1286 1310
1286 1399
1286 1413
1286 1426
1286 1465
1286 1498
1286 1503
1286 1507
1286 1527
1286 1603
1286 1616
1286 1630
1286 1663
1286 1669
1286 1697
1286 1741
1286 1803
1286 1806
1286 1845
1286 1849
1286 1859
1286 1867
1286 1938
1286 1948
1286 2020
1286 2025
1286 2098
1286 2145
1287 1315
1287 1319
1287 1330
1287 1381
1287 1386
1287 1423
1287 1431
1287 1470
1287 1491
1287 1495
1287 1509
1287 1519
1287 1551
1287 1553
1287 1582
1287 1606
1287 1608
1287 1620
1287 1672
1287 1687
1287 1689
1287 1698
1287 1714
1287 1717
1287 1729
1287 1755
1287 1833
1287 1884
1287 1921
1287 1943
1287 1971
1287 2014
1287 2039
1287 2075
1287 2113
1287 2130
1287 2184
1287 2221
1288 1323
1288 1333
1288 1351
1288 1365
1288 1399
1288 1408
1288 1438
1288 1468
1288 1517
1288 1544
1288 1562
1288 1566
1288 1584
1288 1609
1288 1632
1288 1635
1288 1638
1288 1701
1288 1704
1288 1713
1288 1723
1288 1730
1288 1782
1288 1802
1288 1810
1288 1812
1288 1817
1288 1818
1288 1836
1288 1878
1288 1887
1288 1899
1288 1902
1288 1906
1288 1923
1288 1924
1288 1930
1288 1975
1288 1988
1288 2006
1288 2020
1288 2042
1288 2083
1288 2095
1288 2100
1288 2124
1288 2134
1288 2235
1289 1290
1289 1311
1289 1332
1289 1354
1289 1384
1289 1436
1289 1504
1289 1538
1289 1558
1289 1566
1289 1593
1289 1622
1289 1646
1289 1654
1289 1656
1289 1657
1289 1673
1289 1701
1289 1706
1289 1720
1289 1730
1289 1753
1289 1765
1289 1772
1289 1804
1289 1805
1289 1809
1289 1813
1289 1818
1289 1836
1289 1841
1289 1846
1289 1869
1289 1877
1289 1878
1289 1909
1289 1916
1289 1923
1289 1945
1289 1962
1289 1967
1289 1995
1289 2001
1289 2036
1289 2100
1289 2109
1289 2137
1289 2157
1289 2162
1289 2180
1289 2185
1289 2200
1289 2233
1290 1298
1290 1311
1290 1316
1290 1320
1290 1334
1290 1353
1290 1354
1290 1355
1290 1370
1290 1414
1290 1430
1290 1431
1290 1434
1290 1447
1290 1448
1290 1450
1290 1458
1290 1460
1290 1471
1290 1473
1290 1474
1290 1476
1290 1488
1290 1506
1290 1524
1290 1546
1290 1558
1290 1567
1290 1574
1290 1585
1290 1591
1290 1600
1290 1612
1290 1645
1290 1646
1290 1654
1290 1657
1290 1681
1290 1690
1290 1706
1290 1709
1290 1720
1290 1721
1290 1730
1290 1749
1290 1753
1290 1756
1290 1761
1290 1765
1290 1772
1290 1796
1290 1797
1290 1809
1290 1818
1290 1822
1290 1853
1290 1875
1290 1877
1290 1894
1290 1901
1290 1902
1290 1904
1290 1911
1290 1977
1290 2040
1290 2043
1290 2065
1290 2072
1290 2100
1290 2121
1290 2133
1290 2146
1290 2157
1290 2160
1290 2171
1290 2200
1290 2202
1290 2206
1290 2248
1291 1366
1291 1535
1291 1582
1291 1724
1291 1773
1291 1818
1291 1833
1291 1921
1291 1933
1291 1973
1291 2075
1291 2184
1292 1296
1292 1321
1292 1325
1292 1340
1292 1365
1292 1408
1292 1418
1292 1419
1292 1459
1292 1482
1292 1483
1292 1507
1292 1510
1292 1576
1292 1638
1292 1645
1292 1662
1292 1665
1292 1673
1292 1721
1292 1741
1292 1754
1292 1782
1292 1795
1292 1801
1292 1802
1292 1806
1292 1817
1292 1818
1292 1924
1292 1931
1292 2038
1292 2045
1292 2053
1292 2063
1292 2103
1292 2129
1292 2145
1292 2155
1292 2169
1292 2173
1292 2193
1293 1296
1293 1364
1293 1365
1293 1369
1293 1416
1293 1459
1293 1492
1293 1627
1293 1744
1293 1783
1293 1818
1293 1836
1293 1838
1293 1880
1293 1934
1293 1962
1293 1975
1293 2022
1293 2026
1293 2041
1293 2062
1293 2144
1293 2151
1293 2177
1293 2245
1293 2246
1294 1327
1294 1335
1294 1349
1294 1370
1294 1390
1294 1394
1294 1414
1294 1432
1294 1472
1294 1474
1294 1493
1294 1537
1294 1549
1294 1653
1294 1658
1294 1700
1294 1744
1294 1746
1294 1762
1294 1771
1294 1774
1294 1783
1294 1794
1294 1796
1294 1926
1294 2003
1294 2012
1294 2029
1294 2076
1294 2103
1294 2118
1294 2123
1294 2136
1294 2205
1294 2216
1295 1594
1295 1655
1295 2098
1295 2120
1296 1298
1296 1321
1296 1328
1296 1365
1296 1387
1296 1391
1296 1408
1296 1429
1296 1463
1296 1497
1296 1499
1296 1526
1296 1638
1296 1662
1296 1748
1296 1791
1296 1840
1296 1853
1296 1862
1296 1872
1296 1878
1296 1898
1296 1928
1296 1932
1296 1937
1296 1963
1296 1969
1296 1975
1296 2006
1296 2040
1296 2070
1296 2145
1297 1799
1297 2218
1297 2228
1297 2250
1298 1311
1298 1316
1298 1334
1298 1353
1298 1356
1298 1370
1298 1377
1298 1427
1298 1444
1298 1448
1298 1460
1298 1474
1298 1492
1298 1512
1298 1558
1298 1605
1298 1628
1298 1634
1298 1645
1298 1654
1298 1656
1298 1671
1298 1673
1298 1679
1298 1706
1298 1723
1298 1730
1298 1797
1298 1804
1298 1860
1298 1865
1298 1875
1298 1883
1298 1896
1298 1901
1298 1902
1298 1904
1298 1909
1298 1916
1298 1923
1298 1949
1298 1955
1298 1962
1298 2040
1298 2043
1298 2069
1298 2072
1298 2095
1298 2100
1298 2168
1298 2171
1298 2185
1298 2190
1298 2206
1298 2226
1298 2233
1298 2248
1299 1322
1299 1346
1299 1358
1299 1369
1299 1406
1299 1413
1299 1443
1299 1460
1299 1488
1299 1518
1299 1530
1299 1575
1299 1596
1299 1653
1299 1735
1299 1792
1299 1803
1299 1818
1299 1825
1299 1829
1299 1908
1299 2027
1299 2089
1300 1309
1300 1322
1300 1375
1300 1414
1300 1467
1300 1489
1300 1594
1300 2021
1300 2089
1300 2101
1300 2118
1300 2143
1300 2189
1300 2195
1300 2201
1300 2243
1301 1314
1301 1364
1301 1369
1301 1497
1301 1499
1301 1596
1301 1672
1301 1748
1301 1795
1301 1928
1301 1938
1301 1948
1301 2086
1301 2175
1301 2181
1302 1737
1302 1833
1302 1977
1302 2238
1303 1958
1304 1331
1304 1336
1304 1367
1304 1390
1304 1408
1304 1414
1304 1428
1304 1434
1304 1453
1304 1493
1304 1565
1304 1579
1304 1589
1304 1594
1304 1596
1304 1607
1304 1615
1304 1640
1304 1641
1304 1688
1304 1695
1304 1700
1304 1705
1304 1721
1304 1728
1304 1739
1304 1759
1304 1783
1304 1788
1304 1799
1304 1802
1304 1803
1304 1812
1304 1850
1304 1876
1304 1892
1304 1903
1304 1910
1304 1912
1304 1938
1304 1974
1304 1985
1304 2035
1304 2043
1304 2068
1304 2085
1304 2097
1304 2110
1304 2177
1304 2203
1304 2235
1305 1307
1305 1311
1305 1436
1305 1458
1305 1596
1305 1612
1305 1673
1305 1706
1305 1730
1305 1751
1305 1753
1305 1805
1305 1837
1305 1846
1305 1863
1305 1883
1305 1909
1305 1940
1305 1955
1305 1992
1305 2036
1305 2037
1305 2066
1305 2069
1305 2219
1305 2248
1306 1315
1306 1381
1306 1386
1306 1465
1306 1644
1306 1648
1306 1687
1306 1717
1306 1784
1306 1859
1306 1884
1306 1921
1306 1978
1306 2060
1306 2061
1306 2075
1306 2207
1306 2217
1306 2227
1307 1309
1307 1338
1307 1346
1307 1360
1307 1365
1307 1371
1307 1401
1307 1410
1307 1514
1307 1522
1307 1581
1307 1594
1307 1645
1307 1646
1307 1708
1307 1726
1307 1746
1307 1772
1307 1783
1307 1791
1307 1794
1307 1799
1307 1801
1307 1807
1307 1813
1307 1818
1307 1830
1307 1866
1307 1892
1307 1919
1307 1994
1307 2010
1307 2038
1307 2052
1307 2167
1307 2195
1307 2234
1308 1310
1308 1349
1308 1396
1308 1406
1308 1476
1308 1493
1308 1526
1308 1554
1308 1579
1308 1603
1308 1663
1308 1697
1308 1741
1308 1742
1308 1762
1308 1799
1308 1802
1308 1803
1308 1845
1308 1850
1308 1859
1308 1867
1308 1890
1308 1904
1308 1926
1308 1934
1308 2025
1308 2046
1308 2120
1308 2129
1308 2157
1308 2234
1309 1371
1309 1372
1309 1393
1309 1395
1309 1401
1309 1428
1309 1432
1309 1442
1309 1453
1309 1454
1309 1467
1309 1469
1309 1480
1309 1522
1309 1527
1309 1565
1309 1569
1309 1628
1309 1646
1309 1658
1309 1699
1309 1735
1309 1739
1309 1741
1309 1759
1309 1783
1309 1788
1309 1794
1309 1799
1309 1801
1309 1846
1309 1849
1309 1872
1309 1889
1309 1892
1309 1931
1309 1938
1309 1974
1309 2012
1309 2035
1309 2098
1309 2101
1309 2115
1309 2118
1309 2123
1309 2139
1309 2141
1309 2143
1309 2170
1309 2189
1309 2194
1309 2201
1310 1329
1310 1380
1310 1426
1310 1526
1310 1527
1310 1579
1310 1603
1310 1639
1310 1663
1310 1667
1310 1688
1310 1711
1310 1741
1310 1783
1310 1787
1310 1794
1310 1799
1310 1802
1310 1803
1310 1818
1310 1845
1310 1867
1310 1931
1310 1934
1310 1938
1310 1968
1310 2025
1310 2034
1310 2085
1310 2111
1310 2129
1310 2157
1311 1324
1311 1334
1311 1336
1311 1342
1311 1353
1311 1355
1311 1358
1311 1384
1311 1392
1311 1436
1311 1444
1311 1448
1311 1456
1311 1458
1311 1460
1311 1463
1311 1470
1311 1473
1311 1474
1311 1492
1311 1524
1311 1535
1311 1546
1311 1554
1311 1558
1311 1567
1311 1574
1311 1596
1311 1607
1311 1612
1311 1613
1311 1637
1311 1642
1311 1647
1311 1654
1311 1657
1311 1673
1311 1690
1311 1695
1311 1705
1311 1706
1311 1708
1311 1721
1311 1730
1311 1753
1311 1759
1311 1761
1311 1772
1311 1785
1311 1790
1311 1797
1311 1805
1311 1809
1311 1838
1311 1848
1311 1850
1311 1875
1311 1883
1311 1885
1311 1896
1311 1899
1311 1901
1311 1902
1311 1904
1311 1909
1311 1917
1311 1920
1311 1936
1311 1940
1311 1944
1311 1949
1311 1955
1311 1959
1311 1962
1311 1967
1311 1985
1311 1995
1311 2001
1311 2011
1311 2028
1311 2035
1311 2036
1311 2037
1311 2040
1311 2043
1311 2065
1311 2066
1311 2082
1311 2098
1311 2100
1311 2102
1311 2121
1311 2161
1311 2168
1311 2171
1311 2186
1311 2189
1311 2201
1311 2204
1311 2206
1311 2231
1311 2233
1312 1317
1312 1318
1312 1342
1312 1356
1312 1358
1312 1375
1312 1382
1312 1391
1312 1395
1312 1397
1312 1416
1312 1429
1312 1439
1312 1441
1312 1463
1312 1474
1312 1515
1312 1569
1312 1594
1312 1611
1312 1612
1312 1616
1312 1640
1312 1653
1312 1678
1312 1692
1312 1713
1312 1787
1312 1799
1312 1800
1312 1818
1312 1850
1312 1852
1312 1858
1312 1880
1312 1911
1312 1934
1312 1942
1312 1947
1312 1949
1312 1959
1312 1960
1312 1975
1312 2008
1312 2011
1312 2025
1312 2043
1312 2050
1312 2071
1312 2091
1312 2104
1312 2108
1312 2119
1312 2126
1312 2160
1312 2161
1312 2175
1312 2176
1312 2200
1312 2243
1312 2246
1312 2249
1313 1370
1313 1376
1313 1444
1313 1445
1313 1460
1313 1564
1313 1671
1313 1673
1313 1761
1313 1805
1313 1824
1313 1837
1313 1894
1313 1909
1313 1916
1313 1922
1313 2003
1313 2069
1313 2171
1313 2187
1314 1322
1314 1369
1314 1469
1314 1474
1314 1486
1314 1541
1314 1748
1314 1771
1314 1795
1314 1803
1314 1818
1314 1827
1314 1855
1314 1911
1314 2018
1314 2046
1314 2073
1314 2103
1314 2107
1314 2153
1314 2175
1315 1330
1315 1373
1315 1381
1315 1411
1315 1423
1315 1465
1315 1509
1315 1525
1315 1531
1315 1536
1315 1539
1315 1552
1315 1553
1315 1561
1315 1568
1315 1583
1315 1585
1315 1608
1315 1614
1315 1636
1315 1644
1315 1660
1315 1668
1315 1672
1315 1685
1315 1687
1315 1698
1315 1717
1315 1754
1315 1778
1315 1784
1315 1814
1315 1821
1315 1834
1315 1873
1315 1884
1315 1907
1315 1915
1315 1921
1315 1944
1315 1971
1315 1996
1315 2002
1315 2007
1315 2017
1315 2075
1315 2082
1315 2105
1315 2106
1315 2112
1315 2135
1315 2149
1315 2150
1315 2178
1315 2210
1315 2227
1315 2239
1315 2242
1316 1317
1316 1334
1316 1348
1316 1353
1316 1364
1316 1393
1316 1444
1316 1538
1316 1558
1316 1577
1316 1634
1316 1654
1316 1708
1316 1730
1316 1761
1316 1855
1316 1896
1316 1904
1316 1949
1316 1955
1316 1962
1316 2008
1316 2011
1316 2043
1316 2186
1316 2190
1316 2206
1317 1321
1317 1340
1317 1382
1317 1383
1317 1408
1317 1419
1317 1429
1317 1430
1317 1439
1317 1459
1317 1492
1317 1512
1317 1676
1317 1678
1317 1685
1317 1746
1317 1754
1317 1768
1317 1782
1317 1786
1317 1795
1317 1812
1317 1818
1317 1853
1317 1891
1317 1921
1317 1924
1317 1930
1317 1973
1317 1975
1317 2006
1317 2020
1317 2051
1317 2063
1317 2088
1317 2103
1317 2126
1317 2139
1317 2153
1317 2177
1317 2181
1317 2193
1317 2209
1318 1332
1318 1342
1318 1366
1318 1375
1318 1382
1318 1391
1318 1395
1318 1420
1318 1439
1318 1441
1318 1463
1318 1474
1318 1554
1318 1569
1318 1575
1318 1611
1318 1640
1318 1658
1318 1692
1318 1783
1318 1800
1318 1838
1318 1852
1318 1858
1318 1875
1318 1891
1318 1911
1318 2010
1318 2050
1318 2104
1318 2126
1318 2160
1318 2176
1318 2204
1318 2231
1318 2235
1319 1330
1319 1373
1319 1386
1319 1474
1319 1539
1319 1821
1319 1921
1319 1971
1319 2075
1319 2135
1320 1354
1320 1417
1320 1452
1320 1616
1320 1654
1320 1723
1320 1753
1320 1761
1320 1797
1320 1837
1320 1911
1320 1947
1320 1962
1320 2118
1320 2143
1320 2157
1320 2201
1320 2206
1321 1325
1321 1340
1321 1346
1321 1365
1321 1369
1321 1394
1321 1397
1321 1408
1321 1419
1321 1420
1321 1429
1321 1468
1321 1485
1321 1499
1321 1526
1321 1576
1321 1602
1321 1609
1321 1638
1321 1690
1321 1701
1321 1713
1321 1748
1321 1791
1321 1799
1321 1802
1321 1812
1321 1818
1321 1820
1321 1840
1321 1849
1321 1853
1321 1878
1321 1902
1321 1906
1321 1924
1321 1928
1321 1938
1321 1940
1321 1963
1321 1969
1321 1975
1321 1977
1321 2006
1321 2009
1321 2020
1321 2038
1321 2040
1321 2063
1321 2064
1321 2088
1321 2124
1321 2129
1321 2153
1321 2181
1321 2183
1321 2193
1321 2210
1321 2230
1321 2248
1322 1325
1322 1332
1322 1334
1322 1335
1322 1337
1322 1358
1322 1363
1322 1364
1322 1365
1322 1369
1322 1375
1322 1385
1322 1391
1322 1406
1322 1408
1322 1413
1322 1420
1322 1424
1322 1429
1322 1431
1322 1434
1322 1443
1322 1444
1322 1460
1322 1463
1322 1474
1322 1486
1322 1488
1322 1492
1322 1497
1322 1504
1322 1510
1322 1514
1322 1517
1322 1518
1322 1520
1322 1522
1322 1530
1322 1554
1322 1569
1322 1575
1322 1577
1322 1581
1322 1596
1322 1607
1322 1624
1322 1632
1322 1643
1322 1646
1322 1647
1322 1658
1322 1669
1322 1670
1322 1697
1322 1709
1322 1720
1322 1730
1322 1732
1322 1742
1322 1743
1322 1755
1322 1772
1322 1775
1322 1795
1322 1803
1322 1816
1322 1818
1322 1825
1322 1828
1322 1829
1322 1838
1322 1859
1322 1866
1322 1875
1322 1880
1322 1883
1322 1890
1322 1901
1322 1903
1322 1908
1322 1910
1322 1911
1322 1912
1322 1916
1322 1928
1322 1939
1322 1948
1322 1949
1322 1975
1322 1985
1322 1998
1322 2012
1322 2022
1322 2028
1322 2035
1322 2043
1322 2077
1322 2086
1322 2089
1322 2091
1322 2099
1322 2100
1322 2104
1322 2117
1322 2127
1322 2138
1322 2139
1322 2140
1322 2153
1322 2167
1322 2174
1322 2189
1322 2197
1322 2198
1322 2202
1322 2222
1322 2231
1322 2235
1322 2246
1323 1368
1323 1526
1323 1544
1323 1562
1323 1584
1323 1609
1323 1667
1323 1719
1323 1782
1323 1802
1323 1817
1323 1887
1323 1912
1323 1930
1323 1941
1323 1968
1323 2012
1323 2038
1323 2124
1323 2230
1324 1334
1324 1336
1324 1353
1324 1355
1324 1384
1324 1431
1324 1436
1324 1564
1324 1574
1324 1596
1324 1605
1324 1612
1324 1613
1324 1647
1324 1701
1324 1705
1324 1720
1324 1721
1324 1759
1324 1772
1324 1799
1324 1805
1324 1850
1324 1865
1324 1866
1324 1902
1324 1917
1324 1949
1324 1962
1324 1995
1324 2001
1324 2028
1324 2043
1324 2065
1324 2069
1324 2168
1324 2169
1324 2175
1324 2190
1324 2233
1324 2249
1325 1344
1325 1365
1325 1391
1325 1408
1325 1424
1325 1432
1325 1440
1325 1443
1325 1450
1325 1459
1325 1484
1325 1486
1325 1489
1325 1526
1325 1662
1325 1673
1325 1680
1325 1697
1325 1700
1325 1732
1325 1734
1325 1759
1325 1818
1325 1832
1325 1835
1325 1887
1325 1898
1325 1906
1325 1939
1325 1958
1325 1966
1325 2006
1325 2034
1325 2134
1325 2139
1325 2183
1326 1334
1326 1494
1326 1551
1326 1595
1326 1602
1326 1648
1326 1698
1326 1701
1326 1833
1326 1873
1326 1945
1326 1973
1326 2075
1326 2211
1326 2227
1326 2237
1326 2244
1327 1360
1327 1389
1327 1406
1327 1446
1327 1478
1327 1498
1327 1500
1327 1550
1327 1589
1327 1600
1327 1601
1327 1613
1327 1700
1327 1720
1327 1752
1327 1774
1327 1835
1327 1867
1327 1914
1327 1926
1327 2015
1327 2140
1327 2147
1327 2158
1327 2216
1327 2241
1328 1348
1328 1359
1328 1402
1328 1490
1328 1938
1328 2230
1329 1343
1329 1375
1329 1389
1329 1394
1329 1420
1329 1426
1329 1450
1329 1457
1329 1459
1329 1493
1329 1543
1329 1569
1329 1594
1329 1609
1329 1626
1329 1628
1329 1629
1329 1635
1329 1637
1329 1669
1329 1697
1329 1704
1329 1705
1329 1711
1329 1721
1329 1759
1329 1780
1329 1782
1329 1794
1329 1799
1329 1812
1329 1850
1329 1867
1329 1895
1329 1919
1329 1930
1329 1938
1329 1958
1329 1966
1329 1988
1329 2038
1329 2041
1329 2068
1329 2089
1329 2098
1329 2110
1329 2120
1329 2124
1329 2129
1329 2141
1329 2175
1329 2189
1329 2193
1329 2209
1330 1350
1330 1366
1330 1373
1330 1381
1330 1386
1330 1411
1330 1451
1330 1481
1330 1491
1330 1495
1330 1502
1330 1509
1330 1531
1330 1535
1330 1536
1330 1539
1330 1548
1330 1552
1330 1561
1330 1563
1330 1573
1330 1595
1330 1608
1330 1617
1330 1636
1330 1644
1330 1668
1330 1672
1330 1676
1330 1685
1330 1687
1330 1689
1330 1717
1330 1724
1330 1725
1330 1764
1330 1778
1330 1811
1330 1813
1330 1833
1330 1834
1330 1873
1330 1884
1330 1907
1330 1915
1330 1921
1330 1933
1330 1944
1330 1971
1330 1973
1330 2002
1330 2007
1330 2014
1330 2017
1330 2044
1330 2061
1330 2075
1330 2078
1330 2082
1330 2105
1330 2112
1330 2150
1330 2178
1330 2207
1330 2210
1330 2223
1330 2224
1330 2227
1330 2238
1330 2240
1330 2244
1332 1346
1332 1358
1332 1364
1332 1369
1332 1380
1332 1382
1332 1391
1332 1420
1332 1424
1332 1426
1332 1439
1332 1443
1332 1459
1332 1463
1332 1469
1332 1480
1332 1493
1332 1498
1332 1518
1332 1554
1332 1603
1332 1610
1332 1637
1332 1639
1332 1640
1332 1641
1332 1658
1332 1721
1332 1726
1332 1730
1332 1732
1332 1775
1332 1809
1332 1818
1332 1820
1332 1827
1332 1862
1332 1908
1332 1934
1332 2008
1332 2040
1332 2043
1332 2051
1332 2076
1332 2081
1332 2099
1332 2100
1332 2104
1332 2108
1332 2127
1332 2157
1332 2177
1332 2185
1332 2188
1332 2200
1333 1351
1333 1374
1333 1399
1333 1419
1333 1426
1333 1448
1333 1482
1333 1521
1333 1526
1333 1527
1333 1562
1333 1609
1333 1667
1333 1802
1333 1806
1333 1853
1333 1854
1333 1878
1333 1924
1333 1932
1333 1948
1333 1956
1333 1975
1333 1988
1333 2006
1333 2020
1333 2088
1333 2098
1333 2145
1333 2183
1334 1348
1334 1353
1334 1355
1334 1358
1334 1364
1334 1370
1334 1376
1334 1425
1334 1436
1334 1444
1334 1456
1334 1460
1334 1473
1334 1483
1334 1488
1334 1497
1334 1504
1334 1538
1334 1546
1334 1567
1334 1574
1334 1612
1334 1616
1334 1622
1334 1645
1334 1647
1334 1657
1334 1679
1334 1703
1334 1706
1334 1718
1334 1730
1334 1761
1334 1797
1334 1837
1334 1848
1334 1866
1334 1875
1334 1885
1334 1899
1334 1901
1334 1902
1334 1908
1334 1909
1334 1917
1334 1949
1334 1962
1334 1995
1334 2037
1334 2040
1334 2042
1334 2100
1334 2168
1334 2171
1334 2175
1334 2204
1334 2206
1334 2236
1334 2248
1335 1358
1335 1363
1335 1393
1335 1406
1335 1414
1335 1446
1335 1454
1335 1498
1335 1565
1335 1569
1335 1575
1335 1670
1335 1739
1335 1744
1335 1772
1335 1774
1335 1790
1335 1794
1335 1837
1335 1870
1335 1908
1335 1910
1335 1920
1335 1966
1335 1968
1335 1974
1335 2003
1335 2068
1335 2072
1335 2086
1335 2089
1335 2091
1335 2099
1335 2101
1335 2110
1335 2118
1335 2136
1335 2190
1335 2216
1336 1372
1336 1375
1336 1394
1336 1436
1336 1437
1336 1450
1336 1596
1336 1607
1336 1613
1336 1633
1336 1637
1336 1647
1336 1705
1336 1721
1336 1741
1336 1759
1336 1772
1336 1783
1336 1790
1336 1799
1336 1805
1336 1840
1336 1849
1336 1850
1336 1917
1336 1926
1336 1967
1336 1974
1336 1985
1336 2028
1336 2035
1336 2043
1336 2047
1336 2102
1336 2110
1336 2157
1336 2186
1336 2189
1336 2201
1337 1413
1337 1424
1337 1431
1337 1467
1337 1507
1337 1643
1337 1645
1337 1755
1337 1825
1337 1854
1337 1903
1337 1912
1337 1948
1337 1969
1337 2038
1337 2092
1337 2118
1337 2142
1337 2197
1338 1346
1338 1389
1338 1450
1338 1613
1338 1615
1338 1628
1338 1670
1338 1728
1338 1773
1338 1775
1338 1802
1338 1826
1338 1871
1338 1876
1338 1935
1338 1956
1338 1966
1338 1994
1338 2012
1338 2085
1338 2151
1338 2161
1338 2188
1338 2216
1338 2241
1339 1376
1339 1385
1339 1421
1339 1431
1339 1500
1339 1506
1339 1564
1339 1570
1339 1612
1339 1641
1339 1643
1339 1671
1339 1688
1339 1708
1339 1718
1339 1732
1339 1803
1339 1813
1339 1818
1339 1846
1339 1866
1339 1877
1339 1894
1339 1916
1339 2069
1339 2137
1339 2160
1339 2236
1339 2249
1340 1365
1340 1383
1340 1391
1340 1397
1340 1408
1340 1410
1340 1418
1340 1419
1340 1430
1340 1439
1340 1440
1340 1443
1340 1459
1340 1463
1340 1468
1340 1482
1340 1483
1340 1484
1340 1499
1340 1539
1340 1546
1340 1566
1340 1571
1340 1576
1340 1584
1340 1620
1340 1638
1340 1662
1340 1664
1340 1665
1340 1669
1340 1704
1340 1754
1340 1771
1340 1782
1340 1783
1340 1791
1340 1799
1340 1800
1340 1802
1340 1812
1340 1818
1340 1832
1340 1854
1340 1858
1340 1895
1340 1923
1340 1924
1340 1928
1340 1931
1340 1934
1340 1975
1340 1989
1340 2006
1340 2010
1340 2020
1340 2034
1340 2050
1340 2063
1340 2103
1340 2104
1340 2117
1340 2129
1340 2139
1340 2153
1340 2169
1340 2181
1340 2183
1340 2193
1340 2209
1340 2230
1340 2232
1340 2235
1340 2246
1341 1427
1341 1477
1341 1552
1341 1582
1341 1620
1341 1833
1341 1873
1341 1907
1341 2165
1342 1355
1342 1375
1342 1384
1342 1430
1342 1436
1342 1441
1342 1474
1342 1488
1342 1510
1342 1569
1342 1594
1342 1611
1342 1612
1342 1629
1342 1643
1342 1692
1342 1720
1342 1747
1342 1751
1342 1754
1342 1772
1342 1787
1342 1824
1342 1837
1342 1852
1342 1855
1342 1864
1342 1865
1342 1880
1342 1947
1342 1949
1342 1959
1342 1960
1342 1998
1342 2001
1342 2008
1342 2011
1342 2037
1342 2043
1342 2071
1342 2087
1342 2160
1342 2175
1342 2190
1342 2197
1342 2200
1342 2204
1342 2233
1342 2243
1342 2246
1343 1413
1343 1419
1343 1482
1343 1526
1343 1662
1343 1679
1343 1799
1343 1801
1343 1806
1343 1924
1343 1931
1343 2145
1343 2179
1344 1394
1344 1440
1344 1476
1344 1510
1344 1522
1344 1526
1344 1527
1344 1560
1344 1630
1344 1638
1344 1704
1344 1859
1344 1898
1344 1912
1344 2034
1344 2083
1345 1352
1345 1375
1345 1496
1345 1594
1345 1731
1345 1799
1345 1850
1345 1891
1345 1994
1345 2025
1345 2048
1345 2101
1345 2153
1345 2165
1345 2188
1345 2216
1346 1389
1346 1394
1346 1408
1346 1442
1346 1463
1346 1498
1346 1547
1346 1565
1346 1591
1346 1615
1346 1633
1346 1641
1346 1649
1346 1686
1346 1726
1346 1759
1346 1760
1346 1791
1346 1796
1346 1799
1346 1816
1346 1818
1346 1835
1346 1849
1346 1851
1346 1861
1346 1876
1346 1910
1346 1919
1346 1935
1346 1938
1346 1954
1346 2008
1346 2010
1346 2020
1346 2031
1346 2038
1346 2049
1346 2051
1346 2088
1346 2091
1346 2099
1346 2118
1346 2123
1346 2127
1346 2138
1346 2141
1346 2179
1346 2186
1346 2190
1346 2191
1346 2220
1346 2234
1346 2250
1347 1359
1347 1398
1347 1402
1347 1414
1347 1426
1347 1594
1347 1721
1347 1976
1347 2098
1348 1393
1348 1423
1348 1494
1348 1499
1348 1526
1348 1576
1348 1596
1348 1630
1348 1698
1348 1904
1348 1912
1348 1929
1348 1938
1348 1963
1348 1969
1348 1977
1348 1988
1348 2070
1348 2083
1348 2145
1348 2230
1349 1406
1349 1474
1349 1486
1349 1487
1349 1514
1349 1522
1349 1540
1349 1549
1349 1560
1349 1575
1349 1589
1349 1600
1349 1607
1349 1613
1349 1619
1349 1640
1349 1641
1349 1653
1349 1688
1349 1695
1349 1700
1349 1709
1349 1711
1349 1721
1349 1731
1349 1739
1349 1746
1349 1749
1349 1765
1349 1774
1349 1807
1349 1818
1349 1867
1349 1881
1349 1911
1349 1965
1349 1994
1349 2012
1349 2029
1349 2065
1349 2098
1349 2107
1349 2117
1349 2120
1349 2131
1349 2147
1349 2156
1349 2176
1349 2186
1349 2189
1349 2198
1349 2205
1349 2208
1349 2241
1350 1373
1350 1563
1350 1568
1350 1689
1350 1814
1350 1971
1350 1986
1350 2227
1351 1394
1351 1408
1351 1410
1351 1438
1351 1499
1351 1544
1351 1562
1351 1576
1351 1584
1351 1609
1351 1626
1351 1634
1351 1635
1351 1638
1351 1788
1351 1791
1351 1799
1351 1801
1351 1802
1351 1810
1351 1822
1351 1836
1351 1919
1351 1956
1351 1961
1351 2020
1351 2041
1351 2042
1351 2079
1351 2088
1351 2094
1351 2096
1351 2115
1351 2116
1351 2124
1351 2141
1351 2179
1351 2183
1352 1397
1352 1414
1352 1478
1352 1731
1352 1850
1352 1891
1352 1920
1352 1974
1352 2016
1352 2028
1352 2101
1352 2118
1352 2231
1353 1355
1353 1370
1353 1396
1353 1397
1353 1460
1353 1471
1353 1473
1353 1478
1353 1506
1353 1531
1353 1538
1353 1654
1353 1657
1353 1671
1353 1681
1353 1701
1353 1702
1353 1718
1353 1730
1353 1761
1353 1805
1353 1809
1353 1875
1353 1901
1353 1909
1353 1911
1353 1920
1353 1962
1353 1974
1353 2016
1353 2043
1353 2065
1353 2085
1353 2171
1353 2197
1353 2202
1353 2213
1353 2231
1353 2248
1353 2249
1354 1358
1354 1410
1354 1436
1354 1443
1354 1447
1354 1483
1354 1524
1354 1646
1354 1695
1354 1706
1354 1753
1354 1785
1354 1797
1354 1809
1354 1818
1354 1822
1354 1837
1354 1847
1354 1866
1354 1883
1354 1902
1354 1910
1354 1936
1354 1959
1354 1989
1354 1995
1354 2036
1354 2100
1354 2119
1354 2146
1354 2157
1354 2171
1354 2185
1354 2200
1355 1384
1355 1386
1355 1460
1355 1483
1355 1524
1355 1645
1355 1656
1355 1657
1355 1703
1355 1713
1355 1747
1355 1754
1355 1755
1355 1761
1355 1765
1355 1781
1355 1797
1355 1799
1355 1805
1355 1818
1355 1824
1355 1828
1355 1865
1355 1883
1355 1885
1355 1890
1355 1902
1355 1909
1355 1936
1355 1940
1355 1948
1355 1949
1355 1955
1355 1992
1355 1995
1355 2001
1355 2023
1355 2037
1355 2065
1355 2066
1355 2100
1355 2118
1355 2119
1355 2175
1355 2190
1355 2197
1355 2206
1355 2219
1355 2235
1355 2248
1356 1360
1356 1369
1356 1376
1356 1382
1356 1391
1356 1394
1356 1395
1356 1414
1356 1429
1356 1439
1356 1492
1356 1613
1356 1645
1356 1651
1356 1654
1356 1658
1356 1671
1356 1681
1356 1706
1356 1718
1356 1739
1356 1794
1356 1796
1356 1850
1356 1863
1356 1868
1356 1875
1356 1898
1356 1903
1356 1932
1356 1973
1356 1975
1356 1981
1356 1982
1356 2045
1356 2072
1356 2185
1356 2196
1356 2236
1356 2241
1356 2249
1357 1369
1357 1413
1357 1596
1357 1968
1358 1361
1358 1363
1358 1364
1358 1369
1358 1406
1358 1413
1358 1420
1358 1429
1358 1443
1358 1460
1358 1474
1358 1488
1358 1489
1358 1504
1358 1510
1358 1518
1358 1522
1358 1554
1358 1575
1358 1596
1358 1603
1358 1610
1358 1647
1358 1670
1358 1684
1358 1695
1358 1709
1358 1722
1358 1732
1358 1735
1358 1744
1358 1761
1358 1794
1358 1805
1358 1818
1358 1866
1358 1901
1358 1908
1358 1934
1358 2027
1358 2043
1358 2077
1358 2086
1358 2089
1358 2099
1358 2108
1358 2110
1358 2126
1358 2127
1358 2134
1358 2142
1358 2156
1358 2159
1358 2167
1358 2202
1359 1399
1359 1400
1359 1402
1359 1404
1359 1414
1359 1426
1359 1452
1359 1476
1359 1537
1359 1547
1359 1556
1359 1559
1359 1633
1359 1640
1359 1647
1359 1669
1359 1688
1359 1700
1359 1711
1359 1721
1359 1744
1359 1773
1359 1779
1359 1783
1359 1790
1359 1888
1359 1906
1359 1938
1359 1965
1359 1976
1359 2031
1359 2032
1359 2035
1359 2083
1359 2098
1359 2110
1359 2120
1359 2138
1359 2141
1359 2151
1359 2192
1359 2209
1360 1478
1360 1601
1360 1613
1360 1720
1360 1752
1360 1783
1360 1870
1360 1952
1360 1964
1360 2015
1360 2140
1360 2158
1360 2241
1361 1363
1361 1390
1361 1406
1361 1413
1361 1486
1361 1487
1361 1489
1361 1592
1361 1594
1361 1603
1361 1670
1361 1727
1361 1769
1361 1770
1361 1775
1361 1794
1361 1816
1361 1898
1361 1908
1361 1910
1361 1934
1361 2029
1361 2048
1361 2086
1361 2089
1361 2127
1361 2134
1361 2147
1361 2157
1361 2186
1361 2188
1362 1373
1362 1509
1362 1517
1362 1531
1362 1683
1362 1684
1362 1725
1362 1784
1362 1808
1362 1833
1362 1873
1362 1907
1362 1908
1362 1947
1362 1973
1362 1996
1362 2005
1362 2075
1362 2152
1362 2178
1362 2227
1362 2240
1363 1406
1363 1413
1363 1443
1363 1460
1363 1476
1363 1486
1363 1489
1363 1522
1363 1565
1363 1670
1363 1722
1363 1744
1363 1794
1363 1799
1363 1825
1363 1866
1363 1889
1363 2025
1363 2086
1363 2089
1363 2110
1363 2118
1363 2127
1363 2134
1363 2136
1364 1365
1364 1367
1364 1369
1364 1377
1364 1382
1364 1397
1364 1416
1364 1424
1364 1425
1364 1463
1364 1474
1364 1484
1364 1486
1364 1492
1364 1497
1364 1517
1364 1554
1364 1596
1364 1610
1364 1616
1364 1639
1364 1647
1364 1678
1364 1706
1364 1747
1364 1763
1364 1795
1364 1818
1364 1827
1364 1837
1364 1838
1364 1849
1364 1858
1364 1880
1364 1885
1364 1908
1364 2107
1364 2175
1364 2176
1364 2181
1364 2182
1364 2186
1364 2195
1364 2204
1364 2246
1365 1369
1365 1383
1365 1385
1365 1387
1365 1408
1365 1419
1365 1443
1365 1450
1365 1456
1365 1468
1365 1483
1365 1497
1365 1499
1365 1537
1365 1544
1365 1576
1365 1622
1365 1630
1365 1638
1365 1662
1365 1672
1365 1678
1365 1679
1365 1692
1365 1700
1365 1706
1365 1713
1365 1721
1365 1754
1365 1772
1365 1775
1365 1782
1365 1799
1365 1802
1365 1818
1365 1836
1365 1853
1365 1866
1365 1878
1365 1892
1365 1895
1365 1903
1365 1924
1365 1928
1365 1932
1365 1934
1365 1948
1365 1962
1365 1963
1365 1969
1365 1975
1365 1977
1365 2006
1365 2009
1365 2010
1365 2020
1365 2038
1365 2042
1365 2069
1365 2070
1365 2127
1365 2139
1365 2145
1365 2176
1365 2181
1365 2183
1365 2200
1365 2209
1365 2230
1365 2235
1365 2246
1365 2248
1366 1703
1366 1724
1366 1813
1366 1833
1366 1903
1366 1955
1366 2002
1366 2017
1366 2044
1366 2075
1366 2082
1366 2184
1367 1408
1367 1424
1367 1452
1367 1470
1367 1579
1367 1707
1367 1745
1367 1800
1367 1803
1367 1828
1367 1859
1367 1885
1367 1892
1367 1903
1367 1912
1367 1987
1367 2177
1367 2188
1367 2197
1368 1393
1368 1395
1368 1399
1368 1476
1368 1483
1368 1507
1368 1591
1368 1618
1368 1667
1368 1697
1368 1711
1368 1741
1368 1817
1368 1890
1368 1994
1368 2033
1368 2050
1368 2080
1368 2119
1368 2143
1368 2165
1368 2225
1369 1391
1369 1393
1369 1408
1369 1416
1369 1429
1369 1442
1369 1447
1369 1450
1369 1459
1369 1474
1369 1484
1369 1510
1369 1517
1369 1518
1369 1532
1369 1541
1369 1569
1369 1581
1369 1594
1369 1610
1369 1616
1369 1627
1369 1630
1369 1638
1369 1681
1369 1697
1369 1708
1369 1713
1369 1736
1369 1743
1369 1768
1369 1769
1369 1795
1369 1803
1369 1809
1369 1818
1369 1829
1369 1853
1369 1859
1369 1866
1369 1876
1369 1881
1369 1885
1369 1892
1369 1893
1369 1898
1369 1903
1369 1908
1369 1923
1369 1928
1369 1948
1369 1959
1369 1962
1369 1968
1369 2006
1369 2008
1369 2009
1369 2010
1369 2022
1369 2026
1369 2042
1369 2046
1369 2055
1369 2062
1369 2070
1369 2077
1369 2100
1369 2107
1369 2123
1369 2151
1369 2153
1369 2156
1369 2167
1369 2174
1369 2175
1369 2181
1369 2186
1369 2193
1369 2197
1369 2203
1369 2222
1369 2236
1369 2246
1370 1376
1370 1393
1370 1411
1370 1413
1370 1431
1370 1444
1370 1445
1370 1458
1370 1471
1370 1476
1370 1488
1370 1492
1370 1493
1370 1495
1370 1506
1370 1512
1370 1538
1370 1554
1370 1625
1370 1629
1370 1651
1370 1654
1370 1665
1370 1671
1370 1673
1370 1706
1370 1719
1370 1723
1370 1739
1370 1741
1370 1744
1370 1753
1370 1758
1370 1772
1370 1774
1370 1794
1370 1796
1370 1805
1370 1813
1370 1818
1370 1824
1370 1837
1370 1875
1370 1894
1370 1916
1370 1922
1370 1949
1370 1955
1370 1962
1370 1973
1370 1974
1370 2003
1370 2066
1370 2069
1370 2085
1370 2090
1370 2091
1370 2137
1370 2166
1370 2185
1370 2189
1370 2231
1370 2236
1371 1372
1371 1450
1371 1527
1371 1547
1371 1576
1371 1627
1371 1699
1371 1773
1371 1794
1371 1801
1371 1835
1371 2003
1371 2017
1371 2118
1371 2189
1371 2234
1372 1382
1372 1393
1372 1414
1372 1428
1372 1432
1372 1441
1372 1442
1372 1474
1372 1565
1372 1569
1372 1612
1372 1624
1372 1647
1372 1699
1372 1705
1372 1739
1372 1741
1372 1743
1372 1749
1372 1759
1372 1769
1372 1774
1372 1790
1372 1799
1372 1845
1372 1850
1372 1889
1372 1892
1372 1910
1372 1926
1372 1974
1372 2012
1372 2035
1372 2047
1372 2089
1372 2118
1372 2143
1372 2157
1372 2189
1372 2235
1373 1374
1373 1411
1373 1423
1373 1427
1373 1434
1373 1477
1373 1481
1373 1488
1373 1495
1373 1503
1373 1509
1373 1525
1373 1535
1373 1582
1373 1583
1373 1620
1373 1636
1373 1643
1373 1672
1373 1683
1373 1684
1373 1712
1373 1768
1373 1795
1373 1813
1373 1833
1373 1834
1373 1841
1373 1873
1373 1907
1373 1908
1373 1915
1373 1946
1373 1973
1373 2002
1373 2005
1373 2014
1373 2057
1373 2059
1373 2061
1373 2075
1373 2078
1373 2100
1373 2106
1373 2112
1373 2130
1373 2149
1373 2164
1373 2178
1373 2180
1373 2211
1373 2221
1373 2227
1373 2239
1374 1383
1374 1421
1374 1425
1374 1436
1374 1448
1374 1482
1374 1512
1374 1643
1374 1665
1374 1668
1374 1679
1374 1707
1374 1782
1374 1806
1374 1854
1374 1860
1374 1924
1374 1948
1374 2038
1374 2040
1374 2065
1374 2100
1374 2129
1374 2133
1374 2145
1374 2153
1374 2169
1374 2173
1374 2193
1374 2233
1375 1389
1375 1393
1375 1395
1375 1413
1375 1426
1375 1441
1375 1443
1375 1474
1375 1517
1375 1522
1375 1540
1375 1569
1375 1594
1375 1611
1375 1612
1375 1619
1375 1626
1375 1629
1375 1669
1375 1670
1375 1692
1375 1741
1375 1745
1375 1749
1375 1783
1375 1787
1375 1799
1375 1852
1375 1858
1375 1876
1375 1878
1375 1880
1375 1885
1375 1908
1375 1926
1375 1934
1375 1942
1375 1947
1375 1949
1375 1994
1375 2008
1375 2012
1375 2025
1375 2050
1375 2089
1375 2098
1375 2127
1375 2136
1375 2160
1375 2165
1375 2189
1375 2195
1375 2201
1375 2202
1375 2243
1375 2246
1376 1385
1376 1392
1376 1393
1376 1421
1376 1431
1376 1445
1376 1492
1376 1524
1376 1564
1376 1570
1376 1577
1376 1645
1376 1651
1376 1654
1376 1656
1376 1657
1376 1659
1376 1671
1376 1706
1376 1708
1376 1718
1376 1720
1376 1761
1376 1863
1376 1866
1376 1875
1376 1883
1376 1894
1376 1917
1376 1922
1376 1936
1376 1942
1376 1949
1376 2043
1376 2065
1376 2069
1376 2072
1376 2137
1376 2160
1376 2166
1376 2182
1376 2185
1376 2187
1376 2195
1376 2236
1376 2249
1377 1474
1377 1489
1377 1492
1377 1554
1377 1616
1377 1827
1377 1838
1377 1852
1377 1962
1377 1985
1377 2018
1377 2165
1377 2176
1377 2191
1378 1385
1378 1397
1378 1409
1378 1421
1378 1434
1378 1450
1378 1459
1378 1473
1378 1474
1378 1491
1378 1533
1378 1586
1378 1589
1378 1628
1378 1632
1378 1641
1378 1643
1378 1688
1378 1749
1378 1774
1378 1782
1378 1783
1378 1796
1378 1813
1378 1818
1378 1835
1378 1840
1378 1876
1378 1881
1378 1930
1378 1966
1378 1974
1378 1981
1378 1994
1378 2009
1378 2012
1378 2065
1378 2081
1378 2091
1378 2103
1378 2121
1378 2133
1378 2148
1378 2189
1378 2195
1379 1381
1379 1423
1379 1509
1379 1625
1379 1685
1379 1717
1379 1724
1379 1841
1379 1946
1379 2014
1380 1440
1380 1503
1380 1527
1380 1540
1380 1554
1380 1603
1380 1630
1380 1694
1380 1726
1380 1807
1380 1849
1380 1898
1380 2025
1380 2131
1380 2142
1380 2157
1381 1386
1381 1423
1381 1491
1381 1542
1381 1553
1381 1620
1381 1644
1381 1660
1381 1668
1381 1672
1381 1676
1381 1685
1381 1724
1381 1764
1381 1778
1381 1811
1381 1814
1381 1833
1381 1884
1381 1903
1381 1946
1381 1971
1381 1973
1381 1978
1381 2007
1381 2017
1381 2060
1381 2061
1381 2075
1381 2104
1381 2105
1381 2149
1381 2196
1381 2207
1381 2217
1381 2224
1381 2233
1381 2239
1381 2242
1382 1393
1382 1396
1382 1463
1382 1474
1382 1480
1382 1503
1382 1513
1382 1533
1382 1540
1382 1589
1382 1610
1382 1613
1382 1616
1382 1639
1382 1641
1382 1678
1382 1692
1382 1741
1382 1799
1382 1800
1382 1818
1382 1819
1382 1820
1382 1825
1382 1852
1382 1858
1382 1859
1382 1871
1382 1881
1382 1911
1382 1952
1382 1964
1382 1974
1382 1981
1382 1994
1382 2047
1382 2050
1382 2085
1382 2091
1382 2104
1382 2108
1382 2131
1382 2139
1382 2158
1382 2181
1382 2191
1382 2232
1382 2249
1383 1384
1383 1419
1383 1443
1383 1448
1383 1459
1383 1468
1383 1482
1383 1483
1383 1499
1383 1521
1383 1526
1383 1562
1383 1638
1383 1643
1383 1662
1383 1679
1383 1786
1383 1800
1383 1802
1383 1806
1383 1812
1383 1818
1383 1836
1383 1838
1383 1840
1383 1853
1383 1924
1383 1928
1383 1931
1383 1963
1383 2006
1383 2020
1383 2063
1383 2104
1383 2125
1383 2139
1383 2145
1383 2155
1383 2181
1383 2193
1383 2230
1383 2232
1383 2235
1384 1408
1384 1421
1384 1429
1384 1431
1384 1436
1384 1470
1384 1471
1384 1506
1384 1511
1384 1538
1384 1560
1384 1579
1384 1643
1384 1681
1384 1720
1384 1747
1384 1755
1384 1772
1384 1828
1384 1837
1384 1859
1384 1865
1384 1890
1384 1892
1384 1903
1384 1912
1384 1936
1384 1940
1384 1949
1384 1987
1384 2001
1384 2023
1384 2064
1384 2065
1384 2069
1384 2085
1384 2087
1384 2100
1384 2132
1384 2137
1384 2162
1384 2175
1384 2177
1384 2197
1384 2200
1384 2222
1385 1397
1385 1409
1385 1474
1385 1486
1385 1520
1385 1570
1385 1589
1385 1607
1385 1610
1385 1613
1385 1628
1385 1641
1385 1646
1385 1671
1385 1710
1385 1718
1385 1721
1385 1732
1385 1796
1385 1818
1385 1824
1385 1846
1385 1867
1385 1870
1385 1881
1385 1894
1385 1917
1385 1982
1385 1984
1385 1987
1385 2003
1385 2009
1385 2018
1385 2043
1385 2052
1385 2108
1385 2117
1385 2136
1385 2137
1385 2161
1385 2188
1385 2194
1385 2202
1385 2206
1385 2249
1386 1411
1386 1423
1386 1427
1386 1451
1386 1465
1386 1477
1386 1509
1386 1515
1386 1519
1386 1529
1386 1535
1386 1536
1386 1539
1386 1542
1386 1551
1386 1553
1386 1582
1386 1585
1386 1608
1386 1620
1386 1621
1386 1636
1386 1644
1386 1652
1386 1668
1386 1672
1386 1676
1386 1684
1386 1685
1386 1687
1386 1689
1386 1698
1386 1704
1386 1712
1386 1717
1386 1724
1386 1729
1386 1737
1386 1777
1386 1778
1386 1784
1386 1797
1386 1814
1386 1818
1386 1821
1386 1833
1386 1834
1386 1839
1386 1841
1386 1856
1386 1866
1386 1868
1386 1873
1386 1875
1386 1879
1386 1884
1386 1900
1386 1907
1386 1915
1386 1921
1386 1933
1386 1944
1386 1945
1386 1946
1386 1962
1386 1971
1386 1973
1386 1999
1386 2002
1386 2007
1386 2014
1386 2017
1386 2045
1386 2054
1386 2061
1386 2082
1386 2105
1386 2106
1386 2112
1386 2135
1386 2152
1386 2178
1386 2180
1386 2211
1386 2221
1386 2223
1386 2224
1386 2237
1386 2238
1386 2239
1386 2240
1386 2242
1386 2244
1387 1404
1387 1429
1387 1445
1387 1497
1387 1499
1387 1570
1387 1607
1387 1634
1387 1802
1387 1810
1387 1818
1387 1827
1387 1862
1387 1893
1387 1898
1387 1932
1387 1989
1387 1995
1387 2026
1387 2062
1387 2070
1387 2091
1387 2107
1387 2119
1388 1425
1388 1458
1388 1747
1388 1753
1388 1772
1388 1802
1388 1988
1388 2036
1388 2069
1388 2072
1388 2133
1388 2139
1388 2175
1388 2180
1388 2200
1388 2206
1389 1390
1389 1398
1389 1489
1389 1530
1389 1550
1389 1589
1389 1594
1389 1655
1389 1658
1389 1670
1389 1688
1389 1770
1389 1775
1389 1796
1389 1876
1389 1935
1389 2031
1389 2188
1389 2216
1389 2241
1390 1571
1390 1688
1390 1700
1390 1727
1390 1774
1390 1775
1390 1788
1390 1876
1390 1935
1390 2029
1390 2091
1390 2123
1390 2131
1391 1393
1391 1398
1391 1424
1391 1463
1391 1484
1391 1485
1391 1489
1391 1532
1391 1554
1391 1569
1391 1596
1391 1616
1391 1632
1391 1658
1391 1722
1391 1743
1391 1753
1391 1771
1391 1818
1391 1821
1391 1838
1391 1889
1391 1890
1391 1936
1391 1939
1391 2047
1391 2087
1391 2104
1391 2110
1391 2127
1391 2134
1391 2139
1391 2174
1391 2204
1391 2209
1391 2233
1392 1421
1392 1425
1392 1436
1392 1643
1392 1647
1392 1654
1392 1673
1392 1747
1392 1754
1392 1809
1392 1850
1392 1863
1392 1877
1392 1967
1392 2035
1392 2043
1392 2065
1392 2121
1392 2133
1392 2190
1392 2233
1393 1396
1393 1399
1393 1406
1393 1413
1393 1414
1393 1442
1393 1459
1393 1460
1393 1476
1393 1489
1393 1507
1393 1510
1393 1526
1393 1540
1393 1549
1393 1569
1393 1584
1393 1630
1393 1665
1393 1695
1393 1701
1393 1711
1393 1719
1393 1722
1393 1759
1393 1779
1393 1790
1393 1794
1393 1795
1393 1799
1393 1802
1393 1809
1393 1817
1393 1818
1393 1825
1393 1837
1393 1844
1393 1850
1393 1851
1393 1859
1393 1891
1393 1896
1393 1902
1393 1929
1393 1938
1393 1950
1393 1953
1393 1969
1393 1974
1393 1994
1393 2008
1393 2021
1393 2031
1393 2035
1393 2048
1393 2051
1393 2083
1393 2085
1393 2086
1393 2101
1393 2103
1393 2110
1393 2118
1393 2123
1393 2127
1393 2143
1393 2153
1393 2157
1393 2165
1393 2231
1393 2236
1393 2250
1394 1402
1394 1408
1394 1410
1394 1428
1394 1438
1394 1442
1394 1483
1394 1569
1394 1576
1394 1591
1394 1626
1394 1638
1394 1645
1394 1658
1394 1662
1394 1667
1394 1711
1394 1731
1394 1782
1394 1790
1394 1791
1394 1801
1394 1802
1394 1803
1394 1822
1394 1836
1394 1850
1394 1889
1394 1892
1394 1912
1394 1919
1394 1928
1394 1930
1394 1937
1394 1956
1394 1966
1394 1968
1394 1969
1394 1972
1394 1982
1394 1983
1394 2031
1394 2034
1394 2041
1394 2083
1394 2094
1394 2096
1394 2099
1394 2115
1394 2116
1394 2124
1394 2129
1394 2139
1394 2141
1394 2151
1394 2179
1394 2193
1394 2230
1395 1397
1395 1432
1395 1439
1395 1441
1395 1443
1395 1486
1395 1549
1395 1569
1395 1639
1395 1647
1395 1653
1395 1692
1395 1740
1395 1792
1395 1818
1395 1820
1395 1858
1395 1994
1395 2050
1395 2076
1395 2104
1395 2126
1395 2161
1395 2204
1395 2208
1395 2232
1395 2246
1395 2249
1396 1398
1396 1414
1396 1538
1396 1594
1396 1649
1396 1719
1396 1745
1396 1769
1396 1799
1396 1871
1396 1968
1396 1994
1396 2085
1396 2104
1396 2134
1396 2231
1397 1409
1397 1421
1397 1429
1397 1434
1397 1439
1397 1473
1397 1474
1397 1540
1397 1549
1397 1641
1397 1647
1397 1669
1397 1688
1397 1726
1397 1765
1397 1813
1397 1818
1397 1835
1397 1855
1397 1863
1397 1908
1397 1910
1397 1920
1397 1974
1397 1982
1397 2016
1397 2028
1397 2068
1397 2085
1397 2091
1397 2104
1397 2121
1397 2147
1397 2148
1397 2160
1397 2182
1397 2231
1398 1439
1398 1463
1398 1489
1398 1616
1398 1649
1398 1655
1398 1722
1398 1885
1398 1994
1398 2097
1398 2104
1398 2134
1398 2188
1399 1400
1399 1438
1399 1467
1399 1476
1399 1486
1399 1507
1399 1527
1399 1537
1399 1540
1399 1562
1399 1579
1399 1591
1399 1628
1399 1630
1399 1662
1399 1663
1399 1669
1399 1711
1399 1741
1399 1759
1399 1773
1399 1779
1399 1782
1399 1790
1399 1817
1399 1818
1399 1822
1399 1832
1399 1849
1399 1853
1399 1888
1399 1890
1399 1928
1399 1930
1399 1938
1399 1965
1399 1966
1399 1982
1399 1988
1399 2025
1399 2031
1399 2032
1399 2034
1399 2080
1399 2083
1399 2115
1399 2145
1399 2147
1399 2153
1399 2165
1399 2193
1399 2194
1399 2225
1400 1402
1400 1556
1400 1559
1400 1773
1400 1779
1400 1994
1400 2031
1400 2032
1400 2083
1400 2141
1400 2151
1400 2179
1401 1446
1401 1474
1401 1480
1401 1603
1401 1630
1401 1726
1401 1743
1401 1775
1401 2051
1401 2104
1401 2157
1401 2174
1401 2186
1401 2188
1401 2234
1402 1405
1402 1417
1402 1426
1402 1490
1402 1556
1402 1597
1402 1711
1402 1721
1402 1773
1402 1779
1402 1799
1402 1888
1402 1938
1402 2031
1402 2032
1402 2083
1402 2096
1402 2098
1402 2120
1402 2141
1402 2151
1402 2179
1403 1594
1403 1910
1403 2188
1403 2216
1404 1448
1404 1634
1404 1665
1404 1679
1404 1754
1404 1763
1404 1977
1404 2118
1404 2145
1405 1788
1405 1988
1405 2032
1405 2118
1405 2151
1406 1413
1406 1443
1406 1460
1406 1486
1406 1488
1406 1504
1406 1510
1406 1518
1406 1522
1406 1575
1406 1586
1406 1600
1406 1603
1406 1641
1406 1670
1406 1726
1406 1732
1406 1735
1406 1799
1406 1818
1406 1825
1406 1827
1406 1866
1406 1867
1406 1908
1406 1931
1406 1952
1406 1956
1406 1994
1406 2038
1406 2077
1406 2081
1406 2086
1406 2089
1406 2118
1406 2127
1406 2131
1406 2157
1406 2198
1406 2202
1406 2205
1408 1419
1408 1420
1408 1421
1408 1429
1408 1438
1408 1443
1408 1452
1408 1459
1408 1460
1408 1463
1408 1468
1408 1470
1408 1483
1408 1497
1408 1499
1408 1539
1408 1560
1408 1562
1408 1576
1408 1582
1408 1609
1408 1634
1408 1639
1408 1643
1408 1662
1408 1672
1408 1679
1408 1687
1408 1706
1408 1713
1408 1723
1408 1736
1408 1741
1408 1746
1408 1748
1408 1750
1408 1755
1408 1782
1408 1788
1408 1799
1408 1801
1408 1802
1408 1810
1408 1812
1408 1818
1408 1832
1408 1841
1408 1853
1408 1859
1408 1862
1408 1878
1408 1890
1408 1892
1408 1902
1408 1903
1408 1912
1408 1928
1408 1930
1408 1934
1408 1938
1408 1948
1408 1963
1408 1969
1408 1987
1408 1989
1408 2006
1408 2009
1408 2020
1408 2026
1408 2042
1408 2049
1408 2051
1408 2080
1408 2088
1408 2099
1408 2103
1408 2124
1408 2127
1408 2145
1408 2153
1408 2155
1408 2162
1408 2177
1408 2181
1408 2183
1408 2193
1408 2197
1408 2204
1408 2222
1408 2230
1408 2246
1408 2248
1409 1421
1409 1434
1409 1459
1409 1473
1409 1474
1409 1487
1409 1491
1409 1493
1409 1507
1409 1510
1409 1532
1409 1545
1409 1586
1409 1589
1409 1600
1409 1607
1409 1613
1409 1624
1409 1628
1409 1632
1409 1641
1409 1643
1409 1688
1409 1719
1409 1732
1409 1759
1409 1796
1409 1813
1409 1817
1409 1818
1409 1835
1409 1855
1409 1862
1409 1863
1409 1876
1409 1878
1409 1908
1409 1917
1409 1928
1409 1938
1409 1939
1409 1948
1409 1966
1409 1974
1409 1982
1409 2009
1409 2012
1409 2043
1409 2081
1409 2091
1409 2099
1409 2107
1409 2108
1409 2117
1409 2121
1409 2131
1409 2148
1409 2161
1409 2194
1409 2246
1410 1430
1410 1438
1410 1456
1410 1476
1410 1483
1410 1512
1410 1524
1410 1554
1410 1566
1410 1609
1410 1642
1410 1647
1410 1662
1410 1695
1410 1701
1410 1711
1410 1720
1410 1721
1410 1723
1410 1747
1410 1768
1410 1772
1410 1773
1410 1785
1410 1802
1410 1809
1410 1818
1410 1836
1410 1837
1410 1847
1410 1866
1410 1923
1410 1969
1410 1995
1410 2042
1410 2072
1410 2079
1410 2083
1410 2094
1410 2096
1410 2100
1410 2124
1410 2141
1410 2164
1410 2167
1410 2168
1410 2169
1410 2190
1410 2197
1410 2248
1411 1423
1411 1481
1411 1496
1411 1502
1411 1509
1411 1535
1411 1536
1411 1563
1411 1568
1411 1608
1411 1620
1411 1621
1411 1636
1411 1644
1411 1652
1411 1672
1411 1676
1411 1682
1411 1689
1411 1693
1411 1696
1411 1714
1411 1729
1411 1778
1411 1814
1411 1821
1411 1839
1411 1868
1411 1879
1411 1884
1411 1908
1411 1921
1411 1943
1411 1945
1411 1955
1411 1971
1411 2017
1411 2054
1411 2075
1411 2082
1411 2128
1411 2150
1411 2172
1411 2184
1411 2196
1411 2223
1411 2242
1412 1465
1412 2105
1412 2238
1412 2247
1413 1443
1413 1467
1413 1493
1413 1498
1413 1510
1413 1518
1413 1522
1413 1565
1413 1575
1413 1579
1413 1584
1413 1603
1413 1630
1413 1653
1413 1669
1413 1670
1413 1704
1413 1722
1413 1735
1413 1739
1413 1741
1413 1787
1413 1799
1413 1802
1413 1806
1413 1818
1413 1829
1413 1831
1413 1849
1413 1854
1413 1859
1413 1889
1413 1895
1413 1898
1413 1903
1413 1908
1413 1931
1413 1938
1413 1969
1413 2025
1413 2027
1413 2047
1413 2048
1413 2086
1413 2089
1413 2098
1413 2099
1413 2110
1413 2125
1413 2127
1413 2134
1413 2142
1413 2147
1413 2198
1413 2201
1413 2231
1414 1426
1414 1435
1414 1463
1414 1464
1414 1476
1414 1532
1414 1543
1414 1547
1414 1549
1414 1565
1414 1569
1414 1577
1414 1642
1414 1653
1414 1658
1414 1695
1414 1703
1414 1709
1414 1710
1414 1711
1414 1721
1414 1739
1414 1744
1414 1745
1414 1762
1414 1783
1414 1785
1414 1794
1414 1796
1414 1888
1414 1910
1414 1911
1414 1951
1414 1966
1414 1988
1414 2003
1414 2004
1414 2012
1414 2029
1414 2033
1414 2051
1414 2072
1414 2076
1414 2078
1414 2089
1414 2091
1414 2098
1414 2101
1414 2110
1414 2115
1414 2118
1414 2120
1414 2146
1414 2195
1414 2200
1414 2216
1415 1480
1415 1673
1415 1720
1415 1756
1415 1758
1415 1984
1415 2069
1415 2202
1415 2248
1416 1520
1416 1564
1416 1616
1416 1647
1416 1739
1416 1771
1416 1818
1416 1880
1416 1885
1416 2022
1416 2026
1416 2043
1416 2144
1416 2174
1416 2176
1416 2177
1416 2246
1417 1667
1417 1711
1417 1817
1417 1906
1417 1938
1417 1953
1417 1969
1417 2032
1417 2034
1417 2083
1417 2151
1417 2189
1418 1634
1418 1662
1418 1664
1418 1665
1418 1854
1418 1895
1418 2063
1418 2155
1419 1459
1419 1468
1419 1482
1419 1662
1419 1707
1419 1713
1419 1723
1419 1782
1419 1806
1419 1810
1419 1812
1419 1818
1419 1827
1419 1832
1419 1836
1419 1853
1419 1854
1419 1878
1419 1881
1419 1895
1419 1924
1419 1927
1419 1928
1419 1930
1419 1931
1419 1934
1419 1948
1419 1975
1419 2006
1419 2020
1419 2043
1419 2063
1419 2088
1419 2144
1419 2145
1419 2177
1419 2183
1419 2193
1419 2209
1419 2235
1419 2246
1420 1426
1420 1429
1420 1452
1420 1459
1420 1463
1420 1474
1420 1484
1420 1531
1420 1610
1420 1622
1420 1629
1420 1639
1420 1647
1420 1704
1420 1736
1420 1763
1420 1799
1420 1816
1420 1818
1420 1899
1420 1934
1420 1938
1420 1948
1420 2010
1420 2098
1420 2104
1420 2142
1420 2175
1420 2181
1420 2232
1420 2235
1420 2246
1421 1431
1421 1434
1421 1473
1421 1474
1421 1493
1421 1507
1421 1532
1421 1533
1421 1537
1421 1538
1421 1545
1421 1628
1421 1632
1421 1641
1421 1643
1421 1688
1421 1720
1421 1732
1421 1753
1421 1755
1421 1756
1421 1759
1421 1765
1421 1772
1421 1796
1421 1805
1421 1813
1421 1818
1421 1835
1421 1837
1421 1855
1421 1862
1421 1863
1421 1875
1421 1876
1421 1917
1421 1930
1421 1949
1421 1966
1421 1981
1421 1982
1421 1990
1421 1994
1421 2009
1421 2065
1421 2069
1421 2100
1421 2107
1421 2121
1421 2131
1421 2133
1421 2137
1421 2148
1421 2161
1421 2173
1421 2194
1421 2200
1421 2236
1422 1662
1423 1465
1423 1479
1423 1494
1423 1495
1423 1519
1423 1529
1423 1535
1423 1539
1423 1552
1423 1561
1423 1573
1423 1595
1423 1614
1423 1621
1423 1636
1423 1644
1423 1652
1423 1668
1423 1672
1423 1687
1423 1698
1423 1717
1423 1755
1423 1778
1423 1784
1423 1821
1423 1833
1423 1884
1423 1915
1423 1936
1423 1971
1423 1996
1423 2007
1423 2045
1423 2059
1423 2075
1423 2105
1423 2130
1423 2135
1423 2152
1423 2210
1423 2227
1423 2238
1423 2247
1424 1459
1424 1460
1424 1484
1424 1486
1424 1499
1424 1511
1424 1518
1424 1522
1424 1532
1424 1548
1424 1632
1424 1643
1424 1669
1424 1672
1424 1680
1424 1771
1424 1803
1424 1818
1424 1859
1424 1862
1424 1867
1424 1890
1424 1908
1424 1912
1424 1939
1424 1948
1424 1980
1424 1989
1424 2028
1424 2036
1424 2080
1424 2107
1424 2139
1424 2162
1424 2177
1425 1430
1425 1436
1425 1456
1425 1459
1425 1471
1425 1484
1425 1504
1425 1538
1425 1567
1425 1593
1425 1610
1425 1625
1425 1643
1425 1645
1425 1690
1425 1706
1425 1720
1425 1723
1425 1730
1425 1741
1425 1747
1425 1753
1425 1756
1425 1774
1425 1799
1425 1827
1425 1849
1425 1865
1425 1902
1425 1923
1425 1929
1425 1949
1425 1962
1425 1995
1425 2001
1425 2006
1425 2008
1425 2040
1425 2042
1425 2055
1425 2065
1425 2066
1425 2072
1425 2074
1425 2075
1425 2100
1425 2160
1425 2190
1425 2197
1425 2200
1425 2206
1425 2219
1425 2233
1425 2248
1426 1459
1426 1463
1426 1476
1426 1527
1426 1547
1426 1562
1426 1569
1426 1594
1426 1640
1426 1669
1426 1695
1426 1697
1426 1700
1426 1705
1426 1709
1426 1711
1426 1721
1426 1773
1426 1845
1426 1850
1426 1859
1426 1878
1426 1888
1426 1911
1426 1938
1426 1965
1426 2025
1426 2035
1426 2098
1426 2103
1426 2104
1426 2120
1426 2129
1426 2145
1426 2146
1426 2175
1426 2205
1426 2232
1427 1434
1427 1525
1427 1531
1427 1553
1427 1583
1427 1621
1427 1668
1427 1683
1427 1698
1427 1776
1427 1833
1427 1868
1427 1873
1427 1907
1427 1923
1427 2042
1427 2075
1428 1432
1428 1442
1428 1450
1428 1507
1428 1600
1428 1603
1428 1628
1428 1739
1428 1794
1428 1795
1428 1799
1428 1801
1428 1812
1428 1817
1428 1831
1428 1853
1428 1872
1428 1889
1428 1956
1428 1962
1428 1988
1428 1994
1428 2041
1428 2141
1428 2153
1428 2170
1428 2189
1429 1431
1429 1511
1429 1526
1429 1549
1429 1567
1429 1572
1429 1576
1429 1596
1429 1638
1429 1651
1429 1658
1429 1662
1429 1690
1429 1706
1429 1730
1429 1731
1429 1739
1429 1748
1429 1755
1429 1768
1429 1791
1429 1801
1429 1802
1429 1803
1429 1818
1429 1840
1429 1853
1429 1859
1429 1862
1429 1881
1429 1890
1429 1902
1429 1903
1429 1912
1429 1920
1429 1932
1429 1936
1429 1963
1429 1977
1429 2020
1429 2026
1429 2040
1429 2051
1429 2080
1429 2085
1429 2088
1429 2107
1429 2123
1429 2124
1429 2147
1429 2153
1429 2162
1429 2168
1429 2181
1429 2183
1429 2197
1429 2242
1430 1431
1430 1436
1430 1444
1430 1456
1430 1460
1430 1512
1430 1640
1430 1642
1430 1709
1430 1720
1430 1723
1430 1756
1430 1772
1430 1785
1430 1802
1430 1809
1430 1818
1430 1837
1430 1866
1430 1877
1430 1886
1430 1902
1430 1962
1430 1995
1430 2026
1430 2042
1430 2100
1430 2146
1430 2171
1430 2190
1430 2202
1430 2206
1430 2233
1430 2248
1431 1460
1431 1470
1431 1471
1431 1473
1431 1483
1431 1492
1431 1501
1431 1504
1431 1564
1431 1570
1431 1574
1431 1579
1431 1608
1431 1622
1431 1643
1431 1665
1431 1671
1431 1706
1431 1708
1431 1720
1431 1732
1431 1755
1431 1763
1431 1772
1431 1800
1431 1803
1431 1809
1431 1818
1431 1828
1431 1859
1431 1866
1431 1890
1431 1892
1431 1903
1431 1912
1431 1916
1431 1917
1431 1921
1431 1925
1431 1936
1431 1942
1431 1948
1431 1959
1431 2023
1431 2056
1431 2065
1431 2069
1431 2078
1431 2080
1431 2091
1431 2095
1431 2109
1431 2132
1431 2160
1431 2162
1431 2166
1431 2171
1431 2175
1431 2185
1431 2186
1431 2187
1431 2197
1431 2206
1431 2222
1431 2233
1431 2249
1432 1438
1432 1442
1432 1450
1432 1454
1432 1487
1432 1537
1432 1549
1432 1565
1432 1572
1432 1600
1432 1610
1432 1616
1432 1628
1432 1700
1432 1722
1432 1739
1432 1749
1432 1774
1432 1782
1432 1794
1432 1796
1432 1801
1432 1827
1432 1849
1432 1889
1432 1892
1432 1920
1432 1956
1432 1974
1432 2012
1432 2029
1432 2041
1432 2091
1432 2115
1432 2134
1432 2136
1432 2141
1432 2161
1432 2182
1432 2189
1432 2205
1433 1842
1433 1926
1433 1994
1433 2182
1434 1473
1434 1474
1434 1486
1434 1491
1434 1532
1434 1545
1434 1585
1434 1589
1434 1600
1434 1607
1434 1613
1434 1628
1434 1632
1434 1641
1434 1643
1434 1647
1434 1662
1434 1688
1434 1732
1434 1743
1434 1759
1434 1768
1434 1772
1434 1774
1434 1782
1434 1799
1434 1813
1434 1818
1434 1838
1434 1853
1434 1863
1434 1875
1434 1902
1434 1908
1434 1930
1434 1962
1434 1965
1434 1982
1434 2009
1434 2065
1434 2117
1434 2121
1434 2133
1434 2148
1434 2159
1434 2161
1434 2167
1434 2174
1434 2175
1434 2194
1435 1547
1435 1615
1435 1721
1435 1799
1435 2067
1436 1444
1436 1465
1436 1483
1436 1512
1436 1524
1436 1567
1436 1593
1436 1596
1436 1607
1436 1616
1436 1642
1436 1647
1436 1673
1436 1679
1436 1695
1436 1721
1436 1723
1436 1730
1436 1747
1436 1772
1436 1785
1436 1787
1436 1790
1436 1797
1436 1847
1436 1848
1436 1866
1436 1883
1436 1902
1436 1904
1436 1936
1436 1949
1436 1959
1436 1967
1436 1995
1436 2036
1436 2037
1436 2043
1436 2065
1436 2069
1436 2100
1436 2146
1436 2159
1436 2168
1436 2190
1436 2206
1436 2219
1436 2233
1437 1474
1437 1554
1437 1603
1437 1630
1437 1633
1437 1647
1437 1669
1437 1759
1437 1772
1437 1818
1437 1965
1437 1974
1437 2024
1437 2074
1437 2077
1437 2157
1437 2167
1437 2222
1438 1450
1438 1476
1438 1544
1438 1562
1438 1591
1438 1609
1438 1626
1438 1634
1438 1635
1438 1638
1438 1662
1438 1790
1438 1799
1438 1801
1438 1802
1438 1810
1438 1817
1438 1822
1438 1850
1438 1882
1438 1889
1438 1895
1438 1928
1438 1937
1438 1956
1438 1972
1438 1983
1438 2020
1438 2031
1438 2041
1438 2079
1438 2094
1438 2096
1438 2115
1438 2116
1438 2124
1438 2141
1438 2179
1439 1463
1439 1616
1439 1624
1439 1640
1439 1649
1439 1670
1439 1707
1439 1721
1439 1743
1439 1800
1439 1820
1439 1858
1439 1866
1439 1908
1439 1911
1439 2026
1439 2104
1439 2110
1439 2126
1439 2144
1439 2174
1439 2176
1439 2181
1439 2232
1439 2249
1440 1476
1440 1526
1440 1578
1440 1610
1440 1656
1440 1704
1440 1741
1440 1759
1440 1827
1440 1832
1440 1840
1440 1849
1440 1859
1440 1895
1440 1898
1440 1938
1440 1965
1440 1966
1440 1982
1440 2080
1440 2108
1440 2110
1440 2194
1441 1526
1441 1569
1441 1611
1441 1612
1441 1616
1441 1669
1441 1692
1441 1697
1441 1787
1441 1852
1441 1858
1441 1880
1441 1942
1441 1959
1441 1960
1441 1994
1441 2012
1441 2025
1441 2050
1441 2074
1441 2098
1441 2100
1441 2134
1441 2165
1441 2243
1442 1454
1442 1459
1442 1472
1442 1489
1442 1514
1442 1569
1442 1662
1442 1794
1442 1799
1442 1807
1442 1820
1442 1831
1442 1889
1442 1892
1442 1938
1442 1960
1442 1974
1442 2047
1442 2115
1442 2118
1442 2123
1442 2141
1442 2170
1442 2175
1442 2189
1443 1460
1443 1485
1443 1504
1443 1510
1443 1518
1443 1522
1443 1530
1443 1569
1443 1575
1443 1616
1443 1656
1443 1670
1443 1680
1443 1707
1443 1735
1443 1736
1443 1740
1443 1741
1443 1754
1443 1785
1443 1800
1443 1802
1443 1818
1443 1825
1443 1836
1443 1838
1443 1858
1443 1866
1443 1871
1443 1877
1443 1878
1443 1908
1443 1928
1443 1934
1443 1975
1443 2006
1443 2022
1443 2025
1443 2027
1443 2043
1443 2047
1443 2050
1443 2051
1443 2086
1443 2089
1443 2101
1443 2104
1443 2127
1443 2176
1443 2181
1443 2191
1443 2198
1443 2201
1443 2232
1443 2235
1444 1460
1444 1474
1444 1511
1444 1596
1444 1625
1444 1654
1444 1690
1444 1703
1444 1706
1444 1720
1444 1730
1444 1753
1444 1761
1444 1765
1444 1797
1444 1800
1444 1804
1444 1805
1444 1809
1444 1818
1444 1834
1444 1837
1444 1883
1444 1901
1444 1902
1444 1909
1444 1943
1444 1947
1444 1949
1444 1995
1444 2037
1444 2039
1444 2043
1444 2069
1444 2072
1444 2091
1444 2104
1444 2106
1444 2171
1444 2206
1444 2247
1445 1673
1445 1824
1445 1837
1445 1894
1445 1916
1445 1925
1445 1942
1445 1958
1445 2003
1445 2023
1445 2069
1445 2091
1445 2119
1445 2140
1445 2160
1445 2171
1445 2187
1446 1498
1446 1646
1446 1765
1446 1838
1446 1870
1446 1910
1446 1952
1446 1964
1446 2015
1446 2158
1446 2161
1447 1470
1447 1591
1447 1593
1447 1625
1447 1730
1447 1751
1447 1753
1447 1755
1447 1763
1447 1809
1447 1910
1447 1936
1447 1942
1447 1947
1447 1955
1447 1959
1447 2036
1447 2095
1447 2100
1447 2104
1447 2127
1447 2160
1447 2185
1448 1460
1448 1473
1448 1482
1448 1524
1448 1546
1448 1566
1448 1574
1448 1634
1448 1643
1448 1654
1448 1665
1448 1673
1448 1679
1448 1701
1448 1706
1448 1707
1448 1763
1448 1806
1448 1812
1448 1841
1448 1853
1448 1899
1448 1902
1448 1916
1448 1923
1448 1924
1448 1928
1448 1948
1448 1955
1448 1962
1448 1977
1448 2037
1448 2040
1448 2145
1448 2169
1448 2171
1448 2173
1448 2206
1448 2248
1449 1734
1449 1928
1449 2031
1449 2097
1450 1500
1450 1507
1450 1515
1450 1532
1450 1569
1450 1586
1450 1589
1450 1600
1450 1607
1450 1628
1450 1631
1450 1632
1450 1641
1450 1662
1450 1688
1450 1699
1450 1700
1450 1732
1450 1739
1450 1749
1450 1768
1450 1773
1450 1774
1450 1780
1450 1783
1450 1788
1450 1794
1450 1796
1450 1801
1450 1818
1450 1835
1450 1863
1450 1919
1450 1936
1450 1966
1450 1982
1450 1994
1450 2003
1450 2010
1450 2012
1450 2047
1450 2091
1450 2096
1450 2110
1450 2115
1450 2117
1450 2118
1450 2134
1450 2145
1450 2175
1450 2194
1450 2205
1451 1548
1451 1582
1451 1650
1451 1672
1451 1714
1451 1717
1451 1814
1451 1824
1451 1837
1451 1839
1451 1841
1451 1944
1451 2075
1451 2128
1451 2130
1451 2150
1451 2221
1451 2239
1452 1459
1452 1486
1452 1522
1452 1605
1452 1721
1452 1747
1452 1753
1452 1754
1452 1755
1452 1780
1452 1794
1452 1799
1452 1836
1452 1848
1452 1890
1452 1895
1452 1962
1452 1964
1452 1987
1452 1988
1452 1992
1452 1995
1452 2025
1452 2034
1452 2063
1452 2080
1452 2095
1452 2125
1452 2145
1452 2170
1452 2191
1452 2206
1452 2248
1453 1472
1453 1474
1453 1489
1453 1569
1453 1592
1453 1745
1453 1769
1453 1799
1453 1803
1453 1885
1453 1892
1453 1960
1453 1987
1453 2012
1453 2074
1453 2099
1453 2111
1453 2134
1453 2222
1454 1474
1454 1487
1454 1514
1454 1549
1454 1550
1454 1565
1454 1607
1454 1628
1454 1629
1454 1651
1454 1722
1454 1739
1454 1745
1454 1765
1454 1769
1454 1772
1454 1774
1454 1783
1454 1794
1454 1796
1454 1799
1454 1849
1454 1855
1454 1881
1454 1885
1454 1889
1454 1891
1454 1892
1454 1910
1454 1938
1454 1950
1454 1972
1454 1974
1454 1994
1454 2012
1454 2068
1454 2085
1454 2089
1454 2118
1454 2134
1454 2175
1454 2182
1455 1477
1455 1582
1455 1807
1455 1955
1455 2128
1455 2149
1455 2211
1456 1460
1456 1512
1456 1593
1456 1642
1456 1647
1456 1673
1456 1690
1456 1706
1456 1723
1456 1802
1456 1837
1456 1869
1456 1899
1456 1902
1456 1940
1456 1995
1456 2036
1456 2040
1456 2042
1456 2075
1456 2100
1456 2139
1456 2190
1456 2206
1456 2219
1456 2248
1458 1612
1458 1625
1458 1673
1458 1690
1458 1694
1458 1708
1458 1721
1458 1751
1458 1753
1458 1756
1458 1761
1458 1805
1458 1809
1458 1863
1458 1875
1458 1883
1458 1899
1458 1904
1458 1909
1458 1911
1458 1947
1458 1955
1458 1984
1458 2036
1458 2040
1458 2043
1458 2065
1458 2069
1458 2104
1458 2168
1458 2248
1459 1468
1459 1484
1459 1499
1459 1504
1459 1562
1459 1626
1459 1632
1459 1634
1459 1711
1459 1713
1459 1740
1459 1741
1459 1774
1459 1799
1459 1802
1459 1810
1459 1812
1459 1818
1459 1820
1459 1853
1459 1878
1459 1920
1459 1923
1459 1924
1459 1934
1459 1939
1459 1960
1459 1975
1459 2006
1459 2010
1459 2022
1459 2026
1459 2041
1459 2051
1459 2063
1459 2068
1459 2070
1459 2074
1459 2098
1459 2104
1459 2115
1459 2117
1459 2127
1459 2144
1459 2145
1459 2153
1459 2155
1459 2175
1459 2181
1459 2183
1459 2209
1459 2235
1460 1473
1460 1483
1460 1488
1460 1492
1460 1504
1460 1510
1460 1511
1460 1512
1460 1518
1460 1522
1460 1538
1460 1546
1460 1554
1460 1558
1460 1567
1460 1574
1460 1575
1460 1577
1460 1580
1460 1593
1460 1622
1460 1634
1460 1642
1460 1654
1460 1656
1460 1664
1460 1670
1460 1673
1460 1679
1460 1704
1460 1706
1460 1723
1460 1730
1460 1756
1460 1761
1460 1797
1460 1802
1460 1804
1460 1809
1460 1818
1460 1866
1460 1875
1460 1883
1460 1885
1460 1890
1460 1896
1460 1899
1460 1901
1460 1902
1460 1904
1460 1908
1460 1916
1460 1917
1460 1940
1460 1941
1460 1959
1460 1962
1460 1995
1460 2027
1460 2037
1460 2040
1460 2042
1460 2069
1460 2072
1460 2086
1460 2089
1460 2100
1460 2104
1460 2118
1460 2127
1460 2168
1460 2171
1460 2186
1460 2202
1460 2206
1460 2248
1461 1505
1461 1506
1461 1538
1461 1573
1461 1681
1461 1755
1461 1765
1461 1837
1461 1847
1461 1992
1461 2023
1461 2056
1461 2087
1461 2158
1461 2223
1462 1855
1463 1469
1463 1474
1463 1484
1463 1486
1463 1489
1463 1492
1463 1532
1463 1554
1463 1596
1463 1616
1463 1639
1463 1647
1463 1658
1463 1672
1463 1687
1463 1753
1463 1759
1463 1771
1463 1800
1463 1805
1463 1818
1463 1827
1463 1838
1463 1849
1463 1858
1463 1911
1463 1948
1463 1975
1463 1985
1463 2018
1463 2026
1463 2043
1463 2050
1463 2051
1463 2063
1463 2099
1463 2101
1463 2104
1463 2134
1463 2139
1463 2175
1463 2177
1463 2186
1463 2191
1463 2204
1463 2232
1463 2235
1464 1658
1464 1710
1464 1783
1464 2029
1465 1515
1465 1531
1465 1552
1465 1614
1465 1621
1465 1648
1465 1685
1465 1797
1465 1921
1465 1944
1465 1973
1465 2045
1465 2075
1465 2105
1465 2130
1465 2238
1465 2247
1466 1754
1467 1569
1467 1572
1467 1577
1467 1587
1467 1618
1467 1745
1467 1746
1467 1760
1467 1794
1467 1805
1467 1817
1467 1838
1467 1859
1467 1874
1467 1880
1467 1883
1467 1949
1467 1958
1467 1968
1467 2008
1467 2034
1467 2055
1467 2080
1467 2098
1467 2120
1467 2129
1467 2138
1467 2161
1467 2246
1468 1483
1468 1497
1468 1499
1468 1562
1468 1607
1468 1706
1468 1713
1468 1741
1468 1748
1468 1782
1468 1799
1468 1802
1468 1810
1468 1812
1468 1818
1468 1840
1468 1853
1468 1881
1468 1890
1468 1928
1468 1948
1468 1963
1468 1969
1468 1975
1468 2006
1468 2020
1468 2045
1468 2051
1468 2124
1468 2144
1468 2153
1468 2181
1468 2183
1468 2209
1468 2230
1468 2248
1469 1471
1469 1476
1469 1541
1469 1596
1469 1651
1469 1783
1469 1792
1469 1800
1469 1838
1469 1855
1469 1858
1469 1881
1469 1911
1469 1975
1469 1985
1469 2003
1469 2006
1469 2008
1469 2046
1469 2104
1469 2144
1469 2177
1469 2186
1469 2206
1469 2216
1469 2231
1469 2235
1470 1483
1470 1511
1470 1564
1470 1620
1470 1625
1470 1643
1470 1673
1470 1753
1470 1755
1470 1763
1470 1809
1470 1818
1470 1837
1470 1859
1470 1866
1470 1883
1470 1892
1470 1903
1470 1910
1470 1921
1470 1947
1470 1959
1470 1967
1470 1987
1470 2023
1470 2057
1470 2065
1470 2080
1470 2091
1470 2095
1470 2162
1470 2168
1470 2180
1470 2197
1471 1473
1471 1501
1471 1511
1471 1538
1471 1558
1471 1567
1471 1605
1471 1656
1471 1673
1471 1753
1471 1768
1471 1828
1471 1848
1471 1917
1471 1962
1471 2008
1471 2065
1471 2066
1471 2090
1471 2213
1471 2231
1472 1474
1472 1489
1472 1592
1472 1651
1472 1700
1472 1744
1472 1769
1472 1842
1472 1850
1472 1881
1472 1885
1472 1926
1472 1960
1472 2029
1472 2074
1472 2118
1472 2182
1472 2195
1472 2201
1473 1474
1473 1491
1473 1492
1473 1493
1473 1533
1473 1546
1473 1574
1473 1589
1473 1607
1473 1628
1473 1641
1473 1643
1473 1664
1473 1796
1473 1797
1473 1805
1473 1813
1473 1818
1473 1863
1473 1875
1473 1878
1473 1898
1473 1899
1473 1901
1473 1902
1473 1917
1473 1940
1473 1962
1473 1977
1473 2040
1473 2042
1473 2052
1473 2065
1473 2081
1473 2091
1473 2121
1473 2133
1473 2134
1473 2148
1473 2171
1473 2173
1473 2206
1473 2248
1474 1488
1474 1489
1474 1492
1474 1497
1474 1520
1474 1526
1474 1532
1474 1545
1474 1554
1474 1565
1474 1569
1474 1572
1474 1575
1474 1581
1474 1587
1474 1603
1474 1607
1474 1611
1474 1612
1474 1613
1474 1616
1474 1632
1474 1640
1474 1641
1474 1653
1474 1654
1474 1669
1474 1670
1474 1678
1474 1688
1474 1692
1474 1694
1474 1704
1474 1709
1474 1739
1474 1743
1474 1744
1474 1769
1474 1771
1474 1774
1474 1787
1474 1800
1474 1805
1474 1807
1474 1816
1474 1818
1474 1824
1474 1827
1474 1838
1474 1852
1474 1855
1474 1858
1474 1874
1474 1883
1474 1885
1474 1893
1474 1894
1474 1898
1474 1909
1474 1910
1474 1934
1474 1936
1474 1947
1474 1949
1474 1951
1474 1960
1474 1962
1474 1974
1474 1979
1474 1980
1474 1985
1474 2006
1474 2012
1474 2026
1474 2033
1474 2037
1474 2043
1474 2048
1474 2050
1474 2074
1474 2076
1474 2104
1474 2107
1474 2111
1474 2117
1474 2134
1474 2136
1474 2156
1474 2159
1474 2161
1474 2171
1474 2174
1474 2175
1474 2176
1474 2186
1474 2189
1474 2191
1474 2202
1474 2222
1474 2232
1475 1600
1475 1619
1475 1646
1475 1792
1475 1807
1475 1994
1475 2165
1475 2208
1476 1503
1476 1522
1476 1547
1476 1591
1476 1640
1476 1653
1476 1662
1476 1695
1476 1697
1476 1700
1476 1709
1476 1711
1476 1715
1476 1721
1476 1773
1476 1785
1476 1794
1476 1799
1476 1802
1476 1809
1476 1817
1476 1825
1476 1832
1476 1849
1476 1850
1476 1878
1476 1888
1476 1890
1476 1895
1476 1911
1476 1939
1476 1975
1476 1988
1476 2043
1476 2065
1476 2080
1476 2086
1476 2092
1476 2098
1476 2103
1476 2110
1476 2115
1476 2120
1476 2142
1476 2145
1476 2146
1476 2153
1476 2168
1476 2216
1476 2232
1477 1509
1477 1582
1477 1676
1477 1856
1477 1873
1477 1973
1477 2044
1477 2075
1477 2211
1477 2221
1477 2239
1478 1480
1478 1538
1478 1610
1478 1719
1478 1766
1478 1818
1478 1911
1478 1974
1478 2015
1478 2016
1478 2108
1478 2158
1478 2159
1478 2161
1478 2231
1479 1529
1479 1539
1479 1599
1479 1614
1479 1652
1479 1668
1479 1683
1479 1698
1479 1915
1479 2045
1479 2130
1479 2135
1479 2164
1479 2238
1480 1518
1480 1610
1480 1766
1480 1771
1480 1818
1480 1866
1480 1875
1480 1985
1480 2104
1480 2108
1480 2118
1480 2159
1480 2162
1480 2190
1480 2231
1481 1764
1482 1499
1482 1662
1482 1679
1482 1707
1482 1791
1482 1806
1482 1818
1482 1836
1482 1854
1482 1895
1482 1924
1482 1927
1482 1928
1482 1948
1482 1966
1482 1975
1482 2063
1482 2107
1482 2116
1482 2145
1482 2155
1482 2193
1483 1488
1483 1497
1483 1506
1483 1512
1483 1524
1483 1546
1483 1567
1483 1634
1483 1642
1483 1659
1483 1662
1483 1664
1483 1695
1483 1702
1483 1706
1483 1723
1483 1752
1483 1755
1483 1761
1483 1763
1483 1765
1483 1785
1483 1797
1483 1799
1483 1818
1483 1824
1483 1832
1483 1838
1483 1848
1483 1866
1483 1896
1483 1917
1483 1936
1483 1940
1483 1959
1483 1977
1483 1995
1483 2006
1483 2010
1483 2023
1483 2043
1483 2065
1483 2072
1483 2095
1483 2100
1483 2119
1483 2133
1483 2137
1483 2140
1483 2146
1483 2160
1483 2171
1483 2190
1483 2197
1483 2202
1483 2219
1483 2230
1483 2248
1484 1485
1484 1532
1484 1566
1484 1596
1484 1632
1484 1771
1484 1795
1484 1818
1484 1827
1484 1849
1484 1939
1484 2018
1484 2063
1484 2102
1484 2104
1484 2139
1484 2148
1484 2175
1484 2209
1485 1532
1485 1632
1485 1678
1485 1771
1485 1818
1485 2020
1485 2102
1485 2209
1486 1492
1486 1514
1486 1517
1486 1540
1486 1549
1486 1569
1486 1596
1486 1607
1486 1613
1486 1651
1486 1656
1486 1658
1486 1680
1486 1710
1486 1722
1486 1726
1486 1731
1486 1739
1486 1744
1486 1759
1486 1794
1486 1796
1486 1818
1486 1871
1486 1881
1486 1917
1486 1920
1486 1932
1486 1938
1486 1939
1486 1958
1486 1965
1486 1974
1486 1982
1486 1985
1486 1994
1486 1995
1486 2012
1486 2028
1486 2031
1486 2035
1486 2041
1486 2051
1486 2091
1486 2098
1486 2099
1486 2100
1486 2104
1486 2107
1486 2110
1486 2117
1486 2120
1486 2123
1486 2147
1486 2166
1486 2175
1486 2186
1486 2194
1486 2198
1486 2231
1486 2235
1486 2246
1487 1565
1487 1628
1487 1722
1487 1726
1487 1739
1487 1796
1487 1799
1487 1818
1487 1855
1487 1867
1487 2012
1487 2029
1487 2081
1487 2099
1487 2110
1487 2132
1487 2134
1487 2136
1487 2148
1488 1504
1488 1510
1488 1511
1488 1518
1488 1527
1488 1538
1488 1554
1488 1558
1488 1561
1488 1612
1488 1657
1488 1661
1488 1690
1488 1692
1488 1706
1488 1716
1488 1721
1488 1738
1488 1751
1488 1761
1488 1809
1488 1818
1488 1846
1488 1863
1488 1866
1488 1908
1488 1947
1488 1949
1488 1955
1488 1974
1488 1992
1488 2001
1488 2008
1488 2043
1488 2086
1488 2099
1488 2127
1488 2162
1488 2202
1489 1492
1489 1503
1489 1554
1489 1569
1489 1579
1489 1592
1489 1616
1489 1628
1489 1649
1489 1653
1489 1670
1489 1672
1489 1704
1489 1722
1489 1739
1489 1745
1489 1753
1489 1769
1489 1783
1489 1794
1489 1799
1489 1818
1489 1852
1489 1885
1489 1889
1489 1892
1489 1919
1489 1934
1489 1960
1489 1974
1489 1988
1489 2012
1489 2047
1489 2074
1489 2089
1489 2091
1489 2097
1489 2099
1489 2104
1489 2110
1489 2118
1489 2134
1489 2186
1489 2188
1489 2189
1489 2195
1489 2222
1491 1509
1491 1533
1491 1539
1491 1552
1491 1561
1491 1583
1491 1585
1491 1606
1491 1641
1491 1668
1491 1672
1491 1685
1491 1687
1491 1698
1491 1708
1491 1725
1491 1813
1491 1818
1491 1841
1491 1863
1491 1879
1491 1884
1491 1907
1491 1915
1491 1921
1491 1930
1491 1933
1491 1943
1491 1971
1491 2000
1491 2005
1491 2009
1491 2054
1491 2075
1491 2078
1491 2081
1491 2121
1491 2128
1491 2133
1491 2148
1491 2164
1491 2194
1491 2210
1491 2223
1491 2242
1492 1512
1492 1554
1492 1566
1492 1581
1492 1601
1492 1611
1492 1616
1492 1640
1492 1645
1492 1646
1492 1653
1492 1654
1492 1669
1492 1732
1492 1797
1492 1800
1492 1807
1492 1816
1492 1818
1492 1822
1492 1838
1492 1852
1492 1858
1492 1865
1492 1875
1492 1880
1492 1883
1492 1901
1492 1902
1492 1904
1492 1908
1492 1926
1492 1934
1492 1960
1492 1962
1492 1985
1492 1989
1492 1994
1492 2018
1492 2026
1492 2028
1492 2031
1492 2033
1492 2037
1492 2043
1492 2050
1492 2066
1492 2074
1492 2076
1492 2091
1492 2104
1492 2127
1492 2156
1492 2157
1492 2165
1492 2176
1492 2185
1492 2191
1492 2195
1492 2200
1492 2206
1492 2222
1492 2232
1492 2235
1492 2246
1493 1497
1493 1498
1493 1503
1493 1572
1493 1575
1493 1577
1493 1586
1493 1594
1493 1603
1493 1611
1493 1613
1493 1641
1493 1669
1493 1688
1493 1694
1493 1697
1493 1741
1493 1759
1493 1771
1493 1774
1493 1817
1493 1818
1493 1862
1493 1867
1493 1888
1493 1898
1493 1931
1493 1981
1493 1990
1493 1994
1493 2006
1493 2012
1493 2025
1493 2068
1493 2091
1493 2107
1493 2136
1493 2142
1493 2205
1494 1495
1494 1621
1494 1644
1494 1698
1494 1833
1494 1901
1494 1936
1494 1945
1494 2057
1494 2075
1494 2082
1494 2122
1494 2207
1494 2211
1494 2227
1494 2237
1495 1512
1495 1542
1495 1644
1495 1677
1495 1698
1495 1921
1495 1936
1495 1973
1495 1987
1495 2014
1495 2075
1495 2221
1495 2223
1496 1582
1496 1608
1496 1650
1496 1676
1496 1689
1496 1698
1496 1717
1496 1729
1496 1751
1496 1818
1496 1839
1496 1943
1496 1971
1496 2000
1496 2061
1496 2150
1496 2172
1496 2186
1496 2229
1496 2242
1497 1554
1497 1596
1497 1607
1497 1610
1497 1647
1497 1678
1497 1706
1497 1713
1497 1761
1497 1795
1497 1818
1497 1827
1497 1862
1497 1913
1497 1932
1497 1969
1497 2017
1497 2052
1497 2059
1497 2060
1497 2107
1497 2108
1497 2176
1497 2230
1497 2248
1498 1540
1498 1569
1498 1575
1498 1613
1498 1619
1498 1646
1498 1692
1498 1709
1498 1741
1498 1805
1498 1818
1498 1849
1498 1852
1498 1862
1498 1870
1498 1920
1498 1938
1498 1952
1498 1960
1498 1964
1498 1974
1498 2068
1498 2108
1498 2158
1498 2216
1498 2235
1498 2236
1499 1512
1499 1566
1499 1576
1499 1632
1499 1634
1499 1638
1499 1662
1499 1679
1499 1713
1499 1733
1499 1748
1499 1750
1499 1768
1499 1795
1499 1799
1499 1806
1499 1812
1499 1818
1499 1827
1499 1836
1499 1840
1499 1853
1499 1872
1499 1878
1499 1915
1499 1923
1499 1924
1499 1928
1499 1963
1499 1969
1499 1975
1499 1977
1499 1997
1499 2006
1499 2009
1499 2020
1499 2034
1499 2042
1499 2063
1499 2070
1499 2088
1499 2153
1499 2169
1499 2183
1499 2189
1499 2206
1499 2230
1499 2235
1499 2246
1500 1503
1500 1545
1500 1550
1500 1586
1500 1589
1500 1600
1500 1607
1500 1613
1500 1641
1500 1646
1500 1694
1500 1732
1500 1796
1500 1803
1500 1835
1500 1905
1500 1931
1500 1964
1500 1981
1500 1982
1500 2012
1500 2091
1500 2131
1500 2205
1501 1708
1501 1766
1501 1875
1501 1917
1501 1923
1501 1925
1501 1936
1501 2069
1501 2087
1501 2090
1501 2160
1501 2185
1501 2187
1501 2202
1501 2223
1502 1764
1502 1814
1502 1833
1502 1921
1502 1945
1502 1993
1502 2017
1502 2028
1502 2075
1502 2196
1503 1575
1503 1589
1503 1596
1503 1613
1503 1641
1503 1694
1503 1697
1503 1704
1503 1726
1503 1783
1503 1792
1503 1845
1503 1981
1503 2043
1503 2099
1503 2107
1503 2142
1503 2161
1503 2205
1504 1518
1504 1522
1504 1558
1504 1567
1504 1574
1504 1575
1504 1622
1504 1656
1504 1670
1504 1720
1504 1751
1504 1809
1504 1837
1504 1866
1504 1883
1504 1901
1504 1908
1504 1923
1504 1967
1504 1995
1504 2027
1504 2036
1504 2089
1504 2109
1504 2166
1504 2202
1504 2219
1504 2233
1505 1641
1505 1681
1505 1685
1505 1755
1505 1813
1505 1818
1505 1837
1505 1886
1505 1992
1505 2056
1505 2087
1506 1577
1506 1642
1506 1658
1506 1678
1506 1681
1506 1702
1506 1720
1506 1743
1506 1755
1506 1765
1506 1818
1506 1824
1506 1837
1506 1847
1506 1866
1506 1875
1506 1886
1506 1894
1506 1949
1506 1955
1506 1992
1506 2010
1506 2023
1506 2052
1506 2056
1506 2065
1506 2087
1506 2090
1506 2118
1506 2185
1506 2202
1507 1584
1507 1591
1507 1603
1507 1618
1507 1628
1507 1630
1507 1643
1507 1651
1507 1662
1507 1711
1507 1731
1507 1741
1507 1759
1507 1773
1507 1779
1507 1782
1507 1802
1507 1817
1507 1818
1507 1822
1507 1832
1507 1849
1507 1888
1507 1889
1507 1928
1507 1930
1507 1938
1507 1965
1507 1966
1507 1968
1507 1969
1507 1974
1507 1988
1507 1990
1507 1994
1507 2032
1507 2038
1507 2080
1507 2083
1507 2089
1507 2115
1507 2129
1507 2173
1507 2193
1507 2194
1507 2225
1508 1641
1508 1688
1508 1770
1508 1798
1508 1851
1508 1981
1508 1990
1509 1525
1509 1535
1509 1536
1509 1539
1509 1561
1509 1582
1509 1583
1509 1595
1509 1608
1509 1620
1509 1621
1509 1636
1509 1644
1509 1652
1509 1668
1509 1672
1509 1684
1509 1685
1509 1687
1509 1698
1509 1712
1509 1717
1509 1725
1509 1768
1509 1776
1509 1778
1509 1784
1509 1808
1509 1834
1509 1873
1509 1907
1509 1908
1509 1915
1509 1944
1509 1946
1509 1961
1509 1973
1509 1996
1509 2002
1509 2005
1509 2017
1509 2054
1509 2059
1509 2061
1509 2075
1509 2105
1509 2113
1509 2135
1509 2150
1509 2152
1509 2178
1509 2184
1509 2196
1509 2210
1509 2224
1509 2227
1509 2238
1509 2239
1509 2242
1509 2244
1510 1527
1510 1575
1510 1600
1510 1603
1510 1607
1510 1628
1510 1653
1510 1662
1510 1670
1510 1704
1510 1741
1510 1772
1510 1774
1510 1782
1510 1799
1510 1802
1510 1818
1510 1863
1510 1865
1510 1866
1510 1895
1510 1898
1510 1908
1510 1932
1510 1969
1510 2027
1510 2048
1510 2070
1510 2072
1510 2089
1510 2124
1510 2125
1510 2153
1510 2167
1510 2194
1510 2231
1511 1625
1511 1643
1511 1706
1511 1756
1511 1763
1511 1784
1511 1804
1511 1828
1511 1846
1511 1859
1511 1860
1511 1863
1511 1901
1511 1903
1511 1912
1511 1949
1511 1955
1511 1987
1511 2036
1511 2065
1511 2072
1511 2127
1511 2133
1511 2147
1511 2162
1511 2168
1511 2197
1511 2248
1512 1524
1512 1538
1512 1566
1512 1593
1512 1609
1512 1622
1512 1634
1512 1642
1512 1656
1512 1664
1512 1665
1512 1673
1512 1679
1512 1701
1512 1703
1512 1720
1512 1723
1512 1799
1512 1802
1512 1809
1512 1812
1512 1818
1512 1848
1512 1875
1512 1899
1512 1902
1512 1940
1512 1962
1512 1969
1512 1977
1512 1992
1512 1995
1512 2010
1512 2042
1512 2053
1512 2100
1512 2124
1512 2168
1512 2169
1512 2173
1512 2190
1512 2202
1512 2206
1512 2248
1513 1647
1513 2175
1514 1669
1514 1694
1514 1772
1514 1807
1514 1818
1514 1960
1514 2072
1514 2074
1514 2156
1514 2198
1515 1537
1515 1594
1515 1783
1515 1878
1515 2205
1516 1675
1516 1727
1517 1540
1517 1554
1517 1584
1517 1596
1517 1630
1517 1647
1517 1689
1517 1711
1517 1770
1517 1795
1517 1891
1517 1903
1517 1936
1517 1938
1517 1969
1517 2147
1518 1522
1518 1575
1518 1670
1518 1690
1518 1709
1518 1726
1518 1818
1518 1908
1518 1910
1518 1911
1518 2027
1518 2086
1518 2091
1518 2202
1518 2231
1519 1561
1519 1614
1519 1644
1519 1654
1519 1672
1519 1687
1519 1717
1519 1784
1519 1907
1519 1971
1519 1973
1519 2007
1519 2017
1519 2045
1519 2075
1519 2082
1519 2130
1519 2238
1519 2242
1520 1587
1520 1709
1520 1715
1520 1743
1520 1818
1520 1867
1520 1980
1520 2012
1520 2043
1520 2076
1520 2091
1520 2102
1520 2159
1520 2161
1520 2174
1521 1526
1521 1643
1521 1806
1521 1931
1521 2145
1522 1560
1522 1569
1522 1646
1522 1653
1522 1670
1522 1825
1522 1998
1522 2003
1522 2018
1522 2025
1522 2043
1522 2092
1522 2098
1522 2110
1522 2127
1522 2138
1522 2198
1522 2243
1523 1675
1524 1532
1524 1570
1524 1673
1524 1695
1524 1711
1524 1785
1524 1797
1524 1809
1524 1822
1524 1866
1524 1901
1524 1902
1524 1904
1524 1936
1524 1959
1524 2037
1524 2040
1524 2100
1524 2119
1524 2171
1524 2190
1524 2197
1524 2200
1525 1537
1525 1582
1525 2042
1525 2075
1525 2242
1526 1544
1526 1562
1526 1576
1526 1609
1526 1638
1526 1662
1526 1697
1526 1711
1526 1741
1526 1742
1526 1748
1526 1750
1526 1768
1526 1791
1526 1799
1526 1802
1526 1803
1526 1817
1526 1832
1526 1888
1526 1890
1526 1898
1526 1902
1526 1903
1526 1912
1526 1919
1526 1924
1526 1927
1526 1930
1526 1934
1526 1937
1526 1938
1526 1940
1526 1947
1526 1969
1526 1988
1526 2025
1526 2034
1526 2038
1526 2040
1526 2080
1526 2083
1526 2088
1526 2099
1526 2120
1526 2129
1526 2145
1526 2179
1526 2225
1527 1544
1527 1562
1527 1593
1527 1625
1527 1630
1527 1661
1527 1701
1527 1741
1527 1773
1527 1794
1527 1829
1527 1849
1527 1889
1527 1929
1527 1938
1527 1939
1527 2025
1527 2048
1527 2083
1527 2098
1527 2189
1527 2234
1528 1764
1529 1539
1529 1561
1529 1593
1529 1595
1529 1608
1529 1612
1529 1614
1529 1620
1529 1621
1529 1622
1529 1698
1529 1717
1529 1754
1529 1784
1529 1814
1529 1833
1529 1907
1529 1921
1529 1945
1529 2045
1529 2105
1529 2130
1529 2135
1529 2150
1529 2152
1529 2210
1530 1627
1530 1688
1530 1735
1530 1910
1530 2027
1530 2031
1530 2048
1530 2089
1530 2188
1531 1542
1531 1551
1531 1652
1531 1682
1531 1698
1531 1833
1531 1944
1531 2002
1531 2039
1531 2075
1531 2113
1531 2210
1531 2227
1531 2238
1532 1569
1532 1607
1532 1616
1532 1632
1532 1709
1532 1732
1532 1771
1532 1813
1532 1818
1532 1838
1532 1847
1532 1855
1532 1890
1532 1928
1532 1936
1532 1965
1532 2026
1532 2034
1532 2043
1532 2069
1532 2107
1532 2108
1532 2117
1532 2148
1532 2161
1532 2174
1532 2175
1532 2194
1532 2232
1532 2235
1532 2246
1533 1589
1533 1632
1533 1641
1533 1643
1533 1756
1533 1813
1533 1818
1533 1835
1533 1863
1533 1875
1533 1879
1533 1884
1533 1930
1533 1981
1533 2005
1533 2023
1533 2052
1533 2069
1533 2078
1533 2106
1533 2117
1533 2121
1533 2131
1533 2137
1533 2167
1533 2196
1534 1799
1534 2031
1535 1548
1535 1568
1535 1582
1535 1636
1535 1797
1535 1856
1535 1873
1535 1907
1535 1921
1535 1944
1535 1971
1535 1973
1535 2017
1535 2223
1536 1542
1536 1582
1536 1650
1536 1672
1536 1676
1536 1685
1536 1689
1536 1764
1536 2002
1536 2150
1536 2239
1536 2242
1537 1559
1537 1562
1537 1579
1537 1622
1537 1629
1537 1630
1537 1669
1537 1688
1537 1704
1537 1711
1537 1750
1537 1763
1537 1773
1537 1785
1537 1803
1537 1806
1537 1899
1537 1930
1537 1938
1537 2025
1537 2032
1537 2034
1537 2042
1537 2083
1537 2117
1537 2129
1537 2157
1537 2165
1537 2246
1538 1554
1538 1558
1538 1567
1538 1605
1538 1612
1538 1625
1538 1656
1538 1673
1538 1702
1538 1716
1538 1720
1538 1721
1538 1730
1538 1768
1538 1828
1538 1837
1538 1848
1538 1863
1538 1871
1538 1904
1538 1916
1538 1917
1538 1947
1538 1962
1538 1974
1538 1995
1538 2008
1538 2036
1538 2037
1538 2042
1538 2064
1538 2065
1538 2066
1538 2090
1538 2099
1538 2100
1538 2109
1538 2158
1538 2161
1538 2162
1538 2204
1538 2213
1538 2233
1539 1548
1539 1573
1539 1614
1539 1620
1539 1621
1539 1652
1539 1668
1539 1672
1539 1676
1539 1685
1539 1687
1539 1729
1539 1733
1539 1778
1539 1800
1539 1821
1539 1833
1539 1873
1539 1971
1539 1973
1539 2045
1539 2075
1539 2105
1539 2112
1539 2130
1539 2135
1539 2180
1539 2239
1539 2242
1540 1594
1540 1596
1540 1603
1540 1611
1540 1628
1540 1651
1540 1653
1540 1731
1540 1748
1540 1779
1540 1807
1540 1818
1540 1881
1540 1920
1540 1932
1540 1965
1540 1974
1540 1975
1540 1994
1540 2031
1540 2050
1540 2089
1540 2123
1540 2143
1540 2147
1540 2165
1540 2189
1540 2198
1541 1662
1541 1765
1541 1795
1541 2046
1541 2071
1541 2107
1541 2167
1541 2175
1541 2246
1542 1548
1542 1582
1542 1608
1542 1644
1542 1668
1542 1672
1542 1676
1542 1687
1542 1714
1542 1717
1542 1784
1542 1811
1542 1884
1542 1973
1542 2000
1542 2014
1542 2017
1542 2061
1542 2130
1542 2221
1542 2239
1543 1550
1543 1641
1543 1710
1543 1783
1544 1562
1544 1584
1544 1609
1544 1635
1544 1638
1544 1667
1544 1782
1544 1802
1544 1810
1544 1812
1544 1887
1544 1930
1544 2038
1544 2042
1544 2083
1544 2095
1544 2124
1545 1589
1545 1600
1545 1607
1545 1613
1545 1624
1545 1628
1545 1641
1545 1688
1545 1796
1545 1818
1545 1846
1545 2117
1545 2121
1545 2133
1545 2139
1545 2148
1545 2160
1545 2175
1545 2194
1546 1574
1546 1581
1546 1593
1546 1634
1546 1645
1546 1656
1546 1673
1546 1679
1546 1706
1546 1739
1546 1761
1546 1797
1546 1848
1546 1877
1546 1899
1546 1901
1546 1902
1546 1947
1546 1962
1546 1995
1546 2036
1546 2037
1546 2040
1546 2091
1546 2106
1546 2171
1546 2173
1546 2200
1546 2206
1546 2248
1547 1594
1547 1633
1547 1721
1547 1745
1547 1783
1547 1790
1547 1799
1547 1976
1547 2017
1547 2086
1547 2098
1547 2110
1547 2120
1548 1595
1548 1608
1548 1621
1548 1672
1548 1687
1548 1698
1548 1714
1548 1717
1548 1784
1548 1797
1548 2075
1548 2210
1548 2221
1548 2223
1548 2227
1549 1572
1549 1607
1549 1628
1549 1651
1549 1739
1549 1745
1549 1749
1549 1774
1549 1796
1549 1799
1549 1801
1549 1842
1549 1892
1549 1920
1549 1932
1549 1974
1549 1994
1549 2012
1549 2032
1549 2089
1549 2115
1549 2147
1549 2165
1549 2188
1549 2201
1550 1586
1550 1594
1550 1604
1550 1746
1550 1770
1550 1905
1550 2140
1550 2241
1551 1563
1551 1617
1551 1620
1551 1636
1551 1642
1551 1644
1551 1652
1551 1668
1551 1676
1551 1684
1551 1685
1551 1687
1551 1717
1551 1784
1551 1814
1551 1833
1551 1907
1551 1922
1551 1973
1551 2106
1551 2112
1551 2164
1551 2244
1552 1614
1552 1668
1552 1833
1552 1841
1552 1909
1552 1945
1552 2007
1552 2045
1552 2105
1552 2130
1552 2142
1552 2227
1552 2238
1553 1583
1553 1652
1553 1668
1553 1698
1553 1706
1553 1712
1553 1730
1553 1737
1553 1784
1553 1833
1553 1915
1553 1999
1553 2075
1553 2083
1553 2106
1553 2112
1553 2152
1553 2237
1553 2244
1554 1579
1554 1596
1554 1603
1554 1611
1554 1612
1554 1616
1554 1639
1554 1640
1554 1647
1554 1654
1554 1658
1554 1678
1554 1694
1554 1704
1554 1716
1554 1747
1554 1816
1554 1818
1554 1827
1554 1852
1554 1858
1554 1870
1554 1878
1554 1908
1554 1934
1554 1960
1554 1962
1554 1964
1554 1974
1554 1985
1554 2006
1554 2008
1554 2018
1554 2026
1554 2029
1554 2033
1554 2043
1554 2051
1554 2068
1554 2074
1554 2077
1554 2099
1554 2102
1554 2104
1554 2107
1554 2118
1554 2153
1554 2156
1554 2161
1554 2165
1554 2167
1554 2176
1554 2186
1554 2200
1555 2036
1555 2197
1556 1633
1556 1647
1556 2032
1556 2192
1557 1757
1557 1879
1557 2078
1558 1567
1558 1605
1558 1654
1558 1656
1558 1701
1558 1706
1558 1718
1558 1720
1558 1730
1558 1753
1558 1765
1558 1866
1558 1875
1558 1904
1558 1916
1558 1922
1558 1923
1558 1929
1558 1962
1558 1967
1558 2036
1558 2064
1558 2072
1558 2090
1558 2130
1558 2236
1558 2249
1559 1638
1559 1773
1559 1961
1559 2032
1559 2083
1559 2088
1559 2179
1560 1579
1560 1653
1560 1859
1560 1903
1560 2035
1560 2085
1560 2197
1561 1585
1561 1668
1561 1672
1561 1685
1561 1737
1561 1884
1561 1907
1561 1973
1561 2072
1561 2075
1561 2112
1561 2178
1562 1584
1562 1609
1562 1635
1562 1638
1562 1667
1562 1701
1562 1723
1562 1802
1562 1806
1562 1810
1562 1812
1562 1887
1562 1902
1562 1923
1562 1924
1562 2020
1562 2038
1562 2042
1562 2083
1562 2095
1562 2098
1562 2124
1562 2134
1562 2145
1562 2179
1562 2227
1562 2230
1563 1568
1563 1620
1563 1644
1563 1660
1563 1672
1563 1682
1563 1814
1563 1873
1563 1986
1563 2002
1563 2106
1563 2196
1564 1689
1564 1706
1564 1708
1564 1818
1564 1878
1564 1896
1564 1909
1564 1916
1564 1932
1564 1936
1564 1940
1564 1943
1564 1947
1564 1962
1564 2017
1564 2023
1564 2069
1564 2137
1564 2153
1564 2160
1564 2173
1565 1615
1565 1722
1565 1726
1565 1744
1565 1783
1565 1788
1565 1799
1565 1807
1565 1831
1565 1858
1565 1956
1565 1960
1565 1969
1565 2024
1565 2029
1565 2047
1565 2086
1565 2089
1565 2136
1565 2156
1565 2182
1566 1567
1566 1580
1566 1622
1566 1634
1566 1642
1566 1665
1566 1679
1566 1701
1566 1723
1566 1730
1566 1802
1566 1809
1566 1810
1566 1818
1566 1832
1566 1836
1566 1841
1566 1848
1566 1866
1566 1875
1566 1883
1566 1899
1566 1902
1566 1923
1566 1929
1566 1955
1566 1969
1566 1977
1566 1995
1566 2036
1566 2042
1566 2066
1566 2083
1566 2109
1566 2155
1566 2169
1566 2206
1566 2211
1566 2248
1567 1574
1567 1593
1567 1596
1567 1605
1567 1625
1567 1673
1567 1690
1567 1701
1567 1703
1567 1720
1567 1764
1567 1767
1567 1768
1567 1797
1567 1818
1567 1848
1567 1883
1567 1901
1567 1902
1567 1916
1567 1923
1567 1929
1567 1944
1567 1947
1567 1949
1567 1955
1567 1977
1567 1994
1567 1995
1567 2011
1567 2036
1567 2037
1567 2042
1567 2066
1567 2069
1567 2090
1567 2091
1567 2100
1567 2109
1567 2153
1567 2160
1567 2206
1567 2232
1567 2246
1567 2248
1568 1714
1568 1814
1568 1868
1568 1986
1568 2082
1569 1592
1569 1594
1569 1596
1569 1611
1569 1616
1569 1629
1569 1646
1569 1647
1569 1651
1569 1669
1569 1692
1569 1705
1569 1731
1569 1735
1569 1745
1569 1753
1569 1769
1569 1787
1569 1790
1569 1794
1569 1801
1569 1807
1569 1818
1569 1850
1569 1852
1569 1859
1569 1866
1569 1883
1569 1889
1569 1892
1569 1903
1569 1904
1569 1920
1569 1926
1569 1958
1569 1960
1569 1974
1569 1985
1569 1994
1569 2006
1569 2012
1569 2025
1569 2026
1569 2036
1569 2050
1569 2068
1569 2089
1569 2091
1569 2098
1569 2101
1569 2104
1569 2118
1569 2123
1569 2134
1569 2141
1569 2143
1569 2153
1569 2156
1569 2160
1569 2165
1569 2182
1569 2188
1569 2189
1569 2195
1569 2201
1569 2216
1569 2222
1569 2232
1569 2246
1570 1577
1570 1651
1570 1657
1570 1671
1570 1718
1570 1720
1570 1721
1570 1761
1570 1824
1570 1875
1570 1936
1570 1958
1570 2015
1570 2023
1570 2069
1570 2102
1570 2137
1570 2160
1570 2166
1570 2186
1570 2236
1570 2249
1571 1628
1571 1799
1571 1832
1571 1895
1571 1972
1571 2063
1571 2097
1571 2125
1571 2155
1571 2222
1572 1576
1572 1699
1572 1745
1572 1774
1572 1783
1572 1791
1572 1801
1572 1850
1572 1874
1572 1889
1572 1932
1572 1958
1572 2115
1572 2134
1573 1614
1573 1636
1573 1682
1573 1685
1573 1818
1573 1999
1573 2045
1573 2075
1573 2087
1573 2106
1573 2130
1573 2196
1573 2238
1574 1723
1574 1761
1574 1797
1574 1802
1574 1812
1574 1875
1574 1899
1574 1901
1574 1902
1574 1904
1574 1947
1574 1962
1574 2037
1574 2065
1574 2066
1574 2095
1574 2153
1574 2171
1574 2195
1574 2206
1574 2231
1575 1613
1575 1646
1575 1818
1575 1863
1575 1866
1575 1870
1575 1908
1575 1931
1575 1934
1575 1952
1575 1964
1575 2003
1575 2015
1575 2072
1575 2089
1575 2121
1575 2127
1575 2134
1575 2158
1575 2198
1576 1584
1576 1591
1576 1609
1576 1620
1576 1630
1576 1634
1576 1638
1576 1662
1576 1690
1576 1739
1576 1750
1576 1768
1576 1791
1576 1799
1576 1801
1576 1802
1576 1806
1576 1832
1576 1836
1576 1840
1576 1854
1576 1872
1576 1906
1576 1928
1576 1932
1576 1963
1576 1969
1576 1977
1576 2020
1576 2038
1576 2040
1576 2041
1576 2062
1576 2064
1576 2083
1576 2088
1576 2124
1576 2129
1576 2145
1576 2168
1576 2183
1576 2230
1577 1634
1577 1654
1577 1656
1577 1658
1577 1671
1577 1722
1577 1730
1577 1758
1577 1761
1577 1803
1577 1883
1577 1902
1577 1904
1577 1955
1577 1962
1577 2043
1577 2069
1577 2118
1577 2204
1578 1646
1578 1731
1578 1792
1578 1799
1578 1889
1578 2034
1578 2047
1578 2080
1578 2091
1578 2117
1579 1584
1579 1619
1579 1653
1579 1700
1579 1711
1579 1722
1579 1755
1579 1787
1579 1788
1579 1796
1579 1799
1579 1802
1579 1803
1579 1818
1579 1832
1579 1836
1579 1859
1579 1883
1579 1888
1579 1892
1579 1898
1579 1903
1579 1912
1579 1965
1579 1987
1579 2018
1579 2085
1579 2089
1579 2098
1579 2110
1579 2129
1579 2134
1579 2139
1579 2142
1579 2162
1579 2165
1579 2177
1579 2188
1579 2194
1579 2197
1579 2234
1579 2235
1580 1673
1580 1723
1580 1802
1580 1883
1580 1901
1580 1902
1580 1937
1580 2037
1580 2042
1580 2060
1580 2095
1580 2169
1580 2171
1580 2206
1581 1645
1581 1772
1581 1859
1581 1885
1581 1902
1581 1962
1581 2072
1581 2074
1581 2077
1581 2165
1581 2167
1581 2206
1582 1614
1582 1660
1582 1672
1582 1676
1582 1683
1582 1684
1582 1685
1582 1687
1582 1698
1582 1714
1582 1717
1582 1725
1582 1768
1582 1778
1582 1833
1582 1841
1582 1856
1582 1873
1582 1915
1582 1944
1582 1973
1582 1996
1582 2044
1582 2059
1582 2122
1582 2127
1582 2128
1582 2135
1582 2180
1582 2211
1582 2239
1583 1687
1583 1784
1583 1878
1583 1907
1583 1975
1583 2022
1583 2075
1583 2105
1583 2244
1584 1609
1584 1638
1584 1653
1584 1662
1584 1667
1584 1711
1584 1719
1584 1722
1584 1773
1584 1782
1584 1787
1584 1791
1584 1799
1584 1802
1584 1806
1584 1810
1584 1849
1584 1887
1584 1889
1584 1893
1584 1906
1584 1919
1584 1930
1584 2038
1584 2042
1584 2047
1584 2086
1584 2095
1584 2097
1584 2110
1584 2120
1584 2124
1584 2129
1584 2134
1584 2139
1584 2145
1584 2153
1584 2230
1584 2235
1585 1643
1585 1668
1585 1813
1585 1833
1585 1841
1585 1879
1585 1884
1585 1907
1585 1933
1585 2005
1585 2075
1585 2078
1586 1613
1586 1628
1586 1641
1586 1646
1586 1688
1586 1732
1586 1770
1586 1783
1586 1796
1586 1818
1586 1835
1586 1855
1586 1867
1586 1881
1586 1910
1586 1932
1586 1964
1586 1982
1586 1994
1586 2012
1586 2091
1586 2131
1586 2165
1586 2182
1586 2205
1587 1958
1587 2076
1588 2113
1588 2242
1589 1607
1589 1613
1589 1618
1589 1628
1589 1630
1589 1641
1589 1680
1589 1688
1589 1700
1589 1726
1589 1732
1589 1752
1589 1759
1589 1774
1589 1796
1589 1813
1589 1818
1589 1835
1589 1855
1589 1876
1589 1891
1589 1908
1589 1917
1589 1930
1589 1965
1589 1981
1589 1982
1589 2012
1589 2081
1589 2117
1589 2121
1589 2131
1589 2133
1589 2148
1589 2158
1589 2194
1589 2205
1590 2234
1591 1603
1591 1609
1591 1630
1591 1646
1591 1711
1591 1741
1591 1775
1591 1779
1591 1782
1591 1799
1591 1802
1591 1816
1591 1817
1591 1822
1591 1878
1591 1888
1591 1988
1591 2031
1591 2032
1591 2080
1591 2094
1591 2100
1591 2116
1591 2127
1591 2141
1591 2157
1591 2165
1591 2185
1591 2188
1591 2225
1591 2230
1592 1628
1592 1670
1592 1722
1592 1731
1592 1739
1592 1745
1592 1769
1592 1799
1592 1885
1592 1889
1592 1926
1592 1960
1592 1994
1592 2035
1592 2047
1592 2074
1592 2118
1592 2134
1592 2189
1592 2191
1592 2234
1593 1622
1593 1625
1593 1642
1593 1701
1593 1706
1593 1763
1593 1797
1593 1809
1593 1814
1593 1824
1593 1883
1593 1902
1593 1923
1593 1929
1593 1947
1593 1949
1593 1959
1593 1995
1593 2037
1593 2042
1593 2100
1593 2168
1593 2190
1593 2206
1593 2219
1593 2233
1593 2248
1594 1611
1594 1637
1594 1649
1594 1692
1594 1728
1594 1759
1594 1787
1594 1792
1594 1798
1594 1825
1594 1852
1594 1880
1594 1885
1594 1932
1594 1958
1594 1994
1594 2025
1594 2055
1594 2068
1594 2089
1594 2098
1594 2165
1594 2195
1594 2243
1595 1620
1595 1672
1595 1685
1595 1821
1595 1933
1595 1973
1595 1999
1595 2061
1595 2075
1595 2224
1595 2242
1595 2244
1596 1607
1596 1612
1596 1613
1596 1637
1596 1647
1596 1705
1596 1706
1596 1736
1596 1742
1596 1751
1596 1759
1596 1761
1596 1763
1596 1772
1596 1790
1596 1795
1596 1797
1596 1805
1596 1807
1596 1818
1596 1829
1596 1838
1596 1850
1596 1908
1596 1917
1596 1936
1596 1942
1596 1967
1596 1980
1596 1985
1596 1995
1596 1996
1596 2010
1596 2028
1596 2035
1596 2043
1596 2056
1596 2066
1596 2102
1596 2156
1596 2171
1596 2175
1596 2186
1596 2189
1596 2222
1598 1710
1598 1783
1598 1794
1598 1926
1598 1951
1598 1964
1598 2136
1599 1644
1599 1666
1599 1682
1599 1814
1599 1986
1600 1607
1600 1613
1600 1628
1600 1641
1600 1669
1600 1694
1600 1732
1600 1749
1600 1759
1600 1774
1600 1783
1600 1867
1600 1965
1600 1982
1600 2012
1600 2107
1600 2118
1600 2161
1600 2194
1600 2205
1601 1752
1601 1975
1601 2140
1601 2195
1602 1648
1602 1701
1602 1737
1602 1833
1602 1921
1602 1969
1602 2127
1602 2242
1603 1630
1603 1637
1603 1653
1603 1685
1603 1705
1603 1726
1603 1741
1603 1773
1603 1775
1603 1816
1603 1818
1603 1822
1603 1866
1603 1878
1603 1908
1603 1910
1603 1920
1603 1934
1603 1964
1603 1975
1603 1982
1603 2025
1603 2100
1603 2127
1603 2141
1603 2157
1603 2167
1603 2185
1603 2188
1603 2200
1604 2241
1605 1625
1605 1656
1605 1673
1605 1701
1605 1702
1605 1718
1605 1751
1605 1763
1605 1828
1605 1848
1605 1866
1605 1877
1605 1904
1605 1929
1605 1962
1605 1969
1605 1975
1605 2014
1605 2036
1605 2042
1605 2166
1606 1636
1606 1672
1606 1687
1606 1689
1606 1698
1606 1708
1606 1909
1606 1943
1606 1947
1606 1995
1606 1996
1606 2150
1606 2242
1607 1613
1607 1628
1607 1632
1607 1637
1607 1641
1607 1643
1607 1647
1607 1656
1607 1662
1607 1669
1607 1678
1607 1688
1607 1705
1607 1721
1607 1732
1607 1759
1607 1772
1607 1774
1607 1782
1607 1790
1607 1805
1607 1818
1607 1827
1607 1835
1607 1850
1607 1871
1607 1876
1607 1892
1607 1904
1607 1917
1607 1928
1607 1930
1607 1939
1607 1948
1607 1952
1607 1964
1607 1965
1607 1967
1607 1982
1607 1985
1607 1994
1607 2006
1607 2009
1607 2012
1607 2028
1607 2035
1607 2043
1607 2069
1607 2081
1607 2086
1607 2087
1607 2091
1607 2099
1607 2102
1607 2107
1607 2108
1607 2110
1607 2117
1607 2121
1607 2148
1607 2186
1607 2194
1607 2231
1607 2235
1608 1620
1608 1650
1608 1660
1608 1672
1608 1676
1608 1693
1608 1698
1608 1714
1608 1717
1608 1729
1608 1814
1608 1818
1608 1833
1608 1921
1608 1943
1608 2054
1608 2075
1608 2091
1608 2150
1608 2172
1608 2221
1608 2238
1609 1635
1609 1638
1609 1713
1609 1723
1609 1791
1609 1793
1609 1799
1609 1801
1609 1802
1609 1810
1609 1836
1609 1840
1609 1854
1609 1887
1609 1902
1609 1919
1609 1923
1609 1937
1609 1956
1609 1961
1609 1963
1609 2020
1609 2031
1609 2088
1609 2094
1609 2124
1609 2141
1609 2183
1609 2218
1609 2230
1610 1678
1610 1703
1610 1766
1610 1818
1610 1827
1610 1846
1610 1849
1610 1881
1610 2108
1610 2231
1611 1692
1611 1697
1611 1741
1611 1744
1611 1787
1611 1799
1611 1825
1611 1850
1611 1852
1611 1859
1611 1880
1611 1885
1611 1903
1611 1934
1611 1960
1611 2008
1611 2025
1611 2033
1611 2043
1611 2050
1611 2074
1611 2077
1611 2156
1611 2165
1611 2216
1611 2234
1611 2243
1611 2246
1612 1616
1612 1619
1612 1620
1612 1625
1612 1673
1612 1690
1612 1692
1612 1706
1612 1730
1612 1751
1612 1753
1612 1755
1612 1756
1612 1772
1612 1799
1612 1805
1612 1809
1612 1818
1612 1852
1612 1858
1612 1880
1612 1883
1612 1890
1612 1910
1612 1940
1612 1947
1612 1949
1612 1955
1612 1962
1612 1992
1612 2008
1612 2011
1612 2040
1612 2050
1612 2065
1612 2090
1612 2095
1612 2104
1612 2107
1612 2131
1612 2134
1612 2168
1612 2197
1612 2202
1612 2204
1612 2246
1613 1632
1613 1641
1613 1646
1613 1647
1613 1688
1613 1692
1613 1694
1613 1732
1613 1759
1613 1765
1613 1770
1613 1772
1613 1818
1613 1819
1613 1850
1613 1859
1613 1870
1613 1917
1613 1931
1613 1952
1613 1964
1613 1965
1613 1981
1613 1985
1613 1990
1613 2009
1613 2012
1613 2028
1613 2043
1613 2069
1613 2078
1613 2117
1613 2131
1613 2158
1613 2186
1613 2194
1613 2205
1614 1621
1614 1668
1614 1698
1614 1821
1614 1915
1614 1945
1614 2007
1614 2045
1614 2059
1614 2075
1614 2105
1614 2130
1614 2135
1614 2210
1614 2238
1614 2247
1615 1728
1615 1851
1615 1870
1615 1871
1615 1920
1615 1952
1615 2068
1615 2085
1615 2091
1615 2151
1616 1637
1616 1640
1616 1647
1616 1678
1616 1722
1616 1732
1616 1736
1616 1753
1616 1800
1616 1818
1616 1820
1616 1827
1616 1838
1616 1847
1616 1858
1616 1880
1616 1881
1616 1883
1616 1904
1616 1911
1616 1934
1616 1989
1616 2006
1616 2009
1616 2010
1616 2018
1616 2023
1616 2026
1616 2050
1616 2104
1616 2134
1616 2156
1616 2176
1616 2232
1616 2233
1616 2246
1617 1733
1617 1841
1617 2075
1618 1741
1618 1930
1618 2117
1619 1669
1619 1692
1619 1731
1619 1787
1619 1818
1619 1852
1619 2050
1619 2068
1619 2089
1619 2134
1619 2165
1619 2208
1620 1636
1620 1644
1620 1648
1620 1652
1620 1668
1620 1672
1620 1685
1620 1687
1620 1698
1620 1755
1620 1784
1620 1814
1620 1833
1620 1884
1620 1907
1620 1921
1620 1945
1620 1946
1620 1977
1620 2002
1620 2061
1620 2075
1620 2105
1620 2106
1620 2112
1620 2206
1620 2210
1620 2223
1620 2227
1620 2242
1621 1668
1621 1676
1621 1685
1621 1821
1621 1834
1621 1873
1621 1884
1621 1907
1621 1915
1621 1933
1621 1944
1621 1973
1621 2026
1621 2044
1621 2045
1621 2105
1621 2112
1621 2135
1621 2210
1621 2223
1621 2232
1621 2238
1621 2247
1622 1629
1622 1656
1622 1690
1622 1701
1622 1772
1622 1814
1622 1818
1622 1841
1622 1877
1622 1899
1622 1938
1622 1945
1622 1949
1622 1967
1622 1996
1622 2036
1622 2066
1622 2072
1622 2091
1622 2100
1622 2109
1622 2142
1622 2175
1622 2246
1623 1772
1623 2167
1624 1818
1624 1878
1624 2107
1624 2148
1624 2235
1625 1673
1625 1690
1625 1695
1625 1701
1625 1706
1625 1747
1625 1751
1625 1753
1625 1755
1625 1763
1625 1883
1625 1929
1625 1940
1625 1947
1625 1949
1625 1955
1625 1959
1625 1995
1625 2036
1625 2037
1625 2095
1625 2100
1625 2119
1625 2162
1625 2168
1625 2197
1625 2233
1626 1759
1626 1783
1626 1801
1626 1822
1626 1889
1626 1919
1626 1938
1626 1966
1626 1983
1626 1988
1626 2041
1626 2047
1626 2089
1626 2096
1626 2115
1626 2116
1626 2123
1626 2134
1626 2141
1627 1699
1627 1962
1627 2048
1627 2103
1628 1641
1628 1688
1628 1704
1628 1722
1628 1732
1628 1739
1628 1744
1628 1759
1628 1773
1628 1774
1628 1782
1628 1796
1628 1801
1628 1813
1628 1817
1628 1818
1628 1830
1628 1835
1628 1836
1628 1849
1628 1908
1628 1930
1628 1956
1628 1965
1628 1966
1628 1982
1628 1990
1628 1993
1628 2009
1628 2012
1628 2041
1628 2081
1628 2089
1628 2099
1628 2110
1628 2117
1628 2121
1628 2131
1628 2134
1628 2148
1628 2194
1629 1651
1629 1674
1629 1722
1629 1739
1629 1744
1629 1750
1629 1769
1629 1794
1629 1837
1629 1899
1629 1931
1629 1938
1629 1951
1629 1966
1629 2086
1629 2089
1629 2134
1629 2142
1629 2165
1629 2175
1629 2246
1630 1669
1630 1704
1630 1705
1630 1728
1630 1741
1630 1759
1630 1775
1630 1802
1630 1803
1630 1806
1630 1816
1630 1822
1630 1829
1630 1849
1630 1891
1630 1898
1630 1910
1630 1912
1630 1931
1630 1938
1630 1968
1630 1982
1630 1988
1630 2004
1630 2027
1630 2048
1630 2089
1630 2100
1630 2110
1630 2141
1630 2143
1630 2145
1630 2157
1630 2165
1630 2185
1630 2188
1630 2194
1630 2200
1631 1982
1631 1990
1631 2012
1631 2091
1632 1643
1632 1704
1632 1709
1632 1716
1632 1732
1632 1739
1632 1743
1632 1759
1632 1771
1632 1818
1632 1894
1632 1911
1632 1939
1632 2012
1632 2015
1632 2043
1632 2069
1632 2070
1632 2081
1632 2117
1632 2148
1632 2161
1632 2174
1632 2201
1632 2231
1632 2235
1633 1705
1633 1759
1633 1790
1633 1803
1633 1897
1633 1970
1633 1974
1633 2024
1633 2035
1633 2110
1633 2192
1634 1638
1634 1643
1634 1654
1634 1665
1634 1679
1634 1701
1634 1706
1634 1713
1634 1723
1634 1730
1634 1750
1634 1790
1634 1802
1634 1821
1634 1837
1634 1840
1634 1847
1634 1853
1634 1899
1634 1901
1634 1902
1634 1915
1634 1923
1634 1928
1634 1940
1634 1962
1634 1963
1634 1977
1634 1995
1634 2034
1634 2037
1634 2040
1634 2053
1634 2062
1634 2064
1634 2070
1634 2100
1634 2118
1634 2153
1634 2168
1634 2169
1634 2190
1634 2206
1634 2230
1634 2248
1635 1638
1635 1645
1635 1713
1635 1791
1635 1793
1635 1799
1635 1801
1635 1802
1635 1840
1635 1887
1635 1919
1635 1963
1635 2006
1635 2020
1635 2042
1635 2094
1635 2116
1635 2124
1635 2169
1635 2183
1635 2230
1636 1652
1636 1672
1636 1685
1636 1687
1636 1689
1636 1821
1636 1833
1636 1841
1636 1856
1636 1873
1636 1884
1636 1907
1636 1973
1636 1995
1636 1996
1636 2045
1636 2075
1636 2105
1636 2130
1636 2150
1636 2224
1636 2244
1637 1647
1637 1759
1637 1775
1637 1805
1637 1845
1637 1849
1637 1850
1637 1934
1637 1938
1637 2025
1637 2043
1637 2082
1637 2156
1637 2165
1638 1662
1638 1690
1638 1748
1638 1750
1638 1782
1638 1791
1638 1799
1638 1802
1638 1806
1638 1817
1638 1832
1638 1836
1638 1840
1638 1854
1638 1859
1638 1898
1638 1906
1638 1912
1638 1930
1638 1937
1638 1938
1638 1940
1638 1947
1638 1963
1638 1969
1638 1972
1638 2020
1638 2038
1638 2040
1638 2042
1638 2064
1638 2083
1638 2088
1638 2124
1638 2125
1638 2129
1638 2145
1638 2155
1638 2165
1638 2179
1638 2181
1638 2183
1638 2210
1638 2230
1638 2234
1639 1647
1639 1721
1639 1736
1639 1761
1639 1800
1639 1908
1639 1948
1639 2010
1639 2050
1639 2066
1639 2104
1639 2175
1639 2191
1639 2232
1640 1695
1640 1709
1640 1711
1640 1715
1640 1721
1640 1736
1640 1818
1640 1855
1640 1911
1640 1952
1640 2026
1640 2050
1640 2065
1640 2098
1640 2104
1640 2120
1640 2126
1640 2146
1640 2176
1640 2204
1640 2209
1640 2231
1640 2232
1641 1643
1641 1688
1641 1694
1641 1732
1641 1772
1641 1813
1641 1819
1641 1863
1641 1867
1641 1871
1641 1875
1641 1876
1641 1894
1641 1952
1641 1964
1641 1981
1641 1990
1641 2012
1641 2052
1641 2069
1641 2107
1641 2117
1641 2121
1641 2131
1641 2148
1641 2158
1641 2167
1641 2205
1642 1647
1642 1673
1642 1723
1642 1802
1642 1809
1642 1818
1642 1837
1642 1847
1642 1866
1642 1902
1642 1923
1642 1959
1642 1995
1642 2010
1642 2036
1642 2100
1642 2168
1642 2169
1642 2190
1642 2206
1642 2248
1643 1645
1643 1665
1643 1668
1643 1673
1643 1679
1643 1707
1643 1720
1643 1755
1643 1756
1643 1782
1643 1802
1643 1803
1643 1806
1643 1813
1643 1818
1643 1828
1643 1841
1643 1863
1643 1884
1643 1902
1643 1903
1643 1907
1643 1916
1643 1923
1643 1924
1643 1930
1643 1948
1643 1949
1643 1995
1643 2038
1643 2063
1643 2065
1643 2072
1643 2080
1643 2091
1643 2100
1643 2121
1643 2133
1643 2137
1643 2148
1643 2169
1643 2173
1643 2197
1643 2219
1644 1652
1644 1672
1644 1676
1644 1685
1644 1698
1644 1784
1644 1814
1644 1877
1644 1986
1644 2061
1644 2078
1644 2106
1644 2113
1644 2130
1644 2242
1645 1654
1645 1662
1645 1671
1645 1679
1645 1706
1645 1724
1645 1726
1645 1730
1645 1761
1645 1791
1645 1801
1645 1818
1645 1830
1645 1832
1645 1854
1645 1863
1645 1902
1645 1919
1645 1927
1645 1947
1645 1962
1645 2010
1645 2038
1645 2069
1645 2072
1645 2171
1645 2173
1645 2185
1645 2187
1645 2206
1646 1669
1646 1704
1646 1746
1646 1759
1646 1797
1646 1803
1646 1818
1646 1822
1646 1849
1646 1870
1646 1875
1646 1881
1646 1910
1646 1926
1646 1938
1646 1952
1646 1964
1646 2003
1646 2015
1646 2051
1646 2089
1646 2091
1646 2099
1646 2100
1646 2157
1646 2158
1646 2189
1646 2195
1646 2200
1646 2208
1647 1658
1647 1662
1647 1705
1647 1726
1647 1736
1647 1754
1647 1759
1647 1772
1647 1790
1647 1795
1647 1801
1647 1805
1647 1818
1647 1833
1647 1837
1647 1847
1647 1850
1647 1853
1647 1878
1647 1889
1647 1902
1647 1908
1647 1917
1647 1967
1647 1974
1647 1985
1647 2010
1647 2022
1647 2028
1647 2035
1647 2038
1647 2043
1647 2051
1647 2104
1647 2139
1647 2168
1647 2175
1647 2186
1647 2189
1647 2232
1647 2246
1648 1672
1648 1833
1648 1907
1648 1915
1648 1945
1648 1973
1648 2105
1648 2211
1648 2224
1648 2237
1649 1686
1649 1694
1649 1799
1649 1885
1649 1935
1649 2031
1649 2097
1649 2134
1649 2188
1650 1660
1650 1676
1650 1687
1650 1717
1650 1729
1650 1839
1650 1884
1650 2000
1650 2054
1650 2128
1650 2150
1650 2237
1651 1731
1651 1739
1651 1744
1651 1796
1651 1805
1651 1855
1651 1881
1651 1883
1651 1892
1651 1920
1651 1949
1651 1974
1651 2068
1651 2085
1651 2089
1651 2118
1651 2147
1651 2182
1651 2195
1651 2246
1652 1654
1652 1668
1652 1672
1652 1682
1652 1717
1652 1784
1652 1803
1652 1833
1652 1859
1652 1884
1652 1907
1652 1915
1652 1945
1652 2002
1652 2075
1652 2105
1652 2112
1652 2113
1652 2210
1652 2227
1652 2242
1653 1658
1653 1700
1653 1759
1653 1769
1653 1773
1653 1774
1653 1787
1653 1799
1653 1819
1653 1829
1653 1859
1653 1878
1653 1920
1653 1928
1653 1982
1653 1988
1653 1998
1653 2003
1653 2065
1653 2076
1653 2089
1653 2099
1653 2107
1653 2147
1653 2165
1653 2194
1653 2198
1653 2205
1654 1656
1654 1671
1654 1673
1654 1690
1654 1723
1654 1730
1654 1754
1654 1761
1654 1805
1654 1863
1654 1875
1654 1883
1654 1896
1654 1904
1654 1909
1654 1916
1654 1945
1654 1947
1654 1959
1654 1962
1654 1971
1654 2008
1654 2040
1654 2072
1654 2100
1654 2137
1654 2168
1654 2185
1654 2206
1654 2233
1654 2248
1656 1673
1656 1701
1656 1705
1656 1730
1656 1744
1656 1747
1656 1753
1656 1765
1656 1768
1656 1795
1656 1809
1656 1840
1656 1848
1656 1853
1656 1862
1656 1877
1656 1878
1656 1902
1656 1909
1656 1915
1656 1916
1656 1923
1656 1940
1656 1955
1656 1962
1656 1963
1656 1967
1656 1969
1656 1975
1656 1977
1656 1988
1656 1995
1656 2036
1656 2040
1656 2042
1656 2090
1656 2103
1656 2109
1656 2153
1656 2168
1656 2183
1656 2235
1656 2248
1657 1761
1657 1804
1657 1837
1657 1875
1657 1902
1657 1909
1657 1949
1657 2202
1657 2236
1658 1713
1658 1736
1658 1741
1658 1762
1658 1794
1658 1795
1658 1800
1658 1818
1658 1820
1658 1827
1658 1838
1658 1875
1658 1920
1658 1939
1658 1985
1658 1988
1658 2003
1658 2010
1658 2018
1658 2038
1658 2043
1658 2051
1658 2072
1658 2076
1658 2081
1658 2101
1658 2104
1658 2108
1658 2118
1658 2161
1658 2177
1658 2195
1658 2246
1659 1671
1659 1765
1659 1818
1659 1875
1659 1940
1659 2015
1659 2023
1659 2065
1659 2158
1659 2173
1659 2195
1659 2231
1660 1672
1660 1834
1660 1891
1660 1944
1660 2054
1661 1793
1661 1969
1661 2218
1661 2228
1662 1664
1662 1665
1662 1679
1662 1704
1662 1754
1662 1759
1662 1768
1662 1788
1662 1791
1662 1799
1662 1801
1662 1802
1662 1806
1662 1817
1662 1832
1662 1853
1662 1854
1662 1895
1662 1919
1662 1924
1662 1927
1662 1928
1662 1931
1662 1932
1662 1937
1662 1969
1662 1972
1662 1989
1662 2006
1662 2038
1662 2053
1662 2063
1662 2072
1662 2083
1662 2116
1662 2145
1662 2153
1662 2155
1662 2169
1662 2173
1662 2183
1662 2193
1662 2230
1663 1773
1663 1845
1663 2025
1664 1665
1664 1673
1664 1681
1664 1723
1664 1755
1664 1768
1664 1782
1664 1818
1664 1832
1664 1837
1664 1847
1664 1883
1664 1895
1664 1937
1664 2040
1664 2045
1664 2053
1664 2063
1664 2153
1664 2169
1664 2193
1664 2248
1665 1673
1665 1679
1665 1701
1665 1703
1665 1720
1665 1723
1665 1724
1665 1832
1665 1837
1665 1841
1665 1902
1665 1916
1665 1923
1665 1949
1665 1962
1665 1977
1665 1989
1665 2063
1665 2153
1665 2169
1665 2173
1665 2248
1666 1683
1666 1986
1666 2135
1666 2215
1667 1782
1667 1802
1667 1817
1667 1888
1667 1898
1667 1906
1667 1912
1667 1930
1667 1941
1667 2020
1667 2038
1667 2124
1668 1672
1668 1683
1668 1685
1668 1687
1668 1706
1668 1717
1668 1821
1668 1833
1668 1841
1668 1859
1668 1873
1668 1884
1668 1907
1668 1942
1668 1999
1668 2045
1668 2063
1668 2075
1668 2105
1668 2130
1668 2184
1668 2210
1668 2224
1668 2238
1668 2242
1669 1688
1669 1727
1669 1741
1669 1759
1669 1783
1669 1787
1669 1799
1669 1807
1669 1818
1669 1829
1669 1844
1669 1867
1669 1885
1669 1920
1669 1926
1669 1931
1669 1934
1669 1939
1669 1982
1669 1994
1669 2012
1669 2025
1669 2026
1669 2028
1669 2033
1669 2034
1669 2051
1669 2074
1669 2077
1669 2091
1669 2098
1669 2107
1669 2110
1669 2139
1669 2142
1669 2156
1669 2165
1669 2194
1669 2195
1669 2222
1670 1735
1670 1769
1670 1770
1670 1866
1670 1885
1670 1908
1670 1935
1670 1960
1670 2086
1670 2089
1670 2099
1670 2118
1670 2127
1670 2134
1670 2202
1670 2222
1671 1690
1671 1718
1671 1720
1671 1824
1671 1863
1671 1866
1671 1875
1671 1894
1671 1904
1671 1909
1671 1922
1671 1936
1671 1942
1671 1984
1671 2069
1671 2072
1671 2137
1671 2157
1671 2166
1671 2185
1671 2187
1671 2236
1671 2249
1672 1676
1672 1685
1672 1687
1672 1693
1672 1714
1672 1717
1672 1729
1672 1778
1672 1784
1672 1818
1672 1821
1672 1841
1672 1870
1672 1884
1672 1907
1672 1943
1672 1944
1672 1971
1672 2000
1672 2053
1672 2054
1672 2075
1672 2082
1672 2105
1672 2112
1672 2210
1672 2221
1672 2227
1672 2242
1673 1723
1673 1730
1673 1751
1673 1753
1673 1755
1673 1756
1673 1763
1673 1799
1673 1802
1673 1804
1673 1805
1673 1809
1673 1818
1673 1832
1673 1863
1673 1883
1673 1909
1673 1916
1673 1929
1673 1947
1673 1948
1673 1955
1673 1959
1673 1992
1673 1993
1673 2036
1673 2037
1673 2042
1673 2047
1673 2087
1673 2095
1673 2100
1673 2168
1673 2190
1673 2197
1673 2200
1673 2206
1673 2233
1673 2248
1674 1750
1675 1783
1675 1815
1675 1849
1675 1994
1675 2049
1675 2097
1675 2099
1675 2151
1675 2220
1676 1685
1676 1687
1676 1689
1676 1693
1676 1698
1676 1717
1676 1729
1676 1764
1676 1784
1676 1833
1676 1884
1676 1907
1676 1971
1676 2000
1676 2002
1676 2044
1676 2054
1676 2061
1676 2075
1676 2150
1676 2172
1676 2211
1676 2223
1676 2229
1676 2233
1676 2242
1676 2244
1677 2075
1678 1755
1678 1818
1678 1827
1678 1902
1678 1934
1678 2051
1678 2104
1678 2107
1678 2108
1678 2176
1678 2246
1679 1701
1679 1713
1679 1750
1679 1761
1679 1797
1679 1806
1679 1840
1679 1853
1679 1899
1679 1902
1679 1923
1679 1924
1679 1928
1679 1931
1679 1948
1679 1962
1679 1963
1679 1977
1679 2036
1679 2040
1679 2053
1679 2070
1679 2145
1679 2153
1679 2169
1679 2206
1679 2248
1680 1700
1680 1796
1680 1939
1680 1958
1681 1720
1681 1721
1681 1752
1681 1755
1681 1772
1681 1809
1681 1818
1681 1837
1681 1847
1681 1866
1681 1875
1681 1883
1681 1886
1681 1894
1681 1911
1681 1992
1681 2023
1681 2052
1681 2056
1681 2065
1681 2069
1681 2083
1681 2087
1681 2202
1681 2231
1681 2236
1682 1833
1682 1879
1682 1945
1682 1986
1682 2002
1682 2038
1682 2045
1682 2082
1682 2113
1683 1908
1683 1931
1684 1725
1684 1808
1684 1873
1684 1908
1684 1921
1684 1946
1684 1973
1684 1996
1684 2005
1684 2171
1684 2178
1684 2227
1684 2239
1684 2240
1685 1687
1685 1717
1685 1755
1685 1764
1685 1784
1685 1833
1685 1873
1685 1884
1685 1907
1685 1915
1685 1943
1685 1944
1685 1996
1685 2002
1685 2053
1685 2054
1685 2075
1685 2105
1685 2135
1685 2178
1685 2210
1685 2223
1685 2224
1685 2227
1685 2242
1685 2244
1686 1727
1686 1788
1686 1859
1686 1994
1686 2049
1686 2085
1686 2097
1686 2134
1687 1698
1687 1714
1687 1717
1687 1729
1687 1737
1687 1778
1687 1784
1687 1821
1687 1833
1687 1834
1687 1841
1687 1867
1687 1884
1687 1944
1687 1973
1687 2000
1687 2007
1687 2045
1687 2054
1687 2057
1687 2061
1687 2075
1687 2082
1687 2113
1687 2180
1687 2221
1687 2223
1687 2224
1687 2242
1688 1732
1688 1770
1688 1796
1688 1813
1688 1818
1688 1876
1688 1930
1688 1935
1688 1965
1688 1974
1688 1981
1688 1982
1688 1990
1688 1994
1688 2029
1688 2068
1688 2081
1688 2091
1688 2117
1688 2131
1688 2148
1688 2194
1688 2231
1688 2241
1689 1714
1689 1729
1689 1943
1689 1995
1689 1996
1689 2017
1689 2087
1689 2130
1689 2150
1689 2172
1689 2238
1689 2242
1690 1703
1690 1706
1690 1730
1690 1748
1690 1753
1690 1755
1690 1756
1690 1763
1690 1791
1690 1797
1690 1804
1690 1865
1690 1883
1690 1902
1690 1932
1690 1937
1690 1940
1690 1947
1690 1959
1690 1995
1690 2040
1690 2042
1690 2064
1690 2072
1690 2088
1690 2095
1690 2100
1690 2104
1690 2162
1690 2168
1690 2169
1690 2197
1690 2206
1690 2248
1692 1726
1692 1783
1692 1787
1692 1818
1692 1838
1692 1850
1692 1852
1692 1859
1692 1870
1692 1926
1692 1934
1692 1949
1692 1964
1692 1994
1692 2008
1692 2025
1692 2028
1692 2043
1692 2050
1692 2052
1692 2055
1692 2085
1692 2118
1692 2156
1692 2158
1692 2165
1692 2202
1692 2208
1692 2235
1692 2243
1692 2246
1693 1698
1693 1714
1693 1729
1693 2054
1693 2075
1693 2172
1693 2242
1694 1704
1694 1726
1694 1792
1694 1796
1694 1807
1694 1862
1694 1867
1694 1875
1694 1891
1694 1904
1694 1966
1694 1993
1694 2012
1694 2052
1694 2074
1694 2085
1694 2131
1694 2205
1694 2208
1695 1700
1695 1706
1695 1709
1695 1711
1695 1721
1695 1753
1695 1761
1695 1765
1695 1785
1695 1794
1695 1795
1695 1809
1695 1818
1695 1822
1695 1866
1695 1888
1695 1911
1695 1936
1695 1959
1695 2018
1695 2033
1695 2065
1695 2091
1695 2098
1695 2100
1695 2103
1695 2110
1695 2115
1695 2120
1695 2146
1695 2153
1695 2161
1695 2168
1695 2171
1695 2190
1695 2200
1695 2202
1695 2216
1696 2087
1696 2172
1697 1739
1697 1743
1697 1803
1697 1817
1697 1849
1697 1888
1697 1889
1697 1890
1697 1898
1697 1931
1697 1990
1697 1994
1697 2080
1697 2129
1697 2134
1697 2234
1698 1714
1698 1729
1698 1778
1698 1811
1698 1814
1698 1833
1698 1873
1698 1884
1698 1907
1698 1908
1698 1943
1698 1945
1698 2000
1698 2017
1698 2075
1698 2106
1698 2127
1698 2211
1698 2221
1698 2227
1698 2242
1699 1739
1699 1773
1699 1794
1699 1818
1699 2003
1699 2012
1699 2189
1700 1704
1700 1711
1700 1720
1700 1732
1700 1739
1700 1744
1700 1746
1700 1771
1700 1774
1700 1794
1700 1799
1700 1818
1700 1898
1700 1926
1700 1935
1700 1968
1700 1972
1700 2003
1700 2010
1700 2029
1700 2052
1700 2065
1700 2087
1700 2097
1700 2099
1700 2151
1700 2161
1700 2172
1700 2205
1700 2206
1700 2216
1701 1703
1701 1723
1701 1799
1701 1802
1701 1832
1701 1836
1701 1841
1701 1866
1701 1902
1701 1923
1701 1929
1701 1962
1701 1963
1701 1969
1701 1977
1701 2042
1701 2066
1701 2083
1701 2169
1701 2190
1701 2197
1701 2230
1701 2248
1702 1818
1702 1910
1702 1940
1702 1962
1702 1974
1702 2023
1702 2085
1702 2109
1702 2119
1703 1762
1703 1827
1703 1849
1703 1864
1703 1902
1703 1955
1703 2003
1703 2037
1703 2076
1703 2118
1703 2206
1704 1741
1704 1759
1704 1799
1704 1802
1704 1832
1704 1885
1704 1895
1704 1931
1704 1938
1704 1962
1704 1969
1704 1982
1704 2053
1704 2077
1704 2098
1704 2110
1704 2118
1704 2125
1704 2153
1704 2156
1704 2169
1704 2194
1705 1721
1705 1739
1705 1741
1705 1746
1705 1759
1705 1772
1705 1775
1705 1790
1705 1799
1705 1805
1705 1816
1705 1840
1705 1849
1705 1850
1705 1872
1705 1889
1705 1910
1705 1926
1705 1938
1705 1967
1705 1974
1705 1985
1705 2035
1705 2043
1705 2047
1705 2048
1705 2100
1705 2110
1705 2127
1705 2134
1705 2157
1705 2185
1705 2186
1705 2188
1705 2189
1705 2192
1705 2200
1706 1708
1706 1718
1706 1751
1706 1753
1706 1756
1706 1758
1706 1761
1706 1763
1706 1797
1706 1802
1706 1804
1706 1818
1706 1824
1706 1828
1706 1846
1706 1847
1706 1860
1706 1863
1706 1875
1706 1883
1706 1894
1706 1896
1706 1899
1706 1901
1706 1903
1706 1916
1706 1917
1706 1925
1706 1929
1706 1932
1706 1936
1706 1942
1706 1947
1706 1949
1706 1955
1706 1959
1706 1974
1706 1995
1706 1999
1706 2000
1706 2001
1706 2011
1706 2037
1706 2040
1706 2042
1706 2064
1706 2069
1706 2072
1706 2075
1706 2100
1706 2104
1706 2106
1706 2160
1706 2162
1706 2166
1706 2167
1706 2168
1706 2171
1706 2185
1706 2186
1706 2197
1706 2200
1706 2202
1706 2206
1706 2230
1706 2248
1706 2249
1707 1711
1707 1721
1707 1771
1707 1800
1707 1812
1707 1847
1707 1853
1707 1924
1707 1931
1707 1962
1707 2012
1707 2065
1707 2146
1707 2235
1708 1720
1708 1772
1708 1818
1708 1824
1708 1837
1708 1838
1708 1847
1708 1894
1708 1925
1708 1936
1708 1942
1708 2065
1708 2069
1708 2087
1708 2137
1708 2158
1708 2160
1708 2168
1708 2185
1708 2187
1708 2236
1709 1711
1709 1715
1709 1721
1709 1743
1709 1785
1709 1809
1709 1818
1709 1886
1709 1888
1709 1911
1709 1952
1709 2022
1709 2036
1709 2043
1709 2065
1709 2076
1709 2098
1709 2107
1709 2110
1709 2115
1709 2120
1709 2146
1709 2174
1709 2209
1709 2222
1709 2232
1709 2235
1710 1745
1710 1783
1710 1885
1710 1951
1710 2003
1710 2012
1710 2043
1711 1721
1711 1783
1711 1785
1711 1799
1711 1802
1711 1803
1711 1809
1711 1817
1711 1818
1711 1859
1711 1888
1711 1902
1711 1903
1711 1911
1711 1912
1711 1936
1711 1938
1711 1995
1711 2022
1711 2033
1711 2034
1711 2083
1711 2096
1711 2098
1711 2103
1711 2110
1711 2129
1711 2146
1711 2151
1711 2165
1711 2189
1711 2200
1711 2205
1711 2232
1712 1767
1712 1834
1712 1915
1712 2180
1712 2237
1713 1754
1713 1768
1713 1799
1713 1812
1713 1818
1713 1853
1713 1893
1713 1924
1713 1928
1713 1963
1713 1969
1713 1977
1713 2009
1713 2020
1713 2063
1713 2066
1713 2070
1713 2124
1713 2183
1713 2230
1713 2235
1713 2246
1713 2248
1714 1717
1714 1729
1714 1764
1714 1784
1714 1884
1714 1943
1714 1971
1714 2045
1714 2054
1714 2082
1714 2150
1714 2221
1714 2223
1714 2242
1715 1721
1715 1743
1715 1886
1715 1911
1715 2012
1715 2065
1715 2076
1715 2107
1715 2110
1715 2146
1715 2161
1715 2174
1716 1743
1716 1789
1716 1870
1716 1878
1716 1964
1716 1974
1716 1979
1716 2099
1716 2102
1716 2159
1717 1729
1717 1821
1717 1841
1717 1884
1717 1943
1717 1971
1717 1999
1717 2054
1717 2127
1717 2128
1717 2178
1717 2180
1717 2184
1717 2221
1717 2242
1718 1720
1718 1753
1718 1824
1718 1855
1718 1894
1718 1909
1718 1942
1718 2036
1718 2069
1718 2160
1718 2236
1718 2249
1719 1721
1719 1769
1719 1928
1719 1974
1719 2090
1719 2091
1719 2099
1719 2160
1719 2177
1719 2201
1719 2231
1720 1730
1720 1746
1720 1747
1720 1751
1720 1765
1720 1772
1720 1774
1720 1788
1720 1799
1720 1818
1720 1855
1720 1860
1720 1865
1720 1869
1720 1875
1720 1883
1720 1901
1720 1904
1720 1916
1720 1949
1720 1995
1720 2001
1720 2012
1720 2014
1720 2036
1720 2052
1720 2056
1720 2065
1720 2069
1720 2087
1720 2091
1720 2100
1720 2137
1720 2160
1720 2171
1720 2176
1720 2190
1720 2197
1720 2202
1720 2205
1720 2233
1720 2249
1721 1726
1721 1743
1721 1756
1721 1759
1721 1783
1721 1785
1721 1790
1721 1795
1721 1799
1721 1809
1721 1816
1721 1818
1721 1837
1721 1847
1721 1850
1721 1853
1721 1878
1721 1886
1721 1888
1721 1911
1721 1927
1721 1934
1721 1940
1721 1958
1721 1987
1721 1992
1721 1996
1721 2033
1721 2036
1721 2043
1721 2048
1721 2065
1721 2095
1721 2098
1721 2103
1721 2110
1721 2120
1721 2146
1721 2153
1721 2168
1721 2174
1721 2206
1721 2209
1721 2216
1722 1739
1722 1744
1722 1759
1722 1769
1722 1774
1722 1794
1722 1799
1722 1801
1722 1830
1722 1831
1722 1870
1722 1889
1722 1906
1722 1926
1722 2047
1722 2086
1722 2089
1722 2091
1722 2096
1722 2097
1722 2098
1722 2099
1722 2110
1722 2118
1722 2134
1722 2136
1722 2154
1722 2189
1722 2194
1722 2216
1723 1732
1723 1747
1723 1755
1723 1802
1723 1809
1723 1810
1723 1812
1723 1818
1723 1853
1723 1902
1723 1923
1723 1947
1723 1977
1723 1993
1723 1995
1723 2010
1723 2042
1723 2052
1723 2053
1723 2069
1723 2095
1723 2100
1723 2141
1723 2160
1723 2168
1723 2169
1723 2190
1723 2202
1723 2206
1723 2248
1724 1778
1724 1813
1724 1833
1724 1921
1724 1933
1724 2017
1724 2044
1724 2075
1724 2082
1724 2184
1724 2217
1724 2244
1725 1808
1725 1908
1725 1973
1725 2005
1725 2178
1725 2227
1725 2240
1726 1783
1726 1803
1726 1807
1726 1829
1726 1849
1726 1855
1726 1903
1726 2010
1726 2043
1726 2074
1726 2099
1726 2131
1726 2136
1726 2156
1726 2205
1726 2234
1727 1770
1727 1775
1727 1779
1727 1788
1727 1910
1727 1994
1727 2049
1727 2073
1727 2089
1727 2182
1727 2188
1728 1859
1728 1891
1728 2068
1728 2085
1729 1884
1729 1912
1729 1921
1729 1943
1729 1945
1729 2014
1729 2054
1729 2075
1729 2150
1729 2172
1729 2229
1729 2242
1730 1754
1730 1761
1730 1763
1730 1797
1730 1805
1730 1818
1730 1860
1730 1875
1730 1883
1730 1896
1730 1901
1730 1909
1730 1923
1730 1947
1730 1962
1730 1967
1730 1985
1730 1995
1730 1999
1730 2008
1730 2037
1730 2040
1730 2072
1730 2100
1730 2171
1730 2185
1730 2190
1730 2196
1730 2200
1730 2206
1730 2226
1730 2234
1730 2248
1731 1739
1731 1881
1731 1889
1731 1891
1731 1920
1731 1974
1731 1988
1731 1994
1731 2028
1731 2035
1731 2051
1731 2085
1731 2089
1731 2094
1731 2115
1731 2147
1731 2190
1732 1759
1732 1774
1732 1796
1732 1800
1732 1809
1732 1818
1732 1835
1732 1863
1732 1867
1732 1871
1732 1911
1732 1952
1732 1981
1732 1982
1732 1990
1732 1994
1732 2012
1732 2069
1732 2091
1732 2117
1732 2137
1732 2148
1732 2158
1732 2161
1732 2235
1733 1737
1733 1907
1733 2075
1734 1997
1734 2031
1734 2032
1735 1739
1735 1825
1735 1876
1735 1883
1735 1908
1735 1934
1735 1966
1735 2048
1735 2086
1735 2089
1735 2127
1735 2188
1736 1768
1736 1771
1736 1800
1736 1801
1736 1818
1736 1820
1736 1838
1736 1853
1736 1858
1736 1908
1736 2009
1736 2010
1736 2026
1736 2050
1736 2051
1736 2104
1736 2117
1736 2139
1736 2141
1736 2191
1736 2232
1736 2246
1737 1915
1737 2070
1737 2072
1738 2047
1738 2173
1739 1744
1739 1749
1739 1774
1739 1775
1739 1790
1739 1794
1739 1796
1739 1801
1739 1848
1739 1850
1739 1881
1739 1889
1739 1892
1739 1895
1739 1905
1739 1920
1739 1937
1739 1951
1739 1966
1739 1974
1739 2012
1739 2035
1739 2041
1739 2047
1739 2065
1739 2089
1739 2096
1739 2110
1739 2134
1739 2136
1739 2140
1739 2143
1739 2147
1739 2153
1739 2161
1739 2189
1740 1820
1740 1855
1740 2181
1740 2231
1740 2235
1740 2246
1741 1748
1741 1752
1741 1759
1741 1770
1741 1773
1741 1779
1741 1816
1741 1817
1741 1818
1741 1845
1741 1849
1741 1859
1741 1867
1741 1878
1741 1923
1741 1934
1741 1938
1741 1965
1741 1982
1741 1988
1741 2006
1741 2025
1741 2034
1741 2051
1741 2072
1741 2110
1741 2115
1741 2120
1741 2147
1741 2153
1741 2157
1741 2165
1741 2167
1741 2194
1741 2231
1741 2246
1742 1875
1742 1898
1742 2175
1743 1818
1743 1867
1743 1885
1743 1898
1743 1911
1743 1979
1743 1980
1743 1987
1743 2015
1743 2026
1743 2043
1743 2069
1743 2076
1743 2087
1743 2102
1743 2107
1743 2110
1743 2159
1743 2161
1743 2174
1743 2187
1743 2189
1744 1749
1744 1774
1744 1794
1744 1796
1744 1835
1744 2012
1744 2029
1744 2110
1744 2111
1744 2118
1744 2134
1744 2136
1744 2182
1744 2201
1744 2216
1745 1769
1745 1774
1745 1783
1745 1831
1745 1850
1745 1874
1745 1910
1745 1958
1745 1966
1745 2012
1745 2089
1745 2110
1745 2111
1745 2118
1745 2134
1745 2140
1745 2188
1745 2195
1745 2216
1745 2222
1746 1747
1746 1780
1746 1794
1746 1827
1746 1835
1746 1939
1746 2029
1746 2034
1746 2036
1746 2043
1746 2051
1746 2072
1746 2107
1746 2139
1746 2161
1746 2204
1746 2205
1746 2231
1747 1772
1747 1780
1747 1866
1747 1869
1747 1883
1747 1949
1747 1995
1747 2001
1747 2036
1747 2066
1747 2100
1747 2109
1747 2190
1747 2197
1747 2200
1747 2233
1748 1773
1748 1791
1748 1795
1748 1802
1748 1810
1748 1818
1748 1881
1748 1902
1748 1928
1748 1932
1748 1937
1748 1938
1748 1940
1748 1947
1748 1948
1748 1963
1748 1966
1748 2006
1748 2020
1748 2026
1748 2040
1748 2064
1748 2088
1748 2103
1748 2129
1748 2175
1748 2181
1748 2246
1749 1774
1749 1796
1749 1835
1749 1885
1749 1983
1749 2012
1749 2029
1749 2107
1749 2111
1749 2136
1749 2205
1750 1799
1750 1802
1750 1817
1750 1899
1750 1938
1750 1963
1750 1969
1750 2006
1750 2083
1750 2142
1750 2230
1750 2246
1750 2248
1751 1753
1751 1756
1751 1763
1751 1805
1751 1846
1751 1863
1751 1883
1751 1955
1751 1959
1751 1993
1751 2001
1751 2011
1751 2036
1751 2061
1751 2065
1751 2066
1751 2069
1751 2072
1751 2164
1751 2190
1752 1859
1752 2081
1752 2140
1753 1755
1753 1756
1753 1763
1753 1785
1753 1802
1753 1804
1753 1805
1753 1809
1753 1818
1753 1820
1753 1848
1753 1854
1753 1883
1753 1923
1753 1947
1753 1955
1753 1959
1753 1988
1753 1993
1753 1995
1753 2008
1753 2011
1753 2026
1753 2036
1753 2040
1753 2043
1753 2065
1753 2069
1753 2072
1753 2095
1753 2100
1753 2104
1753 2134
1753 2168
1753 2171
1753 2180
1753 2189
1753 2197
1753 2200
1753 2236
1753 2239
1754 1768
1754 1787
1754 1795
1754 1799
1754 1812
1754 1818
1754 1878
1754 2103
1754 2119
1754 2144
1754 2181
1754 2190
1754 2204
1754 2235
1754 2246
1755 1763
1755 1785
1755 1787
1755 1800
1755 1802
1755 1803
1755 1809
1755 1818
1755 1828
1755 1837
1755 1841
1755 1859
1755 1866
1755 1883
1755 1886
1755 1892
1755 1903
1755 1912
1755 1921
1755 1947
1755 1948
1755 1959
1755 1966
1755 1992
1755 2008
1755 2017
1755 2023
1755 2052
1755 2053
1755 2056
1755 2069
1755 2080
1755 2087
1755 2091
1755 2095
1755 2119
1755 2131
1755 2146
1755 2162
1755 2168
1755 2197
1755 2222
1755 2231
1756 1805
1756 1809
1756 1846
1756 1863
1756 1866
1756 1875
1756 1883
1756 1909
1756 1947
1756 1959
1756 2036
1756 2069
1756 2168
1756 2248
1757 1818
1758 1855
1758 1942
1759 1772
1759 1782
1759 1790
1759 1818
1759 1849
1759 1850
1759 1889
1759 1917
1759 1930
1759 1931
1759 1938
1759 1965
1759 1966
1759 1982
1759 1985
1759 1988
1759 1990
1759 1994
1759 2025
1759 2028
1759 2035
1759 2041
1759 2043
1759 2062
1759 2098
1759 2110
1759 2115
1759 2117
1759 2118
1759 2134
1759 2175
1759 2186
1759 2194
1759 2246
1760 1838
1760 2154
1761 1785
1761 1797
1761 1805
1761 1818
1761 1839
1761 1875
1761 1899
1761 1901
1761 1902
1761 1909
1761 1936
1761 1949
1761 1955
1761 1962
1761 1985
1761 2000
1761 2040
1761 2052
1761 2075
1761 2106
1761 2137
1761 2171
1761 2186
1761 2190
1761 2206
1761 2236
1762 1768
1762 1838
1762 1867
1762 1904
1762 1926
1762 1942
1762 2003
1762 2048
1762 2115
1762 2118
1762 2138
1762 2216
1763 1809
1763 1818
1763 1877
1763 1883
1763 1899
1763 1938
1763 2036
1763 2072
1763 2095
1763 2142
1763 2181
1763 2197
1763 2246
1764 1767
1764 1818
1764 1973
1764 2075
1764 2150
1765 1805
1765 1807
1765 1809
1765 1894
1765 1910
1765 1940
1765 1949
1765 1962
1765 1967
1765 2015
1765 2023
1765 2028
1765 2043
1765 2087
1765 2091
1765 2147
1765 2158
1765 2159
1765 2219
1765 2249
1766 2108
1766 2159
1766 2231
1767 1971
1767 2135
1767 2149
1768 1772
1768 1797
1768 1799
1768 1802
1768 1810
1768 1818
1768 1827
1768 1838
1768 1853
1768 1855
1768 1876
1768 1878
1768 1893
1768 1902
1768 1932
1768 1938
1768 1994
1768 1995
1768 2006
1768 2009
1768 2017
1768 2018
1768 2042
1768 2051
1768 2066
1768 2070
1768 2077
1768 2090
1768 2110
1768 2144
1768 2175
1768 2183
1768 2246
1769 1799
1769 1831
1769 1885
1769 1889
1769 1926
1769 1960
1769 1974
1769 1994
1769 2035
1769 2047
1769 2048
1769 2065
1769 2074
1769 2091
1769 2111
1769 2118
1769 2134
1769 2156
1769 2167
1769 2182
1769 2189
1769 2195
1769 2201
1769 2222
1770 1994
1770 2091
1771 1774
1771 1818
1771 1827
1771 1847
1771 1881
1771 1989
1771 2012
1771 2018
1771 2028
1771 2046
1771 2073
1771 2107
1771 2139
1771 2144
1771 2177
1771 2209
1772 1805
1772 1818
1772 1838
1772 1849
1772 1850
1772 1859
1772 1866
1772 1883
1772 1908
1772 1917
1772 1940
1772 1949
1772 1967
1772 1985
1772 1995
1772 2010
1772 2035
1772 2036
1772 2043
1772 2072
1772 2100
1772 2133
1772 2167
1772 2175
1772 2186
1772 2190
1772 2197
1772 2200
1772 2213
1772 2233
1772 2246
1773 1779
1773 1799
1773 1817
1773 1850
1773 1938
1773 2025
1773 2032
1773 2048
1773 2083
1773 2098
1773 2151
1773 2194
1774 1783
1774 1794
1774 1796
1774 1801
1774 1835
1774 1847
1774 1920
1774 1982
1774 2012
1774 2021
1774 2025
1774 2029
1774 2068
1774 2074
1774 2093
1774 2110
1774 2111
1774 2115
1774 2123
1774 2134
1774 2136
1774 2140
1774 2147
1774 2161
1774 2174
1774 2201
1774 2205
1774 2216
1774 2232
1775 1816
1775 1822
1775 1910
1775 2035
1775 2127
1775 2141
1775 2153
1775 2157
1775 2188
1775 2241
1776 1873
1777 2224
1778 1811
1778 1833
1778 1884
1778 1996
1778 2017
1778 2044
1778 2075
1778 2078
1778 2104
1778 2224
1778 2242
1779 1817
1779 1885
1779 1938
1779 1965
1779 2031
1779 2032
1779 2041
1779 2151
1779 2194
1780 2111
1780 2129
1780 2161
1781 2118
1781 2219
1781 2249
1782 1783
1782 1801
1782 1802
1782 1812
1782 1813
1782 1817
1782 1818
1782 1832
1782 1854
1782 1878
1782 1912
1782 1930
1782 1938
1782 1948
1782 1966
1782 1975
1782 1988
1782 1989
1782 2012
1782 2063
1782 2173
1782 2193
1783 1799
1783 1800
1783 1835
1783 1855
1783 1872
1783 1910
1783 1930
1783 1951
1783 1974
1783 1980
1783 1988
1783 1998
1783 2003
1783 2029
1783 2068
1783 2076
1783 2091
1783 2097
1783 2098
1783 2104
1783 2110
1783 2111
1783 2118
1783 2125
1783 2136
1783 2138
1783 2140
1783 2165
1783 2222
1783 2225
1783 2231
1784 1873
1784 1907
1784 1915
1784 2075
1784 2112
1784 2210
1784 2224
1784 2242
1785 1805
1785 1809
1785 1837
1785 1866
1785 1911
1785 1936
1785 2102
1785 2103
1785 2119
1785 2146
1785 2200
1785 2232
1787 1799
1787 1818
1787 1852
1787 1880
1787 1889
1787 1902
1787 1947
1787 1949
1787 1959
1787 1960
1787 1968
1787 2008
1787 2025
1787 2047
1787 2050
1787 2097
1787 2104
1787 2129
1787 2134
1787 2204
1787 2234
1787 2243
1787 2246
1788 1799
1788 1801
1788 1802
1788 1818
1788 1830
1788 1840
1788 1851
1788 1859
1788 1876
1788 1892
1788 1895
1788 1903
1788 1912
1788 1963
1788 1966
1788 1969
1788 1987
1788 1988
1788 2032
1788 2041
1788 2049
1788 2051
1788 2085
1788 2108
1788 2110
1788 2123
1788 2124
1788 2125
1788 2132
1788 2151
1788 2177
1788 2189
1789 1878
1790 1791
1790 1805
1790 1836
1790 1840
1790 1850
1790 1872
1790 1889
1790 1917
1790 1927
1790 1938
1790 1967
1790 1974
1790 1985
1790 2028
1790 2035
1790 2048
1790 2101
1790 2110
1790 2115
1790 2124
1790 2136
1790 2143
1790 2186
1790 2189
1790 2201
1791 1799
1791 1801
1791 1802
1791 1830
1791 1854
1791 1862
1791 1919
1791 1927
1791 1932
1791 1937
1791 1940
1791 1972
1791 2032
1791 2040
1791 2088
1791 2124
1791 2129
1791 2141
1791 2142
1791 2168
1791 2179
1791 2183
1791 2230
1792 1855
1792 1867
1792 2085
1792 2131
1792 2165
1792 2208
1792 2231
1793 2218
1793 2250
1794 1799
1794 1848
1794 1850
1794 1866
1794 1910
1794 1926
1794 1953
1794 1958
1794 2003
1794 2021
1794 2043
1794 2048
1794 2086
1794 2089
1794 2091
1794 2099
1794 2101
1794 2110
1794 2118
1794 2134
1794 2136
1794 2143
1794 2195
1794 2198
1794 2201
1794 2216
1795 1807
1795 1810
1795 1816
1795 1818
1795 1829
1795 1838
1795 1853
1795 1875
1795 1881
1795 1908
1795 1928
1795 1948
1795 1989
1795 2009
1795 2010
1795 2026
1795 2027
1795 2048
1795 2071
1795 2073
1795 2098
1795 2103
1795 2110
1795 2139
1795 2143
1795 2148
1795 2153
1795 2175
1795 2177
1795 2181
1795 2186
1795 2189
1795 2202
1795 2246
1796 1813
1796 1826
1796 1831
1796 1835
1796 1844
1796 1881
1796 1937
1796 1950
1796 1972
1796 1974
1796 1981
1796 1982
1796 1983
1796 1988
1796 2009
1796 2012
1796 2081
1796 2085
1796 2091
1796 2117
1796 2136
1796 2147
1796 2148
1796 2153
1797 1805
1797 1822
1797 1853
1797 1883
1797 1893
1797 1899
1797 1901
1797 1902
1797 1909
1797 1940
1797 1944
1797 1959
1797 1962
1797 1995
1797 2037
1797 2066
1797 2100
1797 2104
1797 2157
1797 2171
1797 2200
1797 2206
1797 2248
1799 1801
1799 1802
1799 1818
1799 1830
1799 1831
1799 1837
1799 1838
1799 1840
1799 1850
1799 1852
1799 1853
1799 1862
1799 1865
1799 1885
1799 1887
1799 1889
1799 1892
1799 1895
1799 1919
1799 1928
1799 1930
1799 1934
1799 1937
1799 1938
1799 1947
1799 1949
1799 1950
1799 1960
1799 1961
1799 1962
1799 1963
1799 1966
1799 1969
1799 1973
1799 1988
1799 1994
1799 1995
1799 2003
1799 2008
1799 2012
1799 2022
1799 2025
1799 2035
1799 2041
1799 2047
1799 2067
1799 2074
1799 2083
1799 2086
1799 2088
1799 2089
1799 2096
1799 2097
1799 2098
1799 2099
1799 2100
1799 2110
1799 2115
1799 2118
1799 2119
1799 2120
1799 2123
1799 2124
1799 2129
1799 2134
1799 2145
1799 2153
1799 2154
1799 2169
1799 2170
1799 2175
1799 2179
1799 2183
1799 2189
1799 2190
1799 2204
1799 2212
1799 2228
1799 2230
1799 2235
1799 2246
1799 2250
1800 1802
1800 1818
1800 1820
1800 1838
1800 1847
1800 1853
1800 1858
1800 1859
1800 1878
1800 1892
1800 1903
1800 1928
1800 1989
1800 2010
1800 2022
1800 2023
1800 2050
1800 2051
1800 2085
1800 2104
1800 2139
1800 2189
1800 2191
1800 2197
1800 2204
1800 2232
1800 2235
1801 1822
1801 1830
1801 1836
1801 1840
1801 1854
1801 1889
1801 1919
1801 1927
1801 1930
1801 1932
1801 1937
1801 1966
1801 1972
1801 1983
1801 2003
1801 2010
1801 2020
1801 2038
1801 2047
1801 2089
1801 2096
1801 2110
1801 2115
1801 2124
1801 2134
1801 2141
1801 2179
1802 1803
1802 1806
1802 1810
1802 1812
1802 1818
1802 1832
1802 1836
1802 1840
1802 1853
1802 1854
1802 1858
1802 1863
1802 1878
1802 1887
1802 1890
1802 1891
1802 1892
1802 1893
1802 1898
1802 1902
1802 1903
1802 1906
1802 1912
1802 1919
1802 1923
1802 1928
1802 1930
1802 1934
1802 1948
1802 1955
1802 1962
1802 1963
1802 1968
1802 1969
1802 1975
1802 1988
1802 1989
1802 1995
1802 2006
1802 2009
1802 2010
1802 2020
1802 2022
1802 2038
1802 2040
1802 2041
1802 2042
1802 2050
1802 2072
1802 2078
1802 2083
1802 2088
1802 2095
1802 2098
1802 2099
1802 2104
1802 2120
1802 2124
1802 2129
1802 2134
1802 2139
1802 2151
1802 2153
1802 2155
1802 2168
1802 2169
1802 2181
1802 2183
1802 2189
1802 2191
1802 2203
1802 2204
1802 2206
1802 2230
1802 2232
1802 2248
1803 1806
1803 1818
1803 1829
1803 1859
1803 1878
1803 1881
1803 1890
1803 1892
1803 1898
1803 1903
1803 1912
1803 1930
1803 1965
1803 1975
1803 2006
1803 2018
1803 2080
1803 2089
1803 2099
1803 2120
1803 2144
1803 2177
1803 2195
1803 2197
1803 2203
1803 2204
1803 2222
1804 1805
1804 1817
1804 1890
1804 1947
1804 1955
1804 1988
1804 2011
1804 2072
1804 2080
1804 2153
1804 2168
1804 2225
1805 1809
1805 1837
1805 1838
1805 1849
1805 1850
1805 1883
1805 1909
1805 1911
1805 1916
1805 1940
1805 1947
1805 1949
1805 1955
1805 1967
1805 1974
1805 1985
1805 1993
1805 1995
1805 2001
1805 2008
1805 2011
1805 2028
1805 2036
1805 2037
1805 2040
1805 2043
1805 2065
1805 2095
1805 2100
1805 2121
1805 2156
1805 2168
1805 2171
1805 2186
1805 2190
1805 2196
1805 2197
1805 2206
1805 2233
1805 2248
1806 1832
1806 1845
1806 1853
1806 1854
1806 1878
1806 1895
1806 1916
1806 1924
1806 1927
1806 1928
1806 1931
1806 1948
1806 2006
1806 2038
1806 2063
1806 2083
1806 2088
1806 2145
1806 2183
1807 1859
1807 1903
1807 1959
1807 1960
1807 1974
1807 2004
1807 2033
1807 2074
1807 2077
1807 2085
1807 2099
1807 2102
1807 2128
1807 2156
1807 2195
1807 2198
1807 2222
1808 1841
1808 1903
1808 1908
1808 1915
1808 1973
1808 2005
1808 2178
1808 2240
1809 1818
1809 1837
1809 1847
1809 1848
1809 1863
1809 1866
1809 1867
1809 1883
1809 1909
1809 1940
1809 1947
1809 1959
1809 1962
1809 1992
1809 1995
1809 2010
1809 2026
1809 2042
1809 2043
1809 2052
1809 2053
1809 2065
1809 2069
1809 2070
1809 2087
1809 2095
1809 2098
1809 2100
1809 2146
1809 2160
1809 2190
1809 2197
1809 2206
1809 2248
1810 1812
1810 1818
1810 1887
1810 1948
1810 2042
1810 2095
1810 2103
1810 2124
1810 2139
1810 2141
1810 2169
1810 2181
1811 1971
1811 2196
1811 2224
1811 2238
1812 1818
1812 1853
1812 1928
1812 1948
1812 1975
1812 2006
1812 2020
1812 2063
1812 2070
1812 2088
1812 2153
1812 2155
1812 2177
1812 2181
1812 2183
1812 2193
1812 2234
1813 1818
1813 1824
1813 1863
1813 1875
1813 1879
1813 1894
1813 1916
1813 1930
1813 1944
1813 1962
1813 1981
1813 1990
1813 2003
1813 2005
1813 2009
1813 2012
1813 2017
1813 2044
1813 2052
1813 2065
1813 2075
1813 2078
1813 2081
1813 2082
1813 2091
1813 2133
1813 2137
1813 2148
1813 2167
1813 2173
1813 2193
1814 1839
1814 1945
1814 1986
1814 2028
1814 2106
1814 2113
1814 2130
1816 1858
1816 1910
1816 1975
1816 1989
1816 2006
1816 2100
1816 2104
1816 2127
1816 2185
1816 2188
1816 2200
1816 2235
1817 1832
1817 1890
1817 1912
1817 1930
1817 1938
1817 1956
1817 1969
1817 1972
1817 1982
1817 1988
1817 1990
1817 2032
1817 2034
1817 2041
1817 2079
1817 2080
1817 2083
1817 2115
1817 2117
1817 2131
1817 2151
1817 2153
1817 2165
1817 2193
1817 2194
1817 2198
1817 2225
1818 1827
1818 1829
1818 1833
1818 1836
1818 1837
1818 1838
1818 1847
1818 1848
1818 1853
1818 1855
1818 1858
1818 1859
1818 1862
1818 1863
1818 1866
1818 1875
1818 1876
1818 1877
1818 1878
1818 1880
1818 1881
1818 1883
1818 1886
1818 1893
1818 1894
1818 1904
1818 1908
1818 1910
1818 1911
1818 1923
1818 1928
1818 1930
1818 1934
1818 1938
1818 1939
1818 1940
1818 1944
1818 1948
1818 1951
1818 1959
1818 1962
1818 1963
1818 1974
1818 1975
1818 1982
1818 1987
1818 1992
1818 1995
1818 2003
1818 2006
1818 2008
1818 2009
1818 2010
1818 2012
1818 2015
1818 2018
1818 2020
1818 2022
1818 2023
1818 2026
1818 2036
1818 2041
1818 2042
1818 2043
1818 2050
1818 2051
1818 2052
1818 2053
1818 2056
1818 2063
1818 2066
1818 2069
1818 2072
1818 2076
1818 2077
1818 2081
1818 2087
1818 2088
1818 2090
1818 2095
1818 2099
1818 2103
1818 2104
1818 2107
1818 2108
1818 2117
1818 2118
1818 2119
1818 2120
1818 2121
1818 2127
1818 2129
1818 2133
1818 2134
1818 2137
1818 2139
1818 2141
1818 2142
1818 2144
1818 2146
1818 2147
1818 2148
1818 2153
1818 2159
1818 2165
1818 2166
1818 2167
1818 2168
1818 2169
1818 2170
1818 2173
1818 2174
1818 2175
1818 2177
1818 2181
1818 2183
1818 2184
1818 2185
1818 2186
1818 2190
1818 2191
1818 2193
1818 2194
1818 2197
1818 2202
1818 2204
1818 2206
1818 2209
1818 2232
1818 2235
1818 2246
1819 1837
1819 1952
1819 1964
1819 1981
1819 2158
1820 1838
1820 1847
1820 1858
1820 1878
1820 1975
1820 1989
1820 2022
1820 2026
1820 2050
1820 2104
1820 2139
1820 2232
1821 1833
1821 1884
1821 1907
1821 1915
1821 2045
1821 2075
1821 2105
1821 2106
1821 2130
1821 2180
1821 2210
1821 2227
1822 1926
1822 1983
1822 2031
1822 2094
1822 2096
1822 2100
1822 2111
1822 2115
1822 2116
1822 2127
1822 2157
1822 2185
1822 2188
1822 2189
1822 2200
1823 2060
1823 2075
1824 1828
1824 1894
1824 1896
1824 1909
1824 1916
1824 1922
1824 1936
1824 1942
1824 1947
1824 1949
1824 1955
1824 1959
1824 2003
1824 2069
1824 2118
1824 2160
1824 2162
1824 2171
1824 2187
1824 2202
1824 2236
1824 2246
1824 2249
1825 1829
1825 1854
1825 1891
1825 1969
1825 2027
1825 2048
1825 2089
1825 2092
1825 2118
1825 2142
1825 2143
1825 2198
1825 2243
1826 1903
1826 1935
1826 2029
1826 2097
1826 2188
1826 2241
1827 1849
1827 1878
1827 1880
1827 1911
1827 1975
1827 2043
1827 2046
1827 2051
1827 2073
1827 2107
1827 2108
1827 2176
1827 2177
1827 2186
1827 2208
1828 1892
1828 1936
1828 1942
1828 1946
1828 1987
1828 2064
1828 2069
1828 2090
1828 2132
1828 2162
1828 2197
1828 2248
1829 1903
1829 1908
1829 1920
1829 1960
1829 2027
1829 2074
1829 2089
1829 2098
1830 1836
1830 1889
1830 1919
1830 2047
1830 2086
1830 2134
1830 2153
1831 1842
1831 1889
1831 1892
1831 1920
1831 2047
1831 2091
1831 2099
1831 2118
1831 2123
1831 2205
1832 1853
1832 1854
1832 1895
1832 1902
1832 1937
1832 1989
1832 2006
1832 2020
1832 2038
1832 2040
1832 2063
1832 2145
1832 2153
1832 2155
1832 2168
1832 2169
1832 2183
1832 2193
1832 2230
1832 2233
1833 1841
1833 1873
1833 1907
1833 1921
1833 1933
1833 1945
1833 1946
1833 1973
1833 2014
1833 2057
1833 2106
1833 2122
1833 2130
1833 2164
1833 2180
1833 2184
1833 2207
1833 2211
1833 2223
1833 2237
1833 2238
1833 2244
1834 1943
1834 1944
1834 2039
1834 2075
1834 2106
1834 2178
1835 1855
1835 1863
1835 1876
1835 1927
1835 1982
1835 1990
1835 1994
1835 2069
1835 2117
1835 2118
1835 2121
1835 2133
1835 2148
1835 2194
1836 1872
1836 1887
1836 1895
1836 1919
1836 1923
1836 1924
1836 1928
1836 1937
1836 1972
1836 1983
1836 2006
1836 2041
1836 2062
1836 2080
1836 2139
1836 2141
1836 2169
1836 2189
1837 1847
1837 1866
1837 1875
1837 1883
1837 1886
1837 1902
1837 1936
1837 1940
1837 1949
1837 1959
1837 1960
1837 1992
1837 1993
1837 1998
1837 2001
1837 2010
1837 2028
1837 2052
1837 2056
1837 2065
1837 2069
1837 2087
1837 2091
1837 2137
1837 2146
1837 2165
1837 2171
1837 2175
1837 2186
1837 2187
1837 2190
1837 2197
1837 2202
1838 1847
1838 1858
1838 1867
1838 1880
1838 1881
1838 1883
1838 1885
1838 1904
1838 1942
1838 1975
1838 1985
1838 2003
1838 2010
1838 2018
1838 2026
1838 2028
1838 2043
1838 2050
1838 2051
1838 2069
1838 2091
1838 2104
1838 2127
1838 2144
1838 2145
1838 2153
1838 2176
1838 2177
1838 2186
1838 2232
1838 2235
1839 1900
1839 2075
1839 2113
1839 2196
1839 2223
1839 2239
1840 1853
1840 1872
1840 1895
1840 1927
1840 1963
1840 1969
1840 1977
1840 2020
1840 2034
1840 2070
1840 2088
1840 2124
1840 2125
1840 2153
1840 2183
1840 2189
1840 2228
1840 2230
1841 1866
1841 1873
1841 1884
1841 1945
1841 1967
1841 1996
1841 2014
1841 2039
1841 2044
1841 2210
1841 2211
1842 1910
1842 1994
1842 2003
1842 2012
1842 2099
1842 2147
1842 2182
1844 1851
1844 2031
1845 1931
1845 2025
1845 2098
1845 2145
1846 1860
1846 1863
1846 1883
1846 1917
1846 1949
1846 1955
1846 1959
1846 2043
1846 2052
1846 2069
1846 2072
1846 2117
1846 2233
1847 1866
1847 1890
1847 1992
1847 2010
1847 2023
1847 2056
1847 2069
1847 2087
1847 2104
1847 2168
1847 2190
1847 2232
1848 1866
1848 1877
1848 1883
1848 1899
1848 1901
1848 1902
1848 1904
1848 1910
1848 1916
1848 1947
1848 1992
1848 1995
1848 2036
1848 2042
1848 2066
1848 2090
1848 2091
1848 2100
1848 2190
1848 2206
1848 2234
1849 1867
1849 1912
1849 1917
1849 1932
1849 1938
1849 1965
1849 1972
1849 1982
1849 1985
1849 2008
1849 2035
1849 2055
1849 2099
1849 2110
1849 2123
1849 2134
1849 2143
1849 2194
1849 2203
1849 2233
1849 2234
1850 1874
1850 1889
1850 1891
1850 1917
1850 1926
1850 1958
1850 1967
1850 1985
1850 2028
1850 2035
1850 2043
1850 2047
1850 2048
1850 2089
1850 2098
1850 2099
1850 2101
1850 2103
1850 2110
1850 2115
1850 2134
1850 2136
1850 2186
1850 2189
1850 2195
1850 2201
1850 2216
1851 2031
1851 2047
1851 2067
1851 2125
1851 2143
1852 1858
1852 1880
1852 1885
1852 1903
1852 1942
1852 1947
1852 1949
1852 1960
1852 1994
1852 2011
1852 2025
1852 2033
1852 2050
1852 2071
1852 2074
1852 2156
1852 2160
1852 2165
1852 2216
1852 2222
1852 2243
1852 2246
1853 1878
1853 1893
1853 1899
1853 1902
1853 1928
1853 1938
1853 1940
1853 1948
1853 1963
1853 1969
1853 1975
1853 1977
1853 1992
1853 2006
1853 2009
1853 2020
1853 2026
1853 2042
1853 2051
1853 2070
1853 2127
1853 2129
1853 2141
1853 2142
1853 2144
1853 2153
1853 2175
1853 2183
1853 2206
1853 2209
1853 2230
1853 2232
1854 1927
1854 1969
1854 2038
1854 2063
1854 2125
1854 2142
1854 2145
1854 2153
1854 2193
1855 1875
1855 1904
1855 1910
1855 1951
1855 1957
1855 1982
1855 1990
1855 2012
1855 2052
1855 2069
1855 2071
1855 2073
1855 2126
1856 2204
1858 1880
1858 2010
1858 2022
1858 2043
1858 2050
1858 2104
1858 2139
1858 2156
1858 2191
1858 2200
1858 2232
1858 2235
1859 1866
1859 1888
1859 1892
1859 1903
1859 1912
1859 1949
1859 1952
1859 1968
1859 1969
1859 1987
1859 2014
1859 2018
1859 2033
1859 2041
1859 2046
1859 2049
1859 2055
1859 2077
1859 2085
1859 2089
1859 2098
1859 2110
1859 2115
1859 2131
1859 2132
1859 2156
1859 2167
1859 2177
1859 2197
1859 2203
1859 2222
1860 1863
1860 1916
1860 1955
1860 1962
1860 2072
1862 1878
1862 1932
1862 1969
1862 1975
1862 1990
1862 2248
1863 1875
1863 1883
1863 1917
1863 1949
1863 1955
1863 1993
1863 1995
1863 2043
1863 2052
1863 2065
1863 2072
1863 2121
1863 2133
1863 2148
1863 2202
1863 2231
1863 2233
1863 2236
1864 1947
1864 1955
1864 2104
1864 2246
1865 1949
1865 1955
1865 2001
1865 2023
1865 2160
1865 2169
1865 2175
1865 2195
1865 2197
1865 2231
1865 2233
1865 2248
1865 2249
1866 1883
1866 1901
1866 1908
1866 1923
1866 1936
1866 1947
1866 1967
1866 1992
1866 2010
1866 2027
1866 2036
1866 2056
1866 2066
1866 2072
1866 2087
1866 2089
1866 2100
1866 2139
1866 2166
1866 2167
1866 2197
1866 2202
1867 1904
1867 1926
1867 1931
1867 1938
1867 1952
1867 2012
1867 2140
1867 2174
1868 1879
1868 1945
1868 1973
1868 2045
1868 2082
1869 1875
1869 1949
1869 1967
1869 2197
1869 2202
1869 2233
1870 1952
1870 1964
1870 1979
1870 2015
1870 2052
1870 2099
1870 2154
1870 2158
1870 2161
1870 2188
1870 2231
1870 2236
1871 1934
1871 1952
1871 1974
1871 1994
1871 2012
1871 2090
1871 2104
1872 1889
1872 1927
1872 1969
1872 1977
1872 2070
1872 2189
1873 1907
1873 1973
1873 2045
1873 2075
1873 2082
1873 2238
1874 1926
1874 1958
1874 2099
1874 2182
1874 2195
1875 1883
1875 1901
1875 1904
1875 1915
1875 1916
1875 1922
1875 1936
1875 1949
1875 1962
1875 1984
1875 1992
1875 2037
1875 2043
1875 2064
1875 2065
1875 2071
1875 2107
1875 2121
1875 2166
1875 2168
1875 2171
1875 2195
1875 2196
1875 2201
1875 2223
1875 2236
1875 2249
1876 1935
1876 1990
1876 1994
1876 2009
1876 2029
1876 2091
1876 2117
1876 2148
1877 1886
1877 2036
1877 2042
1877 2109
1877 2137
1877 2190
1878 1881
1878 1904
1878 1911
1878 1930
1878 1934
1878 1969
1878 1975
1878 1989
1878 2009
1878 2018
1878 2020
1878 2022
1878 2025
1878 2066
1878 2070
1878 2104
1878 2107
1878 2127
1878 2139
1878 2144
1878 2145
1878 2175
1878 2176
1878 2177
1878 2181
1878 2193
1878 2219
1878 2235
1879 2078
1879 2082
1879 2244
1880 1902
1880 1911
1880 1934
1880 1947
1880 1949
1880 1955
1880 1975
1880 1994
1880 2008
1880 2026
1880 2104
1880 2127
1880 2153
1880 2176
1880 2177
1880 2231
1880 2243
1880 2246
1881 1920
1881 1932
1881 1975
1881 1988
1881 2006
1881 2012
1881 2018
1881 2068
1881 2103
1881 2104
1881 2107
1881 2144
1881 2147
1881 2153
1881 2175
1881 2177
1881 2186
1881 2209
1881 2246
1883 1901
1883 1902
1883 1909
1883 1929
1883 1947
1883 1955
1883 1959
1883 1992
1883 1993
1883 1995
1883 2011
1883 2036
1883 2037
1883 2066
1883 2069
1883 2072
1883 2087
1883 2089
1883 2091
1883 2095
1883 2109
1883 2162
1883 2168
1883 2190
1883 2197
1883 2206
1883 2233
1883 2248
1884 1907
1884 1933
1884 1973
1884 1999
1884 2014
1884 2054
1884 2063
1884 2078
1884 2105
1884 2112
1884 2221
1884 2223
1884 2227
1884 2238
1884 2242
1885 1889
1885 1960
1885 1972
1885 1974
1885 2012
1885 2074
1885 2095
1885 2115
1885 2124
1885 2134
1885 2156
1885 2165
1885 2174
1885 2195
1885 2201
1885 2222
1885 2232
1886 1948
1886 2006
1886 2052
1886 2087
1886 2146
1887 2020
1887 2124
1888 1891
1888 1898
1888 1902
1888 1938
1888 2083
1888 2098
1888 2129
1888 2139
1888 2146
1889 1898
1889 1927
1889 1966
1889 2031
1889 2035
1889 2041
1889 2047
1889 2086
1889 2089
1889 2094
1889 2096
1889 2110
1889 2115
1889 2134
1889 2189
1890 1898
1890 1903
1890 1912
1890 1934
1890 1947
1890 1949
1890 1975
1890 1987
1890 1988
1890 2008
1890 2026
1890 2034
1890 2069
1890 2080
1890 2139
1890 2183
1890 2197
1890 2222
1890 2225
1890 2232
1890 2248
1891 1969
1891 2016
1891 2048
1891 2101
1891 2103
1891 2118
1891 2127
1891 2136
1891 2143
1891 2148
1891 2165
1891 2182
1891 2203
1891 2204
1891 2235
1892 1903
1892 1912
1892 1950
1892 1960
1892 1966
1892 1974
1892 1987
1892 1994
1892 2012
1892 2018
1892 2026
1892 2035
1892 2074
1892 2085
1892 2089
1892 2094
1892 2110
1892 2116
1892 2123
1892 2153
1892 2162
1892 2177
1892 2189
1892 2197
1892 2222
1892 2234
1893 1975
1893 1989
1893 2009
1893 2070
1893 2107
1893 2177
1893 2181
1894 1911
1894 1916
1894 1922
1894 1940
1894 1942
1894 2003
1894 2036
1894 2065
1894 2069
1894 2087
1894 2137
1894 2148
1894 2160
1894 2185
1894 2187
1894 2236
1895 1927
1895 1931
1895 1937
1895 1966
1895 2020
1895 2053
1895 2063
1895 2116
1895 2125
1895 2143
1895 2145
1895 2183
1896 1904
1896 1936
1896 1962
1896 2043
1896 2190
1896 2206
1898 1912
1898 1968
1898 1988
1898 2038
1898 2097
1898 2098
1898 2120
1898 2134
1898 2174
1899 1901
1899 1902
1899 1923
1899 1938
1899 1959
1899 1977
1899 1995
1899 2040
1899 2042
1899 2066
1899 2100
1899 2142
1899 2171
1899 2175
1899 2206
1899 2246
1899 2248
1900 1944
1900 2128
1900 2149
1900 2223
1900 2233
1901 1902
1901 1908
1901 1909
1901 1995
1901 2037
1901 2040
1901 2065
1901 2069
1901 2168
1901 2171
1901 2202
1901 2206
1901 2231
1901 2248
1902 1904
1902 1923
1902 1932
1902 1936
1902 1937
1902 1940
1902 1947
1902 1959
1902 1962
1902 1995
1902 2037
1902 2040
1902 2042
1902 2043
1902 2065
1902 2069
1902 2088
1902 2100
1902 2129
1902 2168
1902 2169
1902 2171
1902 2190
1902 2206
1902 2248
1903 1912
1903 1921
1903 1948
1903 1985
1903 1987
1903 2018
1903 2023
1903 2026
1903 2035
1903 2049
1903 2055
1903 2077
1903 2080
1903 2085
1903 2089
1903 2091
1903 2131
1903 2132
1903 2157
1903 2162
1903 2177
1903 2197
1903 2203
1903 2222
1903 2234
1904 1916
1904 1926
1904 1934
1904 1962
1904 1975
1904 2100
1904 2161
1904 2166
1904 2206
1905 2015
1906 1937
1906 1938
1906 2083
1906 2179
1906 2216
1906 2234
1907 1933
1907 1973
1907 2063
1907 2075
1907 2106
1907 2112
1907 2178
1907 2184
1907 2210
1907 2217
1907 2224
1907 2227
1907 2244
1908 1934
1908 1973
1908 2005
1908 2010
1908 2051
1908 2072
1908 2089
1908 2104
1908 2108
1908 2121
1908 2127
1908 2167
1908 2176
1908 2178
1908 2202
1908 2227
1908 2231
1908 2240
1909 1940
1909 2017
1909 2037
1909 2069
1909 2087
1909 2160
1909 2206
1909 2233
1910 1951
1910 1962
1910 1964
1910 1974
1910 2043
1910 2048
1910 2086
1910 2091
1910 2099
1910 2100
1910 2110
1910 2118
1910 2147
1910 2185
1910 2188
1910 2200
1911 1934
1911 1952
1911 1987
1911 1992
1911 2003
1911 2015
1911 2033
1911 2043
1911 2046
1911 2050
1911 2065
1911 2076
1911 2091
1911 2098
1911 2108
1911 2110
1911 2115
1911 2120
1911 2126
1911 2140
1911 2146
1911 2159
1911 2174
1911 2176
1911 2177
1911 2204
1911 2209
1911 2216
1911 2231
1911 2232
1911 2235
1912 1930
1912 1938
1912 1941
1912 1968
1912 1972
1912 1987
1912 2006
1912 2038
1912 2099
1912 2162
1912 2248
1913 1996
1913 2017
1913 2060
1914 1935
1915 1933
1915 1944
1915 1963
1915 1977
1915 2045
1915 2064
1915 2070
1915 2075
1915 2105
1915 2130
1915 2221
1915 2227
1915 2238
1916 1922
1916 1924
1916 1955
1916 1962
1916 1995
1916 2036
1916 2064
1916 2066
1916 2069
1916 2100
1916 2121
1916 2145
1916 2146
1916 2160
1916 2236
1917 1965
1917 1967
1917 1985
1917 1995
1917 2042
1917 2043
1917 2052
1917 2066
1917 2069
1917 2078
1917 2090
1917 2100
1917 2117
1917 2121
1917 2233
1919 1972
1919 2124
1920 1974
1920 2016
1920 2027
1920 2028
1920 2043
1920 2051
1920 2068
1920 2085
1920 2147
1920 2165
1920 2231
1920 2246
1921 1933
1921 1945
1921 1971
1921 1973
1921 1987
1921 2014
1921 2017
1921 2075
1921 2184
1921 2237
1921 2242
1922 1962
1922 2171
1923 1928
1923 1929
1923 1962
1923 1967
1923 1995
1923 2006
1923 2036
1923 2042
1923 2065
1923 2066
1923 2087
1923 2095
1923 2099
1923 2100
1923 2109
1923 2124
1923 2155
1923 2169
1923 2230
1923 2248
1924 1928
1924 1931
1924 1948
1924 1963
1924 2063
1924 2070
1924 2145
1924 2153
1924 2177
1924 2179
1924 2183
1924 2193
1925 1936
1925 2001
1925 2069
1925 2185
1925 2187
1925 2236
1926 1949
1926 2016
1926 2035
1926 2089
1926 2118
1926 2182
1926 2188
1926 2189
1926 2195
1927 1931
1927 2065
1927 2125
1927 2145
1927 2146
1927 2179
1928 1931
1928 1934
1928 1963
1928 1969
1928 2006
1928 2020
1928 2031
1928 2063
1928 2088
1928 2103
1928 2117
1928 2141
1928 2145
1928 2153
1928 2179
1928 2181
1928 2183
1928 2193
1928 2232
1928 2235
1929 1953
1929 2010
1929 2022
1929 2036
1929 2037
1929 2040
1929 2083
1929 2100
1929 2104
1929 2185
1929 2213
1930 1965
1930 1968
1930 1975
1930 1982
1930 1988
1930 1990
1930 2012
1930 2034
1930 2038
1930 2063
1930 2081
1930 2153
1930 2173
1930 2193
1930 2194
1931 1938
1931 1948
1931 2063
1931 2129
1931 2134
1931 2145
1931 2157
1931 2170
1931 2208
1932 2012
1932 2040
1932 2064
1932 2079
1932 2124
1932 2147
1932 2153
1932 2168
1932 2183
1932 2189
1932 2228
1932 2234
1933 2061
1933 2232
1933 2247
1934 1975
1934 2022
1934 2025
1934 2043
1934 2065
1934 2104
1934 2108
1934 2127
1934 2140
1934 2175
1934 2231
1934 2235
1934 2246
1935 1994
1935 2029
1935 2241
1936 1949
1936 1951
1936 1958
1936 1959
1936 2043
1936 2069
1936 2100
1936 2137
1936 2160
1936 2171
1936 2175
1936 2185
1937 1940
1937 1947
1937 1962
1937 1966
1937 1972
1937 1983
1937 2040
1937 2094
1937 2116
1937 2124
1937 2141
1937 2179
1937 2248
1938 1965
1938 1966
1938 1972
1938 1982
1938 1988
1938 2006
1938 2020
1938 2031
1938 2032
1938 2035
1938 2038
1938 2041
1938 2083
1938 2098
1938 2100
1938 2110
1938 2115
1938 2142
1938 2147
1938 2153
1938 2175
1938 2192
1938 2194
1938 2234
1938 2246
1939 1980
1939 2036
1939 2051
1939 2139
1939 2144
1940 1947
1940 1949
1940 1975
1940 1992
1940 1995
1940 2008
1940 2023
1940 2026
1940 2040
1940 2064
1940 2087
1940 2088
1940 2100
1940 2119
1940 2146
1940 2152
1940 2168
1940 2171
1940 2197
1941 2038
1941 2248
1942 1999
1942 2011
1942 2052
1942 2069
1942 2160
1942 2249
1943 2000
1943 2002
1943 2017
1943 2039
1943 2054
1943 2106
1943 2227
1943 2242
1943 2247
1944 2017
1944 2238
1945 1946
1945 1973
1945 2045
1945 2075
1945 2082
1945 2122
1945 2211
1945 2237
1945 2242
1946 2014
1946 2075
1946 2171
1946 2178
1946 2206
1946 2211
1946 2237
1947 1949
1947 1959
1947 1962
1947 1995
1947 2008
1947 2040
1947 2095
1947 2153
1947 2162
1947 2168
1947 2173
1947 2206
1947 2233
1947 2246
1947 2248
1948 1989
1948 2006
1948 2009
1948 2010
1948 2038
1948 2051
1948 2091
1948 2103
1948 2104
1948 2117
1948 2145
1948 2153
1948 2175
1948 2181
1948 2183
1948 2197
1948 2222
1948 2248
1949 1955
1949 1959
1949 1962
1949 1993
1949 1995
1949 2001
1949 2008
1949 2011
1949 2035
1949 2037
1949 2055
1949 2065
1949 2072
1949 2100
1949 2119
1949 2156
1949 2162
1949 2175
1949 2187
1949 2190
1949 2195
1949 2197
1949 2200
1949 2202
1949 2246
1949 2248
1950 1983
1950 2006
1950 2068
1950 2079
1950 2089
1950 2115
1951 1994
1951 2089
1952 1964
1952 1981
1952 2012
1952 2085
1952 2158
1952 2193
1952 2205
1952 2236
1953 2021
1953 2048
1953 2083
1953 2143
1955 1993
1955 2011
1955 2036
1955 2040
1955 2072
1955 2076
1955 2104
1955 2118
1955 2119
1955 2190
1955 2200
1956 1969
1956 1988
1956 2124
1956 2126
1956 2170
1956 2179
1956 2225
1957 2195
1958 2015
1958 2043
1958 2099
1958 2136
1958 2195
1958 2201
1958 2216
1959 1995
1959 2008
1959 2036
1959 2037
1959 2046
1959 2095
1959 2100
1959 2139
1959 2160
1959 2171
1959 2175
1959 2189
1959 2197
1959 2206
1959 2233
1959 2245
1959 2246
1960 1974
1960 1994
1960 2047
1960 2050
1960 2074
1960 2077
1960 2118
1960 2123
1960 2134
1960 2156
1960 2195
1960 2222
1960 2246
1961 2031
1962 1967
1962 1969
1962 2008
1962 2011
1962 2022
1962 2036
1962 2037
1962 2041
1962 2062
1962 2064
1962 2065
1962 2072
1962 2104
1962 2129
1962 2140
1962 2160
1962 2171
1962 2185
1962 2190
1962 2206
1962 2233
1962 2249
1963 1969
1963 1977
1963 2006
1963 2020
1963 2034
1963 2070
1963 2088
1963 2124
1963 2153
1963 2183
1963 2230
1964 1981
1964 2004
1964 2015
1964 2018
1964 2029
1964 2099
1964 2131
1964 2157
1964 2158
1964 2188
1964 2195
1964 2236
1965 1982
1965 2012
1965 2018
1965 2098
1965 2117
1965 2118
1965 2194
1965 2198
1966 1972
1966 1974
1966 1982
1966 1994
1966 2012
1966 2089
1966 2110
1966 2115
1966 2134
1966 2151
1966 2153
1966 2179
1966 2189
1966 2193
1966 2194
1967 1985
1967 2028
1967 2035
1967 2036
1967 2043
1967 2109
1967 2186
1968 2003
1968 2038
1968 2097
1968 2234
1969 1975
1969 1977
1969 2006
1969 2020
1969 2027
1969 2034
1969 2038
1969 2070
1969 2074
1969 2083
1969 2088
1969 2092
1969 2099
1969 2118
1969 2142
1969 2151
1969 2153
1969 2183
1969 2189
1969 2203
1969 2228
1969 2230
1970 2024
1970 2035
1971 2017
1971 2054
1971 2075
1971 2082
1971 2178
1971 2184
1971 2221
1971 2223
1971 2238
1971 2244
1972 1983
1972 2012
1972 2062
1972 2096
1972 2129
1972 2141
1972 2151
1972 2248
1973 1996
1973 2005
1973 2045
1973 2082
1973 2130
1973 2178
1973 2184
1973 2211
1973 2226
1973 2227
1973 2238
1974 1990
1974 2012
1974 2016
1974 2028
1974 2029
1974 2035
1974 2068
1974 2085
1974 2089
1974 2091
1974 2115
1974 2123
1974 2189
1974 2192
1974 2231
1975 1989
1975 2006
1975 2009
1975 2018
1975 2022
1975 2025
1975 2026
1975 2034
1975 2043
1975 2047
1975 2070
1975 2104
1975 2119
1975 2127
1975 2139
1975 2144
1975 2145
1975 2153
1975 2177
1975 2193
1975 2209
1975 2235
1975 2246
1976 2098
1976 2110
1977 2042
1977 2066
1977 2070
1977 2153
1977 2169
1977 2213
1977 2230
1977 2248
1978 2013
1978 2060
1978 2061
1978 2207
1978 2217
1979 2087
1979 2102
1979 2159
1979 2174
1980 2043
1980 2159
1980 2174
1980 2189
1980 2231
1981 2012
1981 2158
1981 2205
1982 1990
1982 1994
1982 2091
1982 2117
1982 2142
1982 2194
1982 2195
1983 1994
1983 2062
1983 2115
1983 2141
1983 2179
1984 2202
1985 2028
1985 2035
1985 2043
1985 2051
1985 2069
1985 2102
1985 2110
1985 2144
1985 2156
1985 2161
1985 2176
1985 2186
1986 2058
1987 2014
1987 2035
1987 2080
1987 2106
1987 2131
1987 2132
1987 2162
1987 2171
1987 2174
1987 2177
1987 2180
1987 2186
1987 2248
1988 2003
1988 2012
1988 2031
1988 2032
1988 2034
1988 2076
1988 2080
1988 2083
1988 2101
1988 2118
1988 2153
1988 2165
1988 2177
1988 2194
1988 2225
1988 2230
1989 2018
1989 2042
1989 2103
1989 2104
1989 2107
1989 2117
1989 2139
1989 2143
1989 2191
1989 2235
1990 2012
1990 2091
1990 2194
1990 2195
1992 2010
1992 2023
1992 2043
1992 2052
1992 2056
1992 2065
1992 2087
1992 2162
1992 2168
1992 2202
1993 2036
1993 2075
1993 2104
1993 2233
1994 2012
1994 2049
1994 2050
1994 2085
1994 2089
1994 2091
1994 2097
1994 2110
1994 2118
1994 2120
1994 2134
1994 2142
1994 2151
1994 2165
1994 2182
1994 2188
1994 2194
1994 2195
1994 2208
1994 2232
1994 2235
1995 1996
1995 2026
1995 2036
1995 2037
1995 2040
1995 2042
1995 2065
1995 2066
1995 2069
1995 2072
1995 2100
1995 2119
1995 2125
1995 2150
1995 2153
1995 2162
1995 2168
1995 2171
1995 2200
1995 2206
1995 2219
1995 2233
1995 2244
1995 2246
1995 2248
1996 2039
1996 2057
1996 2061
1996 2075
1996 2150
1996 2180
1996 2184
1996 2240
1998 2107
1998 2138
1999 2072
1999 2112
1999 2196
1999 2206
1999 2226
1999 2227
2000 2075
2000 2128
2000 2172
2000 2221
2000 2229
2000 2242
2001 2023
2001 2087
2001 2090
2001 2100
2001 2175
2001 2185
2001 2190
2001 2197
2001 2242
2002 2075
2002 2113
2002 2150
2002 2211
2002 2221
2003 2072
2003 2076
2003 2099
2003 2101
2003 2118
2003 2189
2004 2188
2006 2020
2006 2041
2006 2051
2006 2063
2006 2088
2006 2125
2006 2144
2006 2145
2006 2153
2006 2156
2006 2177
2006 2181
2006 2183
2006 2209
2006 2230
2006 2246
2007 2075
2007 2107
2007 2130
2007 2242
2008 2037
2008 2051
2008 2104
2008 2175
2008 2190
2008 2202
2008 2206
2008 2233
2008 2246
2009 2010
2009 2022
2009 2070
2009 2117
2009 2148
2009 2153
2009 2177
2009 2181
2009 2193
2009 2194
2009 2232
2009 2246
2010 2026
2010 2038
2010 2050
2010 2051
2010 2052
2010 2053
2010 2087
2010 2090
2010 2104
2010 2117
2010 2148
2010 2167
2010 2175
2010 2181
2010 2191
2010 2202
2010 2232
2011 2043
2011 2104
2011 2136
2011 2246
2012 2029
2012 2089
2012 2091
2012 2099
2012 2110
2012 2117
2012 2118
2012 2134
2012 2136
2012 2151
2012 2153
2012 2189
2012 2195
2012 2201
2012 2205
2012 2216
2012 2222
2013 2060
2013 2061
2013 2217
2014 2185
2015 2158
2015 2174
2015 2236
2016 2028
2016 2085
2016 2165
2016 2182
2016 2195
2016 2231
2017 2044
2017 2059
2017 2060
2017 2075
2017 2082
2018 2117
2018 2144
2018 2153
2018 2175
2018 2177
2018 2186
2018 2198
2018 2209
2018 2246
2020 2063
2020 2088
2020 2094
2020 2124
2020 2153
2020 2169
2020 2181
2020 2183
2020 2193
2020 2230
2021 2048
2021 2101
2021 2134
2021 2143
2022 2050
2022 2051
2022 2104
2022 2127
2022 2139
2022 2151
2022 2175
2022 2181
2022 2191
2022 2232
2022 2235
2023 2036
2023 2091
2023 2119
2023 2131
2023 2146
2023 2197
2023 2202
2023 2222
2023 2249
2024 2192
2025 2043
2025 2048
2025 2068
2025 2098
2025 2110
2025 2156
2025 2165
2025 2231
2026 2031
2026 2050
2026 2069
2026 2091
2026 2104
2026 2161
2026 2174
2026 2176
2026 2177
2026 2186
2026 2195
2026 2201
2026 2232
2026 2246
2028 2043
2028 2068
2028 2085
2028 2087
2028 2175
2028 2186
2029 2089
2029 2091
2029 2099
2029 2123
2029 2214
2029 2216
2029 2241
2031 2032
2031 2043
2031 2048
2031 2115
2031 2116
2031 2125
2031 2151
2031 2188
2032 2083
2032 2091
2032 2141
2032 2165
2032 2179
2033 2085
2033 2098
2033 2146
2033 2195
2033 2205
2034 2080
2034 2083
2034 2124
2034 2145
2034 2225
2035 2043
2035 2047
2035 2051
2035 2098
2035 2132
2035 2186
2035 2189
2035 2192
2036 2042
2036 2065
2036 2069
2036 2109
2036 2139
2036 2168
2036 2197
2036 2206
2036 2213
2037 2042
2037 2043
2037 2091
2037 2100
2037 2119
2037 2171
2037 2206
2037 2226
2037 2232
2037 2248
2038 2124
2038 2129
2038 2134
2038 2153
2039 2105
2039 2106
2039 2247
2040 2053
2040 2064
2040 2070
2040 2088
2040 2104
2040 2121
2040 2168
2040 2171
2040 2183
2040 2206
2040 2248
2041 2089
2041 2115
2041 2123
2041 2141
2041 2175
2041 2179
2041 2189
2041 2194
2041 2230
2042 2075
2042 2095
2042 2100
2042 2121
2042 2153
2042 2169
2042 2200
2042 2206
2042 2230
2042 2246
2042 2248
2043 2052
2043 2065
2043 2069
2043 2090
2043 2102
2043 2104
2043 2107
2043 2108
2043 2117
2043 2137
2043 2159
2043 2176
2043 2177
2043 2186
2043 2231
2044 2075
2044 2082
2044 2211
2044 2238
2045 2053
2045 2075
2045 2082
2045 2130
2045 2196
2045 2247
2046 2071
2046 2073
2046 2107
2046 2159
2046 2167
2046 2245
2047 2086
2047 2089
2047 2094
2047 2097
2047 2110
2047 2115
2047 2134
2047 2143
2047 2173
2047 2189
2048 2101
2048 2103
2048 2143
2048 2153
2048 2188
2048 2216
2049 2085
2049 2151
2049 2188
2050 2091
2050 2104
2050 2108
2050 2139
2050 2191
2050 2206
2050 2232
2050 2235
2050 2246
2051 2076
2051 2081
2051 2104
2051 2125
2051 2153
2051 2177
2051 2186
2051 2195
2051 2246
2052 2056
2052 2078
2052 2087
2052 2091
2052 2133
2052 2148
2052 2195
2052 2202
2052 2219
2052 2236
2053 2155
2053 2169
2053 2180
2054 2078
2054 2221
2054 2223
2055 2085
2055 2197
2055 2203
2055 2223
2056 2069
2056 2087
2057 2112
2057 2180
2057 2210
2057 2221
2058 2211
2059 2060
2059 2075
2059 2130
2059 2164
2060 2061
2060 2169
2060 2207
2060 2217
2061 2075
2061 2112
2061 2164
2061 2207
2061 2217
2062 2079
2062 2230
2063 2088
2063 2125
2063 2144
2063 2145
2063 2153
2063 2155
2063 2183
2063 2193
2064 2121
2064 2137
2064 2248
2065 2069
2065 2087
2065 2100
2065 2103
2065 2110
2065 2121
2065 2133
2065 2146
2065 2173
2065 2190
2065 2197
2065 2205
2065 2206
2065 2216
2065 2219
2065 2233
2066 2090
2066 2100
2066 2109
2066 2197
2066 2204
2066 2206
2066 2213
2066 2235
2066 2246
2068 2085
2068 2147
2069 2072
2069 2089
2069 2137
2069 2160
2069 2161
2069 2166
2069 2185
2069 2186
2069 2187
2069 2190
2069 2197
2069 2206
2069 2232
2069 2233
2069 2236
2069 2249
2070 2183
2071 2073
2071 2246
2072 2076
2072 2087
2072 2100
2072 2112
2072 2115
2072 2118
2072 2133
2072 2167
2072 2168
2072 2185
2072 2190
2072 2196
2072 2200
2072 2202
2072 2206
2072 2226
2072 2248
2073 2107
2073 2167
2073 2181
2073 2231
2073 2245
2074 2077
2074 2156
2074 2167
2074 2222
2075 2082
2075 2095
2075 2105
2075 2106
2075 2112
2075 2128
2075 2135
2075 2150
2075 2160
2075 2164
2075 2171
2075 2178
2075 2180
2075 2207
2075 2210
2075 2221
2075 2223
2075 2224
2075 2227
2075 2242
2075 2244
2075 2247
2076 2101
2076 2107
2076 2108
2076 2117
2076 2118
2076 2140
2076 2174
2077 2156
2077 2222
2077 2234
2078 2164
2078 2206
2078 2211
2078 2223
2078 2244
2078 2247
2080 2095
2080 2197
2080 2222
2080 2225
2080 2232
2081 2118
2081 2121
2081 2148
2081 2175
2082 2185
2082 2196
2083 2096
2083 2151
2083 2184
2083 2189
2083 2230
2085 2203
2085 2231
2086 2089
2086 2110
2086 2127
2086 2134
2086 2144
2086 2189
2086 2230
2087 2090
2087 2091
2087 2121
2087 2150
2087 2161
2087 2166
2087 2172
2087 2174
2087 2187
2087 2197
2087 2248
2088 2124
2088 2153
2088 2181
2088 2183
2088 2193
2088 2210
2088 2230
2089 2091
2089 2110
2089 2115
2089 2123
2089 2127
2089 2134
2089 2182
2089 2189
2089 2198
2089 2201
2089 2216
2089 2222
2090 2161
2090 2197
2090 2231
2091 2104
2091 2107
2091 2118
2091 2144
2091 2171
2091 2182
2091 2194
2091 2197
2091 2201
2092 2118
2092 2136
2092 2142
2092 2143
2092 2243
2094 2096
2094 2115
2094 2116
2094 2124
2095 2099
2095 2168
2095 2197
2095 2203
2095 2230
2096 2110
2096 2115
2096 2116
2096 2124
2096 2129
2096 2141
2096 2179
2096 2189
2097 2098
2097 2104
2097 2110
2097 2134
2097 2188
2097 2206
2098 2103
2098 2110
2098 2120
2098 2146
2098 2154
2098 2175
2098 2200
2098 2205
2098 2232
2098 2234
2099 2101
2099 2108
2099 2118
2099 2123
2099 2136
2099 2153
2099 2156
2099 2165
2099 2206
2099 2230
2099 2231
2099 2234
2100 2127
2100 2133
2100 2157
2100 2167
2100 2168
2100 2171
2100 2175
2100 2185
2100 2190
2100 2197
2100 2200
2100 2206
2100 2213
2100 2219
2100 2246
2100 2248
2101 2103
2101 2118
2101 2143
2101 2195
2102 2107
2102 2118
2102 2159
2102 2186
2103 2120
2103 2143
2103 2153
2103 2216
2103 2235
2104 2117
2104 2127
2104 2134
2104 2139
2104 2144
2104 2156
2104 2166
2104 2168
2104 2175
2104 2176
2104 2177
2104 2181
2104 2186
2104 2191
2104 2195
2104 2204
2104 2217
2104 2232
2104 2235
2105 2130
2105 2149
2105 2227
2105 2238
2106 2171
2107 2108
2107 2147
2107 2148
2107 2153
2107 2171
2107 2175
2107 2176
2107 2201
2107 2216
2107 2231
2107 2246
2108 2148
2109 2171
2110 2118
2110 2123
2110 2134
2110 2136
2110 2139
2110 2146
2110 2186
2110 2189
2110 2194
2110 2205
2110 2209
2110 2216
2111 2136
2112 2221
2112 2226
2112 2242
2113 2152
2113 2242
2115 2116
2115 2134
2115 2141
2115 2146
2115 2179
2115 2189
2115 2246
2116 2124
2116 2153
2116 2179
2116 2186
2116 2230
2117 2161
2117 2183
2117 2235
2118 2119
2118 2134
2118 2136
2118 2142
2118 2182
2118 2195
2118 2206
2118 2216
2119 2125
2119 2171
2120 2129
2120 2146
2120 2147
2120 2165
2120 2205
2120 2232
2121 2133
2121 2148
2121 2172
2121 2202
2121 2242
2122 2211
2123 2136
2123 2141
2123 2189
2124 2153
2124 2169
2124 2179
2124 2183
2124 2218
2124 2230
2126 2181
2126 2231
2126 2235
2126 2249
2127 2152
2127 2157
2127 2185
2127 2188
2127 2246
2128 2172
2128 2242
2129 2134
2129 2139
2129 2200
2129 2230
2130 2135
2130 2210
2130 2227
2130 2238
2130 2240
2130 2247
2131 2171
2131 2205
2132 2162
2132 2197
2133 2167
2133 2173
2133 2190
2133 2197
2133 2202
2133 2233
2134 2143
2134 2186
2134 2189
2134 2204
2135 2149
2135 2164
2135 2238
2136 2201
2136 2216
2136 2243
2137 2140
2137 2160
2137 2171
2137 2236
2137 2249
2138 2181
2139 2148
2139 2175
2139 2181
2139 2186
2139 2191
2139 2209
2139 2232
2139 2235
2140 2159
2141 2157
2141 2170
2141 2179
2141 2189
2141 2201
2142 2246
2143 2189
2144 2176
2144 2177
2144 2209
2144 2246
2145 2183
2145 2230
2145 2235
2146 2209
2146 2232
2147 2153
2147 2165
2147 2195
2147 2249
2148 2161
2148 2194
2148 2235
2150 2223
2150 2227
2150 2242
2153 2155
2153 2177
2153 2183
2153 2206
2153 2230
2155 2169
2155 2193
2155 2230
2156 2186
2156 2191
2157 2185
2157 2188
2157 2200
2157 2235
2158 2161
2158 2236
2159 2161
2159 2174
2160 2171
2160 2187
2160 2191
2160 2234
2160 2249
2161 2174
2161 2204
2161 2205
2161 2231
2161 2235
2162 2177
2162 2197
2162 2233
2162 2236
2162 2248
2164 2238
2165 2182
2165 2195
2165 2198
2165 2208
2165 2222
2166 2195
2166 2204
2166 2213
2166 2235
2166 2236
2166 2249
2167 2200
2167 2245
2168 2169
2168 2183
2168 2206
2168 2248
2169 2216
2169 2248
2170 2189
2171 2178
2171 2187
2171 2206
2171 2248
2172 2223
2172 2242
2173 2193
2174 2187
2174 2189
2175 2181
2175 2186
2175 2246
2176 2204
2177 2186
2177 2204
2177 2209
2178 2227
2180 2239
2181 2183
2181 2235
2181 2246
2182 2195
2183 2230
2184 2227
2185 2187
2185 2200
2185 2236
2185 2249
2186 2216
2186 2246
2187 2202
2187 2236
2188 2216
2188 2241
2189 2209
2189 2233
2190 2197
2190 2200
2190 2206
2190 2233
2190 2248
2191 2232
2191 2234
2194 2198
2195 2196
2195 2204
2195 2216
2195 2231
2195 2249
2196 2239
2196 2249
2197 2200
2197 2203
2197 2222
2197 2233
2200 2206
2201 2216
2202 2248
2202 2249
2203 2205
2203 2223
2204 2213
2204 2235
2204 2236
2205 2209
2205 2243
2206 2232
2206 2233
2206 2248
2207 2210
2207 2217
2207 2227
2210 2227
2210 2238
2210 2242
2211 2237
2211 2244
2216 2241
2218 2228
2219 2236
2221 2244
2230 2248
2231 2236
2232 2235
2232 2246
2236 2249
2237 2244
2238 2247
2243 2246
