%%MatrixMarket matrix coordinate pattern symmetric
2312 2312 96393
1 7
1 128
1 151
1 158
1 219
1 267
1 349
1 371
1 398
1 428
1 451
1 489
1 583
1 646
1 671
1 717
1 749
1 783
1 888
1 889
1 914
1 989
1 1025
1 1034
1 1099
1 1202
1 1226
1 1230
1 1239
1 1266
1 1287
1 1290
1 1374
1 1414
1 1453
1 1485
1 1486
1 1534
1 1536
1 1588
1 1589
1 1661
1 1665
1 1682
1 1720
1 1721
1 1736
1 1758
1 1819
1 1847
1 1859
1 1861
1 1898
1 1943
1 1981
1 2044
1 2077
1 2253
2 41
2 336
2 745
2 1096
2 1131
2 1195
2 1468
2 1470
2 1633
2 1700
2 1735
2 1912
2 2158
3 9
3 14
3 15
3 27
3 40
3 66
3 67
3 95
3 122
3 124
3 180
3 201
3 215
3 227
3 259
3 260
3 270
3 271
3 281
3 385
3 399
3 417
3 421
3 442
3 473
3 480
3 482
3 487
3 504
3 522
3 525
3 531
3 550
3 567
3 591
3 599
3 605
3 610
3 623
3 647
3 665
3 681
3 705
3 708
3 712
3 738
3 756
3 782
3 785
3 800
3 831
3 848
3 853
3 861
3 866
3 879
3 888
3 919
3 932
3 934
3 941
3 944
3 954
3 1035
3 1050
3 1057
3 1062
3 1066
3 1075
3 1096
3 1111
3 1120
3 1158
3 1159
3 1168
3 1176
3 1208
3 1224
3 1281
3 1283
3 1308
3 1335
3 1337
3 1340
3 1355
3 1419
3 1423
3 1425
3 1439
3 1497
3 1505
3 1512
3 1523
3 1537
3 1557
3 1558
3 1564
3 1581
3 1590
3 1630
3 1638
3 1646
3 1650
3 1660
3 1667
3 1669
3 1671
3 1708
3 1715
3 1723
3 1737
3 1760
3 1774
3 1775
3 1776
3 1785
3 1787
3 1792
3 1798
3 1799
3 1805
3 1809
3 1813
3 1825
3 1844
3 1883
3 1888
3 1911
3 1921
3 1927
3 1928
3 1931
3 1984
3 2021
3 2034
3 2037
3 2049
3 2066
3 2073
3 2089
3 2105
3 2115
3 2128
3 2133
3 2160
3 2174
3 2176
3 2177
3 2195
3 2237
3 2258
3 2261
3 2269
3 2280
4 19
4 22
4 48
4 49
4 51
4 90
4 113
4 275
4 343
4 348
4 380
4 392
4 399
4 403
4 418
4 437
4 492
4 522
4 581
4 588
4 637
4 642
4 694
4 698
4 709
4 735
4 764
4 833
4 835
4 865
4 884
4 893
4 898
4 902
4 996
4 1072
4 1093
4 1094
4 1102
4 1125
4 1174
4 1244
4 1260
4 1297
4 1364
4 1384
4 1394
4 1399
4 1424
4 1435
4 1459
4 1491
4 1503
4 1512
4 1538
4 1546
4 1554
4 1570
4 1598
4 1623
4 1637
4 1680
4 1732
4 1777
4 1795
4 1806
4 1953
4 1971
4 1987
4 2016
4 2035
4 2067
4 2069
4 2079
4 2130
4 2198
4 2264
4 2298
4 2303
5 14
5 15
5 25
5 38
5 40
5 60
5 61
5 72
5 91
5 98
5 103
5 126
5 130
5 139
5 140
5 160
5 176
5 197
5 232
5 268
5 269
5 271
5 280
5 282
5 298
5 314
5 315
5 327
5 341
5 390
5 405
5 425
5 453
5 462
5 489
5 493
5 499
5 545
5 584
5 605
5 606
5 607
5 645
5 665
5 667
5 668
5 669
5 673
5 675
5 676
5 685
5 695
5 705
5 712
5 714
5 735
5 737
5 747
5 754
5 760
5 768
5 782
5 813
5 814
5 819
5 841
5 848
5 853
5 858
5 860
5 876
5 880
5 903
5 915
5 920
5 969
5 980
5 986
5 988
5 991
5 1003
5 1021
5 1029
5 1035
5 1039
5 1053
5 1086
5 1089
5 1137
5 1156
5 1175
5 1215
5 1256
5 1268
5 1280
5 1318
5 1334
5 1357
5 1390
5 1421
5 1425
5 1442
5 1444
5 1451
5 1499
5 1502
5 1510
5 1512
5 1513
5 1520
5 1540
5 1548
5 1561
5 1573
5 1578
5 1588
5 1634
5 1643
5 1660
5 1677
5 1679
5 1703
5 1724
5 1746
5 1771
5 1774
5 1836
5 1844
5 1851
5 1859
5 1906
5 1908
5 1909
5 1911
5 1921
5 1925
5 1927
5 1961
5 1973
5 1980
5 1982
5 1984
5 1992
5 1996
5 2023
5 2042
5 2049
5 2135
5 2151
5 2154
5 2167
5 2177
5 2191
5 2204
5 2219
5 2228
5 2240
5 2258
5 2260
5 2261
5 2311
6 25
6 35
6 96
6 105
6 147
6 157
6 162
6 190
6 281
6 321
6 338
6 342
6 363
6 373
6 409
6 425
6 432
6 442
6 454
6 515
6 527
6 550
6 580
6 593
6 607
6 624
6 663
6 676
6 677
6 737
6 741
6 750
6 767
6 826
6 831
6 835
6 840
6 913
6 932
6 934
6 969
6 970
6 1004
6 1011
6 1036
6 1049
6 1054
6 1085
6 1105
6 1125
6 1127
6 1128
6 1175
6 1188
6 1206
6 1256
6 1327
6 1334
6 1339
6 1372
6 1451
6 1496
6 1503
6 1539
6 1571
6 1598
6 1630
6 1668
6 1700
6 1745
6 1761
6 1774
6 1783
6 1787
6 1799
6 1853
6 1860
6 1891
6 1903
6 1931
6 1973
6 1983
6 2012
6 2014
6 2025
6 2037
6 2081
6 2087
6 2088
6 2089
6 2094
6 2103
6 2110
6 2120
6 2124
6 2161
6 2185
6 2235
6 2240
6 2295
6 2305
7 23
7 30
7 39
7 47
7 70
7 82
7 121
7 158
7 185
7 198
7 252
7 267
7 307
7 337
7 340
7 351
7 392
7 394
7 424
7 457
7 489
7 493
7 598
7 600
7 657
7 664
7 714
7 761
7 771
7 783
7 854
7 940
7 946
7 967
7 1052
7 1126
7 1146
7 1157
7 1182
7 1183
7 1226
7 1239
7 1240
7 1243
7 1287
7 1292
7 1338
7 1379
7 1391
7 1417
7 1436
7 1534
7 1536
7 1553
7 1574
7 1579
7 1585
7 1589
7 1591
7 1592
7 1625
7 1665
7 1666
7 1759
7 1791
7 1801
7 1816
7 1846
7 1938
7 1988
7 2001
7 2044
7 2151
7 2230
7 2302
8 86
8 291
8 319
8 363
8 389
8 395
8 496
8 500
8 512
8 540
8 550
8 735
8 849
8 875
8 893
8 932
8 1090
8 1189
8 1358
8 1362
8 1521
8 1559
8 1566
8 1595
8 1598
8 1649
8 1675
8 1873
8 1901
8 1921
8 1927
8 1950
8 1955
8 2049
8 2129
8 2150
8 2162
8 2292
8 2308
9 22
9 28
9 33
9 45
9 48
9 51
9 64
9 65
9 66
9 72
9 84
9 85
9 88
9 92
9 120
9 137
9 143
9 161
9 173
9 180
9 193
9 201
9 224
9 230
9 248
9 271
9 275
9 313
9 320
9 383
9 389
9 391
9 392
9 397
9 399
9 414
9 418
9 423
9 435
9 437
9 439
9 443
9 445
9 446
9 461
9 472
9 493
9 494
9 504
9 511
9 540
9 550
9 570
9 585
9 592
9 602
9 608
9 631
9 639
9 647
9 677
9 694
9 698
9 701
9 759
9 776
9 792
9 848
9 855
9 863
9 884
9 892
9 894
9 898
9 919
9 950
9 970
9 972
9 988
9 992
9 1002
9 1011
9 1020
9 1062
9 1068
9 1070
9 1071
9 1092
9 1121
9 1142
9 1150
9 1166
9 1177
9 1203
9 1210
9 1247
9 1270
9 1274
9 1297
9 1304
9 1335
9 1355
9 1358
9 1361
9 1364
9 1368
9 1378
9 1404
9 1411
9 1416
9 1432
9 1435
9 1440
9 1458
9 1485
9 1497
9 1503
9 1520
9 1521
9 1523
9 1538
9 1544
9 1556
9 1564
9 1621
9 1630
9 1676
9 1723
9 1726
9 1743
9 1748
9 1760
9 1771
9 1776
9 1796
9 1829
9 1857
9 1866
9 1870
9 1873
9 1874
9 1899
9 1913
9 1931
9 1950
9 1957
9 1963
9 1974
9 1983
9 1987
9 2008
9 2012
9 2027
9 2055
9 2063
9 2076
9 2089
9 2111
9 2164
9 2175
9 2185
9 2221
9 2225
9 2234
9 2252
9 2260
9 2271
9 2308
10 26
10 42
10 56
10 67
10 102
10 138
10 176
10 189
10 247
10 389
10 446
10 472
10 479
10 498
10 538
10 665
10 688
10 777
10 778
10 781
10 786
10 787
10 794
10 862
10 883
10 928
10 938
10 959
10 978
10 1008
10 1013
10 1025
10 1056
10 1110
10 1143
10 1201
10 1205
10 1308
10 1332
10 1348
10 1371
10 1398
10 1424
10 1427
10 1429
10 1433
10 1485
10 1550
10 1563
10 1565
10 1638
10 1670
10 1702
10 1812
10 1886
10 1910
10 1920
10 1951
10 2029
10 2058
10 2060
10 2075
10 2144
10 2147
10 2273
11 65
11 101
11 228
11 433
11 505
11 511
11 516
11 532
11 538
11 776
11 786
11 830
11 1057
11 1281
11 1312
11 1332
11 1368
11 1410
11 1471
11 1700
11 1745
11 1852
11 1863
11 1906
11 1919
11 2060
11 2073
11 2210
12 125
12 146
12 175
12 191
12 204
12 325
12 331
12 347
12 408
12 446
12 450
12 452
12 472
12 492
12 511
12 535
12 630
12 758
12 792
12 833
12 883
12 884
12 894
12 904
12 923
12 924
12 937
12 960
12 1015
12 1042
12 1094
12 1103
12 1177
12 1194
12 1259
12 1275
12 1424
12 1487
12 1489
12 1542
12 1570
12 1605
12 1618
12 1638
12 1655
12 1685
12 1769
12 1778
12 1890
12 1950
12 1956
12 1987
12 2051
12 2078
12 2164
12 2210
12 2241
13 96
13 223
13 268
13 320
13 443
13 453
13 497
13 587
13 668
13 759
13 819
13 917
13 977
13 1008
13 1098
13 1117
13 1133
13 1156
13 1170
13 1181
13 1280
13 1281
13 1372
13 1393
13 1448
13 1482
13 1518
13 1570
13 1573
13 1648
13 1667
13 1785
13 1849
13 1857
13 1868
13 1891
13 1895
13 1951
13 2015
13 2069
13 2187
14 28
14 33
14 64
14 83
14 84
14 85
14 96
14 116
14 133
14 140
14 146
14 149
14 157
14 175
14 180
14 187
14 190
14 192
14 196
14 201
14 220
14 252
14 268
14 269
14 271
14 287
14 293
14 298
14 310
14 315
14 351
14 358
14 373
14 376
14 392
14 410
14 415
14 421
14 423
14 431
14 439
14 441
14 443
14 446
14 453
14 461
14 472
14 493
14 494
14 497
14 504
14 512
14 523
14 525
14 528
14 538
14 540
14 549
14 550
14 580
14 585
14 597
14 601
14 602
14 607
14 610
14 639
14 643
14 645
14 662
14 690
14 693
14 701
14 702
14 714
14 718
14 729
14 735
14 744
14 750
14 761
14 776
14 822
14 823
14 824
14 831
14 848
14 853
14 861
14 863
14 876
14 878
14 883
14 894
14 908
14 912
14 915
14 924
14 930
14 934
14 944
14 968
14 972
14 986
14 988
14 990
14 998
14 1009
14 1010
14 1011
14 1023
14 1038
14 1054
14 1062
14 1063
14 1064
14 1067
14 1071
14 1090
14 1092
14 1095
14 1096
14 1098
14 1124
14 1125
14 1140
14 1156
14 1170
14 1177
14 1188
14 1189
14 1193
14 1203
14 1216
14 1219
14 1234
14 1238
14 1252
14 1262
14 1268
14 1274
14 1275
14 1281
14 1308
14 1312
14 1327
14 1329
14 1334
14 1358
14 1364
14 1377
14 1380
14 1387
14 1392
14 1396
14 1400
14 1401
14 1404
14 1405
14 1409
14 1411
14 1416
14 1451
14 1496
14 1503
14 1512
14 1513
14 1520
14 1535
14 1554
14 1556
14 1559
14 1562
14 1564
14 1568
14 1578
14 1579
14 1615
14 1619
14 1621
14 1630
14 1634
14 1676
14 1679
14 1683
14 1716
14 1717
14 1723
14 1746
14 1751
14 1785
14 1806
14 1809
14 1815
14 1821
14 1844
14 1870
14 1873
14 1896
14 1909
14 1915
14 1926
14 1931
14 1948
14 1957
14 1963
14 1974
14 1983
14 1996
14 2007
14 2012
14 2013
14 2027
14 2043
14 2047
14 2049
14 2062
14 2066
14 2067
14 2087
14 2089
14 2095
14 2098
14 2130
14 2147
14 2151
14 2164
14 2166
14 2185
14 2193
14 2202
14 2210
14 2219
14 2225
14 2240
14 2268
14 2271
14 2289
14 2312
15 37
15 42
15 52
15 65
15 84
15 91
15 101
15 116
15 124
15 126
15 212
15 215
15 221
15 233
15 252
15 253
15 280
15 289
15 296
15 332
15 341
15 370
15 397
15 405
15 413
15 414
15 417
15 419
15 421
15 453
15 462
15 466
15 471
15 482
15 487
15 497
15 501
15 525
15 531
15 534
15 567
15 584
15 591
15 610
15 623
15 633
15 652
15 672
15 673
15 674
15 676
15 695
15 704
15 705
15 708
15 711
15 712
15 738
15 760
15 782
15 798
15 805
15 808
15 815
15 831
15 836
15 850
15 861
15 892
15 906
15 918
15 971
15 998
15 1012
15 1043
15 1050
15 1062
15 1075
15 1078
15 1111
15 1117
15 1124
15 1137
15 1168
15 1171
15 1184
15 1208
15 1225
15 1265
15 1273
15 1276
15 1280
15 1281
15 1308
15 1309
15 1337
15 1340
15 1361
15 1377
15 1385
15 1393
15 1394
15 1398
15 1416
15 1425
15 1439
15 1440
15 1444
15 1459
15 1497
15 1502
15 1515
15 1557
15 1558
15 1561
15 1563
15 1567
15 1573
15 1576
15 1590
15 1600
15 1667
15 1669
15 1675
15 1676
15 1677
15 1708
15 1746
15 1755
15 1784
15 1786
15 1792
15 1825
15 1831
15 1844
15 1848
15 1849
15 1859
15 1864
15 1874
15 1879
15 1888
15 1911
15 1921
15 1931
15 1949
15 1977
15 1982
15 1984
15 1989
15 2023
15 2046
15 2049
15 2066
15 2084
15 2089
15 2104
15 2113
15 2133
15 2146
15 2150
15 2151
15 2156
15 2160
15 2168
15 2177
15 2206
15 2242
15 2245
15 2255
15 2258
15 2260
15 2265
15 2267
15 2281
15 2288
16 57
16 63
16 65
16 84
16 102
16 130
16 132
16 157
16 162
16 197
16 210
16 228
16 253
16 268
16 284
16 374
16 408
16 453
16 462
16 482
16 497
16 527
16 550
16 563
16 593
16 643
16 665
16 676
16 681
16 711
16 723
16 750
16 782
16 792
16 815
16 831
16 840
16 864
16 888
16 908
16 915
16 924
16 932
16 935
16 988
16 1039
16 1043
16 1048
16 1078
16 1120
16 1176
16 1201
16 1220
16 1221
16 1265
16 1268
16 1281
16 1283
16 1308
16 1318
16 1334
16 1358
16 1388
16 1401
16 1415
16 1444
16 1451
16 1520
16 1540
16 1543
16 1563
16 1625
16 1723
16 1724
16 1775
16 1776
16 1799
16 1804
16 1825
16 1835
16 1836
16 1891
16 1906
16 1925
16 1926
16 2025
16 2043
16 2117
16 2120
16 2124
16 2138
16 2202
16 2208
17 81
17 106
17 116
17 141
17 145
17 158
17 175
17 191
17 200
17 202
17 213
17 258
17 326
17 364
17 433
17 446
17 460
17 468
17 472
17 479
17 511
17 545
17 581
17 589
17 594
17 609
17 643
17 653
17 658
17 677
17 683
17 687
17 701
17 735
17 791
17 792
17 872
17 883
17 965
17 1018
17 1023
17 1026
17 1100
17 1103
17 1169
17 1175
17 1209
17 1251
17 1252
17 1281
17 1298
17 1315
17 1330
17 1332
17 1411
17 1460
17 1485
17 1489
17 1527
17 1542
17 1565
17 1582
17 1595
17 1638
17 1668
17 1717
17 1726
17 1739
17 1769
17 1781
17 1814
17 1817
17 1873
17 1886
17 1922
17 1933
17 1963
17 1978
17 1999
17 2005
17 2018
17 2034
17 2062
17 2078
17 2082
17 2116
17 2123
17 2129
17 2132
17 2143
17 2230
17 2309
18 30
18 121
18 182
18 198
18 340
18 349
18 393
18 552
18 560
18 573
18 583
18 595
18 664
18 740
18 979
18 1018
18 1052
18 1107
18 1141
18 1146
18 1154
18 1226
18 1239
18 1313
18 1374
18 1452
18 1543
18 1585
18 1589
18 1610
18 1666
18 1720
18 1756
18 1792
18 1805
18 1816
18 1820
18 1846
18 1981
18 1982
18 2044
18 2099
18 2107
18 2178
18 2188
18 2199
18 2230
19 48
19 72
19 113
19 180
19 192
19 418
19 423
19 442
19 449
19 493
19 499
19 504
19 660
19 694
19 762
19 779
19 811
19 884
19 1085
19 1090
19 1102
19 1110
19 1125
19 1146
19 1167
19 1405
19 1435
19 1443
19 1491
19 1521
19 1584
19 1625
19 1639
19 1718
19 1728
19 1769
19 1846
19 1847
19 1858
19 1873
19 1987
19 2035
19 2303
19 2307
20 26
20 34
20 56
20 116
20 133
20 138
20 141
20 146
20 155
20 191
20 202
20 255
20 266
20 274
20 342
20 375
20 387
20 389
20 396
20 419
20 433
20 465
20 472
20 476
20 516
20 532
20 538
20 593
20 596
20 630
20 643
20 679
20 689
20 691
20 700
20 703
20 776
20 786
20 802
20 923
20 924
20 946
20 991
20 993
20 996
20 1013
20 1027
20 1050
20 1092
20 1101
20 1139
20 1151
20 1252
20 1259
20 1281
20 1308
20 1332
20 1347
20 1348
20 1351
20 1368
20 1392
20 1404
20 1447
20 1455
20 1466
20 1471
20 1485
20 1489
20 1492
20 1511
20 1513
20 1576
20 1661
20 1674
20 1685
20 1697
20 1700
20 1706
20 1741
20 1745
20 1833
20 1864
20 1886
20 1963
20 1977
20 2003
20 2030
20 2043
20 2060
20 2062
20 2082
20 2272
20 2284
20 2306
21 22
21 119
21 120
21 122
21 138
21 139
21 149
21 151
21 155
21 161
21 162
21 176
21 193
21 210
21 248
21 256
21 274
21 318
21 321
21 354
21 369
21 413
21 426
21 438
21 443
21 470
21 472
21 501
21 530
21 537
21 547
21 565
21 589
21 592
21 637
21 672
21 687
21 707
21 725
21 741
21 756
21 759
21 765
21 791
21 792
21 816
21 832
21 852
21 883
21 894
21 912
21 922
21 944
21 948
21 970
21 971
21 976
21 986
21 992
21 1024
21 1044
21 1066
21 1075
21 1091
21 1142
21 1143
21 1151
21 1155
21 1201
21 1211
21 1232
21 1251
21 1267
21 1270
21 1281
21 1296
21 1304
21 1310
21 1336
21 1339
21 1393
21 1411
21 1427
21 1430
21 1467
21 1495
21 1514
21 1534
21 1537
21 1560
21 1571
21 1580
21 1598
21 1600
21 1607
21 1625
21 1650
21 1659
21 1663
21 1669
21 1676
21 1713
21 1756
21 1765
21 1803
21 1821
21 1824
21 1825
21 1873
21 1874
21 1880
21 1882
21 1899
21 1928
21 1951
21 1967
21 2037
21 2046
21 2055
21 2068
21 2108
21 2110
21 2175
21 2206
21 2225
21 2231
21 2248
21 2252
21 2255
21 2259
21 2265
21 2276
21 2303
21 2305
21 2306
22 27
22 32
22 33
22 35
22 41
22 48
22 49
22 64
22 66
22 72
22 84
22 86
22 133
22 138
22 142
22 159
22 175
22 180
22 191
22 192
22 193
22 201
22 210
22 234
22 251
22 259
22 285
22 288
22 303
22 305
22 317
22 318
22 320
22 342
22 348
22 354
22 359
22 363
22 365
22 374
22 379
22 383
22 389
22 392
22 411
22 415
22 418
22 423
22 431
22 432
22 437
22 439
22 446
22 461
22 472
22 493
22 494
22 496
22 504
22 511
22 512
22 522
22 530
22 540
22 549
22 550
22 564
22 570
22 585
22 588
22 592
22 631
22 633
22 641
22 642
22 654
22 660
22 694
22 730
22 746
22 755
22 759
22 762
22 763
22 769
22 776
22 791
22 792
22 793
22 797
22 808
22 824
22 832
22 849
22 853
22 861
22 876
22 879
22 881
22 883
22 884
22 894
22 898
22 919
22 924
22 931
22 932
22 950
22 965
22 968
22 972
22 990
22 996
22 1001
22 1024
22 1064
22 1071
22 1082
22 1090
22 1091
22 1094
22 1102
22 1103
22 1104
22 1115
22 1122
22 1140
22 1143
22 1144
22 1152
22 1164
22 1168
22 1174
22 1180
22 1188
22 1193
22 1194
22 1203
22 1204
22 1208
22 1238
22 1247
22 1251
22 1252
22 1258
22 1265
22 1274
22 1281
22 1282
22 1310
22 1325
22 1332
22 1335
22 1347
22 1348
22 1355
22 1364
22 1369
22 1378
22 1380
22 1387
22 1400
22 1405
22 1406
22 1411
22 1415
22 1424
22 1432
22 1435
22 1456
22 1459
22 1469
22 1473
22 1485
22 1491
22 1503
22 1521
22 1531
22 1538
22 1540
22 1554
22 1557
22 1559
22 1562
22 1621
22 1628
22 1632
22 1633
22 1646
22 1659
22 1676
22 1677
22 1680
22 1683
22 1690
22 1697
22 1700
22 1716
22 1741
22 1742
22 1743
22 1744
22 1751
22 1760
22 1771
22 1790
22 1796
22 1798
22 1805
22 1815
22 1829
22 1853
22 1858
22 1859
22 1860
22 1864
22 1869
22 1873
22 1896
22 1903
22 1926
22 1929
22 1958
22 1959
22 1964
22 1983
22 1989
22 1990
22 1999
22 2027
22 2066
22 2079
22 2089
22 2101
22 2108
22 2110
22 2115
22 2122
22 2125
22 2151
22 2166
22 2172
22 2182
22 2190
22 2192
22 2198
22 2200
22 2202
22 2208
22 2209
22 2212
22 2220
22 2225
22 2231
22 2233
22 2259
22 2268
22 2271
22 2272
22 2284
22 2289
22 2295
23 121
23 198
23 340
23 489
23 714
23 761
23 1052
23 1666
23 1816
23 2151
23 2283
24 1609
25 65
25 124
25 126
25 130
25 147
25 162
25 197
25 228
25 304
25 332
25 350
25 413
25 425
25 426
25 443
25 513
25 545
25 593
25 633
25 640
25 711
25 737
25 819
25 840
25 913
25 961
25 969
25 977
25 1036
25 1127
25 1171
25 1225
25 1256
25 1267
25 1299
25 1318
25 1327
25 1329
25 1337
25 1510
25 1521
25 1539
25 1540
25 1581
25 1583
25 1590
25 1611
25 1745
25 1774
25 1825
25 1853
25 1854
25 1878
25 1882
25 1903
25 1925
25 1945
25 2081
25 2120
25 2185
25 2258
25 2260
25 2295
26 56
26 67
26 72
26 80
26 81
26 103
26 119
26 138
26 143
26 146
26 166
26 190
26 202
26 213
26 227
26 233
26 241
26 247
26 255
26 258
26 266
26 274
26 310
26 329
26 350
26 351
26 362
26 368
26 369
26 370
26 375
26 407
26 419
26 446
26 458
26 460
26 465
26 472
26 478
26 479
26 532
26 535
26 555
26 592
26 596
26 643
26 648
26 654
26 658
26 688
26 736
26 751
26 758
26 786
26 787
26 788
26 798
26 802
26 808
26 833
26 837
26 877
26 883
26 923
26 924
26 928
26 930
26 932
26 951
26 991
26 1008
26 1009
26 1027
26 1042
26 1046
26 1056
26 1071
26 1082
26 1085
26 1092
26 1101
26 1103
26 1110
26 1130
26 1143
26 1151
26 1167
26 1177
26 1186
26 1246
26 1251
26 1253
26 1281
26 1283
26 1308
26 1332
26 1333
26 1348
26 1355
26 1371
26 1384
26 1392
26 1398
26 1411
26 1415
26 1420
26 1424
26 1432
26 1434
26 1455
26 1469
26 1485
26 1487
26 1489
26 1511
26 1513
26 1533
26 1540
26 1542
26 1562
26 1563
26 1566
26 1576
26 1586
26 1599
26 1612
26 1615
26 1633
26 1638
26 1672
26 1674
26 1690
26 1693
26 1697
26 1702
26 1709
26 1743
26 1769
26 1778
26 1802
26 1815
26 1824
26 1828
26 1829
26 1833
26 1834
26 1841
26 1845
26 1852
26 1886
26 1896
26 1922
26 1951
26 1956
26 1963
26 1974
26 1977
26 1999
26 2003
26 2005
26 2045
26 2058
26 2060
26 2062
26 2082
26 2143
26 2147
26 2163
26 2187
26 2212
26 2273
26 2275
26 2284
26 2295
26 2306
26 2310
27 35
27 73
27 84
27 109
27 124
27 134
27 138
27 169
27 184
27 190
27 194
27 271
27 284
27 290
27 294
27 315
27 341
27 374
27 411
27 416
27 496
27 497
27 515
27 530
27 568
27 572
27 594
27 636
27 681
27 711
27 743
27 750
27 763
27 776
27 782
27 809
27 849
27 861
27 866
27 881
27 908
27 961
27 980
27 982
27 988
27 994
27 1003
27 1004
27 1012
27 1089
27 1148
27 1158
27 1168
27 1220
27 1221
27 1249
27 1258
27 1264
27 1282
27 1305
27 1308
27 1318
27 1326
27 1354
27 1389
27 1401
27 1425
27 1444
27 1451
27 1465
27 1500
27 1502
27 1520
27 1531
27 1535
27 1590
27 1629
27 1634
27 1643
27 1646
27 1740
27 1775
27 1788
27 1799
27 1831
27 1860
27 1869
27 1885
27 1887
27 1908
27 1911
27 1926
27 1951
27 1968
27 1984
27 2015
27 2025
27 2066
27 2067
27 2092
27 2101
27 2109
27 2121
27 2133
27 2170
27 2189
27 2220
27 2226
27 2261
27 2280
27 2286
28 80
28 85
28 88
28 96
28 112
28 137
28 173
28 227
28 236
28 299
28 374
28 379
28 380
28 389
28 445
28 494
28 504
28 514
28 518
28 540
28 550
28 570
28 572
28 594
28 643
28 687
28 743
28 753
28 776
28 792
28 852
28 861
28 864
28 868
28 879
28 904
28 926
28 928
28 930
28 972
28 1049
28 1071
28 1098
28 1125
28 1136
28 1156
28 1164
28 1174
28 1186
28 1189
28 1219
28 1224
28 1233
28 1238
28 1281
28 1282
28 1355
28 1358
28 1368
28 1377
28 1401
28 1405
28 1485
28 1513
28 1542
28 1566
28 1573
28 1579
28 1595
28 1645
28 1743
28 1762
28 1763
28 1765
28 1806
28 1880
28 1896
28 1928
28 1948
28 1962
28 1967
28 1986
28 1987
28 1995
28 2073
28 2089
28 2093
28 2105
28 2106
28 2221
28 2231
28 2268
29 624
29 649
29 681
29 688
29 786
29 877
29 1016
29 1046
29 1348
29 1371
29 1373
29 1388
29 1455
29 1489
29 1759
29 1907
29 2059
29 2062
29 2073
29 2195
29 2306
30 39
30 58
30 70
30 108
30 128
30 145
30 158
30 182
30 185
30 205
30 219
30 243
30 262
30 267
30 309
30 328
30 336
30 337
30 371
30 398
30 420
30 424
30 428
30 448
30 451
30 457
30 485
30 486
30 489
30 495
30 561
30 595
30 598
30 600
30 621
30 646
30 657
30 664
30 678
30 680
30 696
30 717
30 740
30 771
30 783
30 790
30 859
30 867
30 870
30 895
30 914
30 929
30 930
30 946
30 962
30 967
30 1052
30 1107
30 1126
30 1141
30 1146
30 1182
30 1183
30 1226
30 1227
30 1230
30 1239
30 1243
30 1272
30 1278
30 1286
30 1287
30 1293
30 1306
30 1351
30 1365
30 1374
30 1391
30 1395
30 1402
30 1417
30 1436
30 1452
30 1486
30 1522
30 1527
30 1534
30 1536
30 1551
30 1574
30 1589
30 1592
30 1608
30 1610
30 1613
30 1666
30 1696
30 1711
30 1721
30 1736
30 1759
30 1791
30 1797
30 1816
30 1819
30 1830
30 1846
30 1875
30 1889
30 1898
30 1930
30 1952
30 1981
30 2001
30 2038
30 2044
30 2052
30 2053
30 2077
30 2147
30 2199
30 2217
30 2218
30 2239
30 2283
30 2302
31 158
31 231
31 267
31 914
31 1178
31 1892
31 2001
31 2044
32 35
32 40
32 62
32 138
32 273
32 347
32 419
32 446
32 496
32 532
32 538
32 674
32 694
32 728
32 788
32 792
32 797
32 798
32 829
32 849
32 850
32 881
32 909
32 937
32 981
32 1019
32 1025
32 1103
32 1177
32 1251
32 1252
32 1282
32 1323
32 1385
32 1388
32 1396
32 1398
32 1405
32 1437
32 1469
32 1489
32 1493
32 1563
32 1566
32 1646
32 1655
32 1679
32 1804
32 1806
32 1926
32 1947
32 1956
32 1977
32 2013
32 2059
32 2086
32 2104
32 2144
32 2147
32 2178
32 2220
32 2295
32 2304
32 2306
33 45
33 48
33 51
33 65
33 72
33 85
33 86
33 137
33 159
33 180
33 192
33 259
33 275
33 283
33 288
33 320
33 383
33 389
33 392
33 397
33 414
33 440
33 452
33 461
33 468
33 493
33 494
33 496
33 504
33 511
33 540
33 570
33 588
33 602
33 608
33 631
33 639
33 677
33 694
33 709
33 756
33 759
33 764
33 776
33 780
33 792
33 836
33 837
33 848
33 852
33 865
33 876
33 883
33 884
33 893
33 898
33 906
33 931
33 944
33 947
33 950
33 958
33 972
33 996
33 998
33 1020
33 1062
33 1084
33 1091
33 1092
33 1196
33 1203
33 1238
33 1259
33 1274
33 1283
33 1297
33 1335
33 1358
33 1364
33 1368
33 1378
33 1387
33 1406
33 1432
33 1435
33 1440
33 1458
33 1460
33 1485
33 1493
33 1499
33 1503
33 1533
33 1538
33 1544
33 1621
33 1668
33 1734
33 1741
33 1786
33 1803
33 1806
33 1848
33 1866
33 1870
33 1874
33 1894
33 1913
33 1931
33 1957
33 1964
33 1969
33 1974
33 1987
33 1995
33 2012
33 2027
33 2055
33 2063
33 2130
33 2156
33 2252
34 48
34 87
34 176
34 202
34 246
34 248
34 288
34 320
34 366
34 399
34 409
34 446
34 596
34 637
34 677
34 792
34 816
34 837
34 904
34 937
34 947
34 960
34 1009
34 1142
34 1149
34 1181
34 1259
34 1308
34 1432
34 1433
34 1440
34 1570
34 1571
34 1586
34 1676
34 1685
34 1697
34 1755
34 1866
34 1899
34 1921
34 1950
34 1956
34 1987
34 2060
34 2106
34 2248
34 2252
34 2306
34 2308
35 63
35 90
35 133
35 138
35 149
35 346
35 360
35 411
35 432
35 453
35 496
35 522
35 711
35 763
35 797
35 849
35 881
35 968
35 994
35 1004
35 1168
35 1208
35 1249
35 1258
35 1282
35 1289
35 1332
35 1389
35 1475
35 1531
35 1535
35 1646
35 1690
35 1860
35 1869
35 1926
35 1989
35 2066
35 2101
35 2110
35 2138
35 2148
35 2220
35 2271
35 2272
36 39
36 43
36 145
36 151
36 158
36 185
36 262
36 292
36 340
36 507
36 508
36 541
36 550
36 562
36 598
36 622
36 693
36 700
36 727
36 795
36 856
36 914
36 929
36 940
36 946
36 974
36 989
36 1018
36 1080
36 1140
36 1179
36 1198
36 1240
36 1287
36 1290
36 1307
36 1313
36 1320
36 1342
36 1350
36 1364
36 1391
36 1394
36 1417
36 1436
36 1472
36 1476
36 1480
36 1501
36 1574
36 1613
36 1656
36 1722
36 1739
36 1757
36 1801
36 1816
36 1830
36 1934
36 1952
36 1956
36 2018
36 2074
36 2164
36 2199
36 2268
37 101
37 126
37 215
37 221
37 252
37 259
37 487
37 497
37 512
37 549
37 591
37 610
37 611
37 652
37 708
37 711
37 738
37 808
37 861
37 998
37 1063
37 1078
37 1111
37 1168
37 1184
37 1208
37 1337
37 1343
37 1485
37 1502
37 1590
37 1611
37 1625
37 1630
37 1667
37 1669
37 1676
37 1708
37 1746
37 1774
37 1849
37 1864
37 1911
37 1921
37 1957
37 1984
37 2049
37 2151
37 2160
37 2206
37 2245
37 2261
37 2269
37 2274
38 60
38 61
38 65
38 81
38 89
38 103
38 110
38 177
38 202
38 210
38 239
38 242
38 247
38 266
38 306
38 311
38 312
38 315
38 327
38 347
38 405
38 439
38 455
38 465
38 481
38 498
38 509
38 511
38 523
38 532
38 555
38 559
38 577
38 606
38 620
38 648
38 660
38 667
38 673
38 686
38 714
38 753
38 798
38 814
38 858
38 860
38 876
38 883
38 900
38 920
38 928
38 946
38 980
38 983
38 991
38 1020
38 1029
38 1053
38 1086
38 1088
38 1110
38 1133
38 1177
38 1198
38 1203
38 1241
38 1253
38 1281
38 1333
38 1348
38 1357
38 1371
38 1373
38 1421
38 1434
38 1437
38 1548
38 1566
38 1573
38 1578
38 1588
38 1645
38 1676
38 1677
38 1679
38 1709
38 1714
38 1743
38 1771
38 1801
38 1802
38 1816
38 1836
38 1852
38 1869
38 1880
38 1906
38 1907
38 1910
38 1915
38 1961
38 1963
38 1980
38 2023
38 2059
38 2060
38 2062
38 2072
38 2079
38 2104
38 2195
38 2204
38 2228
38 2240
38 2246
38 2272
38 2296
38 2311
39 219
39 508
39 595
39 622
39 740
39 882
39 929
39 1052
39 1126
39 1197
39 1227
39 1239
39 1284
39 1313
39 1338
39 1365
39 1391
39 1417
39 1509
39 1534
39 1574
39 1725
39 1757
39 1773
39 1875
39 2026
39 2239
40 59
40 66
40 95
40 104
40 124
40 177
40 190
40 212
40 215
40 259
40 271
40 315
40 399
40 405
40 410
40 421
40 431
40 438
40 497
40 534
40 567
40 590
40 605
40 607
40 610
40 636
40 640
40 647
40 665
40 674
40 704
40 705
40 712
40 714
40 748
40 768
40 782
40 798
40 814
40 819
40 850
40 858
40 862
40 892
40 920
40 928
40 934
40 938
40 980
40 981
40 1003
40 1019
40 1035
40 1039
40 1062
40 1120
40 1161
40 1189
40 1198
40 1208
40 1279
40 1281
40 1308
40 1309
40 1335
40 1354
40 1361
40 1390
40 1398
40 1413
40 1419
40 1425
40 1451
40 1485
40 1493
40 1499
40 1508
40 1515
40 1520
40 1521
40 1523
40 1558
40 1563
40 1578
40 1590
40 1630
40 1646
40 1660
40 1677
40 1679
40 1712
40 1751
40 1755
40 1774
40 1786
40 1799
40 1804
40 1806
40 1809
40 1818
40 1825
40 1836
40 1859
40 1873
40 1874
40 1878
40 1891
40 1897
40 1931
40 1953
40 1956
40 1961
40 1977
40 1980
40 1987
40 2037
40 2049
40 2066
40 2134
40 2144
40 2149
40 2154
40 2156
40 2177
40 2195
40 2203
40 2245
40 2280
40 2304
40 2306
40 2311
41 50
41 65
41 67
41 74
41 120
41 136
41 161
41 165
41 176
41 193
41 210
41 212
41 230
41 239
41 313
41 315
41 320
41 354
41 374
41 399
41 411
41 416
41 438
41 439
41 473
41 476
41 493
41 501
41 517
41 610
41 694
41 741
41 743
41 762
41 763
41 804
41 808
41 816
41 837
41 862
41 864
41 871
41 881
41 948
41 960
41 981
41 1009
41 1029
41 1046
41 1051
41 1063
41 1082
41 1126
41 1133
41 1136
41 1142
41 1150
41 1220
41 1254
41 1281
41 1289
41 1304
41 1344
41 1352
41 1354
41 1355
41 1374
41 1378
41 1448
41 1455
41 1475
41 1485
41 1493
41 1495
41 1511
41 1561
41 1571
41 1586
41 1612
41 1633
41 1648
41 1713
41 1718
41 1741
41 1743
41 1790
41 1796
41 1803
41 1829
41 1845
41 1848
41 1854
41 1869
41 1883
41 1899
41 1913
41 1951
41 1953
41 1966
41 1974
41 1989
41 1999
41 2037
41 2055
41 2056
41 2068
41 2101
41 2110
41 2111
41 2144
41 2149
41 2197
41 2213
41 2220
41 2232
41 2247
41 2259
41 2265
41 2304
42 56
42 67
42 189
42 239
42 429
42 511
42 532
42 688
42 777
42 829
42 883
42 928
42 959
42 978
42 1008
42 1013
42 1056
42 1205
42 1281
42 1348
42 1363
42 1371
42 1373
42 1429
42 1436
42 1455
42 1487
42 1513
42 1538
42 1542
42 1550
42 1638
42 1670
42 1804
42 1824
42 1834
42 1886
42 1910
42 1920
42 1974
42 1999
42 2029
42 2034
42 2043
42 2058
42 2062
42 2073
42 2074
42 2195
42 2273
43 123
43 145
43 307
43 309
43 464
43 508
43 573
43 595
43 680
43 838
43 914
43 929
43 973
43 1018
43 1126
43 1257
43 1284
43 1374
43 1412
43 1445
43 1476
43 1613
43 1616
43 1696
43 1711
43 1721
43 1733
43 1773
43 1820
43 1862
43 1889
43 1934
43 1948
43 1970
43 2052
43 2165
44 89
44 95
44 124
44 214
44 247
44 379
44 525
44 567
44 599
44 633
44 673
44 674
44 755
44 787
44 829
44 841
44 892
44 893
44 1086
44 1159
44 1185
44 1228
44 1281
44 1312
44 1386
44 1433
44 1437
44 1440
44 1450
44 1488
44 1521
44 1650
44 1755
44 1786
44 1812
44 1813
44 1825
44 1852
44 1874
44 1913
44 1918
44 1935
44 1953
44 1979
44 2024
44 2056
44 2063
44 2066
44 2069
44 2070
44 2133
44 2227
45 66
45 85
45 99
45 159
45 196
45 216
45 234
45 322
45 334
45 355
45 361
45 440
45 494
45 497
45 540
45 575
45 656
45 707
45 709
45 735
45 743
45 744
45 756
45 759
45 810
45 848
45 861
45 875
45 898
45 919
45 949
45 972
45 984
45 1124
45 1166
45 1218
45 1224
45 1225
45 1238
45 1270
45 1315
45 1329
45 1435
45 1497
45 1523
45 1538
45 1556
45 1586
45 1620
45 1637
45 1676
45 1717
45 1726
45 1738
45 1746
45 1748
45 1752
45 1776
45 1821
45 1829
45 1844
45 1864
45 1870
45 1882
45 1885
45 1909
45 1921
45 1928
45 1957
45 1968
45 2046
45 2115
45 2124
45 2145
45 2151
45 2193
45 2198
45 2225
45 2270
46 108
46 118
46 145
46 158
46 165
46 195
46 267
46 377
46 384
46 398
46 448
46 472
46 483
46 486
46 488
46 583
46 621
46 634
46 653
46 671
46 757
46 771
46 783
46 856
46 914
46 943
46 973
46 989
46 1047
46 1052
46 1083
46 1103
46 1183
46 1263
46 1306
46 1314
46 1320
46 1329
46 1346
46 1351
46 1370
46 1412
46 1485
46 1506
46 1551
46 1589
46 1592
46 1613
46 1652
46 1661
46 1666
46 1696
46 1733
46 1797
46 1898
46 1943
46 1985
46 2004
46 2028
46 2044
46 2297
47 60
47 327
47 598
47 686
47 940
47 946
47 1391
47 1490
47 1574
47 1725
47 1771
47 1801
47 1816
48 69
48 84
48 86
48 113
48 142
48 172
48 173
48 180
48 191
48 213
48 305
48 316
48 342
48 343
48 348
48 364
48 365
48 383
48 392
48 395
48 401
48 406
48 418
48 423
48 429
48 431
48 437
48 440
48 446
48 468
48 472
48 491
48 494
48 496
48 504
48 522
48 540
48 544
48 550
48 570
48 581
48 588
48 628
48 631
48 632
48 639
48 643
48 644
48 647
48 658
48 691
48 729
48 730
48 744
48 759
48 763
48 764
48 812
48 821
48 833
48 835
48 843
48 848
48 853
48 865
48 868
48 875
48 879
48 883
48 898
48 910
48 930
48 942
48 953
48 970
48 982
48 990
48 1020
48 1023
48 1030
48 1048
48 1055
48 1062
48 1072
48 1093
48 1094
48 1102
48 1110
48 1115
48 1121
48 1125
48 1172
48 1174
48 1181
48 1188
48 1193
48 1194
48 1238
48 1244
48 1262
48 1270
48 1274
48 1285
48 1296
48 1298
48 1305
48 1321
48 1325
48 1326
48 1361
48 1362
48 1364
48 1380
48 1384
48 1394
48 1399
48 1404
48 1411
48 1424
48 1443
48 1449
48 1491
48 1494
48 1513
48 1521
48 1538
48 1554
48 1565
48 1570
48 1584
48 1594
48 1628
48 1646
48 1659
48 1680
48 1683
48 1713
48 1760
48 1767
48 1775
48 1782
48 1858
48 1890
48 1948
48 1951
48 2005
48 2016
48 2022
48 2030
48 2035
48 2055
48 2062
48 2067
48 2069
48 2079
48 2130
48 2132
48 2145
48 2160
48 2175
48 2183
48 2196
48 2198
48 2209
48 2212
48 2230
48 2251
48 2268
48 2303
49 142
49 288
49 316
49 331
49 338
49 343
49 348
49 365
49 379
49 392
49 437
49 450
49 484
49 504
49 544
49 637
49 687
49 730
49 843
49 901
49 927
49 942
49 996
49 1090
49 1094
49 1102
49 1143
49 1162
49 1174
49 1242
49 1325
49 1364
49 1399
49 1448
49 1491
49 1570
49 1638
49 1685
49 1713
49 1769
49 1795
49 1806
49 1823
49 1890
49 1913
49 1948
49 1958
49 1971
49 1974
49 2027
49 2055
49 2130
49 2174
49 2196
49 2307
50 65
50 72
50 73
50 131
50 176
50 193
50 202
50 275
50 304
50 315
50 399
50 417
50 435
50 439
50 444
50 493
50 540
50 642
50 648
50 654
50 709
50 764
50 802
50 881
50 884
50 893
50 1091
50 1102
50 1214
50 1228
50 1233
50 1270
50 1281
50 1297
50 1352
50 1355
50 1406
50 1435
50 1469
50 1485
50 1513
50 1554
50 1595
50 1657
50 1693
50 1732
50 1744
50 1790
50 1795
50 1796
50 1829
50 1872
50 1893
50 1913
50 1963
50 2043
50 2048
50 2108
50 2111
50 2115
50 2144
50 2156
50 2163
50 2197
50 2203
50 2213
50 2295
51 56
51 62
51 65
51 66
51 72
51 77
51 87
51 157
51 176
51 180
51 193
51 201
51 242
51 273
51 275
51 287
51 293
51 331
51 348
51 365
51 379
51 389
51 399
51 441
51 449
51 462
51 472
51 494
51 498
51 504
51 519
51 522
51 570
51 596
51 631
51 633
51 647
51 660
51 709
51 743
51 750
51 751
51 753
51 763
51 792
51 819
51 822
51 848
51 855
51 884
51 888
51 893
51 898
51 908
51 923
51 924
51 932
51 978
51 993
51 1008
51 1019
51 1020
51 1066
51 1082
51 1110
51 1133
51 1203
51 1228
51 1268
51 1280
51 1295
51 1297
51 1308
51 1335
51 1347
51 1424
51 1432
51 1440
51 1458
51 1520
51 1521
51 1538
51 1542
51 1547
51 1563
51 1621
51 1625
51 1630
51 1685
51 1713
51 1724
51 1731
51 1743
51 1755
51 1771
51 1795
51 1829
51 1874
51 1888
51 1894
51 1907
51 1913
51 1979
51 1984
51 1995
51 2014
51 2022
51 2037
51 2049
51 2051
51 2062
51 2063
51 2070
51 2073
51 2075
51 2079
51 2108
51 2117
51 2162
51 2202
51 2209
51 2220
51 2232
51 2258
51 2268
51 2274
51 2280
52 57
52 65
52 96
52 101
52 117
52 124
52 130
52 133
52 143
52 157
52 184
52 223
52 228
52 250
52 259
52 264
52 281
52 284
52 304
52 311
52 315
52 341
52 346
52 368
52 390
52 413
52 416
52 425
52 435
52 473
52 482
52 487
52 525
52 531
52 567
52 607
52 610
52 624
52 636
52 652
52 665
52 681
52 711
52 750
52 753
52 756
52 759
52 770
52 800
52 804
52 808
52 831
52 861
52 874
52 898
52 908
52 916
52 928
52 961
52 977
52 988
52 1038
52 1039
52 1048
52 1061
52 1063
52 1070
52 1078
52 1093
52 1104
52 1111
52 1117
52 1118
52 1146
52 1168
52 1175
52 1204
52 1218
52 1265
52 1276
52 1283
52 1305
52 1318
52 1337
52 1368
52 1377
52 1385
52 1425
52 1439
52 1485
52 1497
52 1500
52 1502
52 1519
52 1520
52 1535
52 1538
52 1581
52 1583
52 1590
52 1637
52 1645
52 1669
52 1689
52 1738
52 1748
52 1774
52 1775
52 1792
52 1798
52 1806
52 1831
52 1844
52 1864
52 1878
52 1879
52 1908
52 1913
52 1925
52 1927
52 1945
52 1984
52 2025
52 2046
52 2066
52 2069
52 2087
52 2109
52 2160
52 2237
52 2242
52 2255
52 2260
52 2271
52 2274
53 99
53 158
53 451
53 595
53 680
53 946
53 1534
53 1592
53 1651
53 1686
53 1869
53 1930
53 2091
54 84
54 86
54 127
54 140
54 187
54 191
54 192
54 234
54 251
54 252
54 318
54 423
54 437
54 441
54 523
54 549
54 836
54 848
54 883
54 894
54 931
54 946
54 950
54 1064
54 1149
54 1152
54 1180
54 1292
54 1364
54 1517
54 1621
54 1793
54 1959
54 2166
54 2214
54 2225
55 70
55 108
55 158
55 195
55 262
55 267
55 268
55 393
55 407
55 420
55 451
55 509
55 526
55 582
55 618
55 678
55 717
55 718
55 743
55 891
55 929
55 957
55 962
55 973
55 1001
55 1052
55 1100
55 1107
55 1141
55 1222
55 1226
55 1239
55 1240
55 1243
55 1286
55 1323
55 1374
55 1452
55 1477
55 1507
55 1534
55 1543
55 1552
55 1589
55 1736
55 1759
55 1830
55 1838
55 1862
55 1934
55 2018
55 2044
55 2053
55 2107
55 2114
55 2152
55 2188
55 2230
55 2243
55 2294
56 62
56 65
56 67
56 77
56 79
56 102
56 103
56 138
56 146
56 189
56 201
56 202
56 233
56 239
56 242
56 247
56 266
56 274
56 287
56 293
56 370
56 408
56 419
56 431
56 446
56 462
56 465
56 472
56 512
56 520
56 565
56 633
56 665
56 679
56 688
56 693
56 704
56 714
56 722
56 748
56 750
56 751
56 753
56 786
56 787
56 790
56 798
56 802
56 819
56 822
56 829
56 848
56 860
56 883
56 908
56 924
56 928
56 951
56 960
56 993
56 1046
56 1056
56 1071
56 1079
56 1085
56 1090
56 1092
56 1094
56 1110
56 1133
56 1143
56 1177
56 1180
56 1203
56 1252
56 1253
56 1254
56 1265
56 1268
56 1269
56 1280
56 1281
56 1308
56 1385
56 1392
56 1398
56 1405
56 1411
56 1424
56 1429
56 1433
56 1434
56 1437
56 1440
56 1457
56 1466
56 1489
56 1513
56 1520
56 1559
56 1563
56 1566
56 1576
56 1579
56 1587
56 1621
56 1685
56 1690
56 1702
56 1716
56 1760
56 1763
56 1769
56 1782
56 1802
56 1810
56 1812
56 1813
56 1825
56 1845
56 1852
56 1859
56 1869
56 1886
56 1888
56 1908
56 1920
56 1931
56 1949
56 1959
56 1963
56 1977
56 1979
56 1980
56 2003
56 2013
56 2024
56 2049
56 2058
56 2060
56 2073
56 2074
56 2104
56 2108
56 2120
56 2143
56 2177
56 2192
56 2195
56 2202
56 2258
56 2273
56 2306
57 92
57 105
57 116
57 157
57 162
57 197
57 253
57 259
57 270
57 380
57 409
57 413
57 453
57 482
57 519
57 550
57 591
57 665
57 681
57 711
57 723
57 729
57 792
57 800
57 813
57 814
57 831
57 864
57 888
57 894
57 1051
57 1061
57 1070
57 1078
57 1170
57 1176
57 1221
57 1265
57 1283
57 1305
57 1308
57 1343
57 1423
57 1444
57 1503
57 1543
57 1546
57 1625
57 1687
57 1689
57 1706
57 1723
57 1751
57 1776
57 1785
57 1792
57 1835
57 1857
57 1874
57 1879
57 1957
57 2008
57 2117
57 2124
57 2258
57 2260
57 2274
58 97
58 128
58 145
58 158
58 267
58 336
58 371
58 384
58 393
58 398
58 420
58 483
58 653
58 664
58 870
58 914
58 957
58 979
58 1022
58 1052
58 1107
58 1183
58 1226
58 1230
58 1239
58 1240
58 1243
58 1266
58 1281
58 1374
58 1402
58 1417
58 1461
58 1551
58 1592
58 1613
58 1616
58 1661
58 1694
58 1696
58 1721
58 1736
58 1791
58 1819
58 1889
58 1898
58 1947
58 1981
58 2001
58 2011
58 2020
58 2038
58 2044
58 2052
58 2178
58 2199
58 2253
59 65
59 74
59 104
59 124
59 160
59 177
59 188
59 210
59 226
59 230
59 246
59 265
59 277
59 315
59 332
59 344
59 362
59 381
59 390
59 410
59 459
59 476
59 505
59 509
59 516
59 584
59 599
59 633
59 645
59 667
59 695
59 747
59 754
59 755
59 760
59 782
59 825
59 836
59 841
59 848
59 850
59 871
59 876
59 898
59 906
59 907
59 947
59 955
59 960
59 970
59 980
59 981
59 983
59 997
59 1015
59 1029
59 1035
59 1058
59 1066
59 1075
59 1104
59 1127
59 1129
59 1161
59 1176
59 1189
59 1200
59 1234
59 1250
59 1256
59 1301
59 1303
59 1329
59 1345
59 1366
59 1375
59 1383
59 1390
59 1425
59 1428
59 1433
59 1440
59 1463
59 1493
59 1504
59 1508
59 1512
59 1547
59 1548
59 1564
59 1573
59 1588
59 1590
59 1671
59 1676
59 1677
59 1697
59 1754
59 1755
59 1782
59 1786
59 1789
59 1793
59 1803
59 1813
59 1818
59 1844
59 1859
59 1880
59 1919
59 1927
59 1939
59 1944
59 1953
59 1954
59 1974
59 2024
59 2037
59 2068
59 2101
59 2147
59 2149
59 2151
59 2154
59 2156
59 2171
59 2184
59 2190
59 2204
59 2220
59 2225
59 2228
59 2232
59 2234
59 2240
59 2244
59 2252
59 2263
59 2272
59 2277
59 2304
59 2311
60 61
60 65
60 78
60 85
60 104
60 146
60 266
60 268
60 271
60 315
60 347
60 405
60 453
60 465
60 472
60 523
60 660
60 673
60 679
60 686
60 714
60 782
60 792
60 813
60 876
60 924
60 946
60 980
60 1010
60 1071
60 1268
60 1281
60 1421
60 1485
60 1520
60 1561
60 1564
60 1573
60 1578
60 1588
60 1676
60 1677
60 1751
60 1771
60 1799
60 1816
60 1836
60 1880
60 1886
60 1896
60 1961
60 1963
60 1979
60 2023
60 2060
60 2151
60 2197
60 2220
60 2240
60 2311
61 65
61 74
61 75
61 104
61 146
61 173
61 212
61 230
61 265
61 266
61 298
61 315
61 327
61 347
61 397
61 405
61 465
61 466
61 476
61 523
61 549
61 585
61 599
61 614
61 647
61 652
61 660
61 673
61 674
61 675
61 679
61 686
61 714
61 752
61 762
61 772
61 782
61 792
61 814
61 848
61 850
61 858
61 860
61 876
61 881
61 906
61 907
61 915
61 920
61 961
61 981
61 1003
61 1010
61 1020
61 1031
61 1063
61 1064
61 1068
61 1078
61 1086
61 1092
61 1110
61 1111
61 1150
61 1161
61 1177
61 1196
61 1198
61 1203
61 1233
61 1241
61 1253
61 1317
61 1421
61 1434
61 1440
61 1450
61 1490
61 1504
61 1508
61 1547
61 1561
61 1578
61 1676
61 1734
61 1743
61 1755
61 1771
61 1790
61 1818
61 1874
61 1896
61 1907
61 1908
61 1921
61 1931
61 1940
61 1953
61 1961
61 1963
61 1989
61 2023
61 2030
61 2037
61 2101
61 2111
61 2116
61 2120
61 2128
61 2149
61 2151
61 2156
61 2160
61 2220
61 2227
61 2240
61 2263
61 2269
61 2277
61 2311
62 111
62 166
62 176
62 182
62 190
62 239
62 258
62 273
62 282
62 327
62 375
62 379
62 407
62 458
62 462
62 472
62 498
62 555
62 596
62 616
62 679
62 681
62 715
62 722
62 728
62 736
62 751
62 781
62 788
62 798
62 803
62 807
62 824
62 833
62 836
62 923
62 928
62 960
62 978
62 981
62 983
62 993
62 1013
62 1020
62 1027
62 1085
62 1092
62 1103
62 1108
62 1110
62 1139
62 1180
62 1200
62 1203
62 1205
62 1253
62 1268
62 1273
62 1348
62 1388
62 1392
62 1396
62 1398
62 1429
62 1440
62 1455
62 1457
62 1466
62 1485
62 1489
62 1508
62 1513
62 1521
62 1563
62 1576
62 1606
62 1670
62 1702
62 1709
62 1780
62 1804
62 1834
62 1869
62 1907
62 1949
62 1974
62 1977
62 1979
62 2024
62 2029
62 2043
62 2045
62 2049
62 2062
62 2068
62 2104
62 2140
62 2187
62 2251
62 2272
62 2304
62 2305
62 2306
63 84
63 130
63 133
63 146
63 173
63 197
63 212
63 228
63 303
63 335
63 388
63 545
63 607
63 665
63 711
63 723
63 750
63 815
63 840
63 849
63 864
63 908
63 935
63 988
63 1039
63 1105
63 1128
63 1176
63 1201
63 1220
63 1221
63 1245
63 1258
63 1265
63 1267
63 1308
63 1312
63 1400
63 1444
63 1535
63 1539
63 1630
63 1774
63 1782
63 1799
63 1872
63 1903
63 1926
63 1931
63 1974
63 1991
63 2007
63 2081
63 2120
63 2138
63 2232
63 2235
63 2236
63 2242
63 2266
64 66
64 86
64 135
64 151
64 157
64 175
64 196
64 213
64 220
64 234
64 236
64 251
64 252
64 253
64 318
64 348
64 365
64 392
64 431
64 437
64 440
64 442
64 443
64 446
64 453
64 468
64 472
64 493
64 494
64 496
64 500
64 524
64 528
64 540
64 550
64 564
64 578
64 602
64 639
64 670
64 693
64 702
64 729
64 730
64 744
64 753
64 792
64 810
64 848
64 863
64 865
64 894
64 898
64 941
64 990
64 1063
64 1071
64 1072
64 1095
64 1121
64 1124
64 1136
64 1149
64 1152
64 1171
64 1177
64 1188
64 1203
64 1219
64 1233
64 1238
64 1269
64 1270
64 1274
64 1283
64 1321
64 1356
64 1364
64 1380
64 1394
64 1409
64 1424
64 1449
64 1485
64 1556
64 1564
64 1615
64 1621
64 1628
64 1676
64 1706
64 1751
64 1767
64 1799
64 1809
64 1870
64 1909
64 1948
64 1996
64 2062
64 2084
64 2088
64 2125
64 2145
64 2167
64 2193
64 2196
64 2212
64 2268
64 2281
64 2289
64 2299
65 66
65 74
65 84
65 85
65 92
65 95
65 119
65 124
65 162
65 173
65 176
65 192
65 201
65 212
65 223
65 230
65 236
65 244
65 253
65 259
65 265
65 268
65 273
65 283
65 295
65 304
65 308
65 311
65 313
65 314
65 320
65 331
65 350
65 371
65 399
65 405
65 408
65 412
65 421
65 422
65 425
65 439
65 441
65 461
65 462
65 466
65 472
65 482
65 487
65 496
65 497
65 504
65 511
65 519
65 525
65 550
65 567
65 570
65 591
65 606
65 607
65 608
65 622
65 623
65 631
65 647
65 649
65 661
65 667
65 673
65 674
65 679
65 685
65 695
65 701
65 708
65 712
65 715
65 747
65 748
65 753
65 755
65 770
65 782
65 787
65 792
65 800
65 808
65 811
65 813
65 814
65 836
65 841
65 853
65 861
65 864
65 874
65 876
65 888
65 898
65 900
65 908
65 920
65 923
65 924
65 928
65 930
65 965
65 969
65 970
65 977
65 978
65 980
65 981
65 998
65 1008
65 1020
65 1024
65 1029
65 1031
65 1038
65 1039
65 1048
65 1050
65 1053
65 1054
65 1062
65 1063
65 1091
65 1093
65 1110
65 1118
65 1136
65 1170
65 1203
65 1212
65 1220
65 1256
65 1265
65 1270
65 1273
65 1274
65 1276
65 1280
65 1282
65 1283
65 1299
65 1301
65 1304
65 1308
65 1318
65 1334
65 1355
65 1358
65 1363
65 1378
65 1387
65 1413
65 1424
65 1432
65 1433
65 1448
65 1466
65 1485
65 1487
65 1488
65 1499
65 1503
65 1505
65 1512
65 1520
65 1533
65 1538
65 1540
65 1561
65 1563
65 1564
65 1578
65 1588
65 1606
65 1611
65 1612
65 1620
65 1621
65 1633
65 1648
65 1650
65 1663
65 1677
65 1679
65 1697
65 1730
65 1755
65 1779
65 1782
65 1790
65 1796
65 1803
65 1804
65 1806
65 1825
65 1831
65 1844
65 1852
65 1858
65 1859
65 1873
65 1874
65 1895
65 1906
65 1907
65 1908
65 1927
65 1928
65 1931
65 1951
65 1957
65 1963
65 1964
65 1969
65 1984
65 1987
65 1995
65 2013
65 2023
65 2025
65 2027
65 2049
65 2056
65 2060
65 2062
65 2070
65 2079
65 2094
65 2108
65 2117
65 2120
65 2121
65 2124
65 2127
65 2133
65 2135
65 2146
65 2154
65 2177
65 2181
65 2182
65 2187
65 2189
65 2191
65 2202
65 2206
65 2213
65 2221
65 2237
65 2246
65 2252
65 2255
65 2260
65 2274
65 2287
65 2296
65 2304
65 2305
65 2308
65 2311
66 69
66 78
66 81
66 85
66 87
66 104
66 113
66 173
66 175
66 201
66 211
66 216
66 217
66 242
66 253
66 266
66 273
66 305
66 309
66 311
66 320
66 326
66 331
66 350
66 365
66 389
66 392
66 396
66 399
66 404
66 437
66 439
66 441
66 450
66 460
66 472
66 480
66 493
66 494
66 496
66 504
66 505
66 510
66 511
66 521
66 522
66 553
66 555
66 564
66 570
66 572
66 588
66 608
66 624
66 631
66 641
66 642
66 643
66 647
66 665
66 679
66 694
66 701
66 705
66 709
66 712
66 715
66 751
66 753
66 756
66 762
66 763
66 791
66 792
66 806
66 808
66 812
66 831
66 835
66 843
66 846
66 853
66 855
66 879
66 886
66 901
66 919
66 930
66 931
66 965
66 969
66 1020
66 1057
66 1062
66 1064
66 1092
66 1094
66 1110
66 1120
66 1125
66 1130
66 1133
66 1149
66 1189
66 1203
66 1253
66 1268
66 1271
66 1282
66 1296
66 1305
66 1308
66 1326
66 1335
66 1355
66 1358
66 1364
66 1378
66 1387
66 1399
66 1404
66 1411
66 1412
66 1419
66 1432
66 1458
66 1460
66 1466
66 1485
66 1500
66 1503
66 1512
66 1513
66 1521
66 1523
66 1535
66 1538
66 1544
66 1559
66 1564
66 1578
66 1579
66 1580
66 1598
66 1615
66 1620
66 1626
66 1628
66 1630
66 1633
66 1741
66 1743
66 1751
66 1760
66 1767
66 1776
66 1782
66 1785
66 1804
66 1806
66 1857
66 1863
66 1886
66 1890
66 1894
66 1896
66 1907
66 1913
66 1921
66 1927
66 1948
66 1950
66 1963
66 1967
66 1971
66 1975
66 1979
66 1987
66 1995
66 2013
66 2021
66 2022
66 2027
66 2034
66 2049
66 2055
66 2063
66 2073
66 2079
66 2087
66 2111
66 2116
66 2117
66 2127
66 2128
66 2147
66 2195
66 2202
66 2220
66 2298
66 2307
66 2310
66 2312
67 87
67 89
67 102
67 119
67 138
67 143
67 189
67 190
67 202
67 239
67 266
67 287
67 306
67 338
67 343
67 370
67 372
67 387
67 399
67 404
67 419
67 429
67 472
67 498
67 511
67 516
67 532
67 538
67 600
67 610
67 620
67 679
67 688
67 712
67 781
67 786
67 794
67 807
67 829
67 860
67 862
67 883
67 906
67 909
67 923
67 924
67 928
67 951
67 959
67 978
67 1008
67 1013
67 1056
67 1101
67 1103
67 1110
67 1133
67 1177
67 1205
67 1230
67 1251
67 1254
67 1259
67 1281
67 1334
67 1348
67 1355
67 1363
67 1371
67 1373
67 1378
67 1392
67 1424
67 1429
67 1437
67 1457
67 1487
67 1511
67 1513
67 1542
67 1550
67 1563
67 1566
67 1576
67 1606
67 1612
67 1633
67 1638
67 1655
67 1670
67 1676
67 1709
67 1759
67 1769
67 1778
67 1802
67 1828
67 1834
67 1845
67 1848
67 1852
67 1869
67 1886
67 1907
67 1910
67 1919
67 1920
67 1949
67 1963
67 1970
67 1974
67 1999
67 2029
67 2034
67 2043
67 2058
67 2059
67 2060
67 2062
67 2073
67 2075
67 2163
67 2195
67 2254
67 2273
67 2296
68 76
68 158
68 267
68 595
68 621
68 657
68 757
68 771
68 1146
68 1239
68 1272
68 1293
68 1346
68 1374
68 1485
68 1534
68 1592
68 1610
68 1696
68 2052
68 2230
68 2256
68 2287
69 113
69 217
69 409
69 437
69 450
69 472
69 480
69 513
69 522
69 567
69 613
69 665
69 694
69 735
69 741
69 748
69 767
69 780
69 792
69 835
69 843
69 848
69 853
69 874
69 879
69 888
69 934
69 954
69 1057
69 1062
69 1094
69 1120
69 1125
69 1247
69 1281
69 1305
69 1308
69 1326
69 1410
69 1411
69 1423
69 1424
69 1446
69 1491
69 1521
69 1583
69 1760
69 1775
69 1805
69 1823
69 1854
69 1863
69 1873
69 1948
69 2056
69 2066
69 2089
69 2174
69 2183
69 2206
69 2260
69 2275
70 115
70 158
70 182
70 219
70 267
70 309
70 336
70 371
70 394
70 398
70 420
70 451
70 474
70 483
70 489
70 508
70 560
70 561
70 600
70 621
70 622
70 627
70 657
70 664
70 680
70 696
70 740
70 771
70 783
70 790
70 834
70 854
70 867
70 891
70 896
70 914
70 924
70 929
70 946
70 957
70 967
70 995
70 999
70 1052
70 1088
70 1107
70 1114
70 1146
70 1239
70 1240
70 1292
70 1350
70 1351
70 1365
70 1374
70 1402
70 1452
70 1470
70 1525
70 1534
70 1536
70 1551
70 1574
70 1579
70 1592
70 1610
70 1616
70 1696
70 1711
70 1712
70 1736
70 1791
70 1820
70 1830
70 1846
70 1889
70 1898
70 1902
70 2001
70 2002
70 2018
70 2028
70 2044
70 2053
70 2077
70 2091
70 2107
70 2119
70 2199
70 2230
70 2302
71 96
71 119
71 120
71 146
71 161
71 176
71 190
71 248
71 282
71 288
71 315
71 338
71 397
71 446
71 472
71 493
71 497
71 502
71 535
71 570
71 589
71 642
71 654
71 655
71 741
71 756
71 765
71 813
71 818
71 883
71 894
71 932
71 970
71 1004
71 1008
71 1013
71 1016
71 1036
71 1071
71 1085
71 1116
71 1160
71 1170
71 1177
71 1181
71 1205
71 1254
71 1273
71 1296
71 1336
71 1348
71 1352
71 1355
71 1386
71 1393
71 1395
71 1411
71 1430
71 1433
71 1485
71 1511
71 1513
71 1521
71 1571
71 1583
71 1598
71 1606
71 1670
71 1697
71 1713
71 1803
71 1806
71 1834
71 1835
71 1853
71 1899
71 1913
71 1951
71 1953
71 1974
71 1995
71 2022
71 2081
71 2101
71 2151
71 2163
71 2164
71 2166
71 2225
71 2248
71 2252
71 2289
71 2306
72 86
72 87
72 117
72 146
72 159
72 161
72 173
72 176
72 180
72 194
72 203
72 301
72 304
72 305
72 316
72 350
72 368
72 379
72 380
72 389
72 415
72 439
72 461
72 467
72 472
72 493
72 494
72 496
72 503
72 532
72 540
72 543
72 563
72 568
72 570
72 581
72 589
72 594
72 617
72 654
72 701
72 735
72 746
72 756
72 764
72 765
72 778
72 791
72 792
72 812
72 816
72 883
72 884
72 893
72 923
72 932
72 958
72 965
72 970
72 993
72 998
72 1004
72 1011
72 1036
72 1048
72 1085
72 1091
72 1175
72 1177
72 1189
72 1203
72 1206
72 1228
72 1245
72 1252
72 1270
72 1277
72 1281
72 1297
72 1300
72 1332
72 1353
72 1355
72 1364
72 1406
72 1432
72 1435
72 1460
72 1485
72 1493
72 1499
72 1513
72 1514
72 1598
72 1640
72 1668
72 1741
72 1742
72 1829
72 1843
72 1853
72 1866
72 1872
72 1873
72 1874
72 1913
72 1927
72 1964
72 1974
72 1979
72 1990
72 1995
72 2007
72 2022
72 2037
72 2043
72 2057
72 2062
72 2070
72 2081
72 2088
72 2108
72 2115
72 2140
72 2154
72 2163
72 2174
72 2185
72 2192
72 2206
72 2236
72 2252
72 2255
72 2266
72 2289
72 2295
72 2303
72 2304
73 84
73 131
73 160
73 184
73 194
73 212
73 254
73 271
73 290
73 296
73 315
73 335
73 354
73 417
73 427
73 527
73 529
73 534
73 543
73 572
73 635
73 647
73 662
73 666
73 672
73 809
73 866
73 906
73 915
73 961
73 986
73 1003
73 1004
73 1060
73 1089
73 1102
73 1145
73 1148
73 1168
73 1184
73 1189
73 1201
73 1233
73 1352
73 1354
73 1406
73 1438
73 1444
73 1469
73 1549
73 1578
73 1595
73 1609
73 1634
73 1643
73 1669
73 1689
73 1740
73 1750
73 1831
73 1864
73 1870
73 1885
73 1893
73 1908
73 1911
73 1925
73 1951
73 1976
73 1989
73 2007
73 2048
73 2054
73 2057
73 2067
73 2101
73 2111
73 2113
73 2127
73 2170
73 2203
73 2211
73 2254
73 2262
74 75
74 136
74 176
74 210
74 226
74 230
74 250
74 277
74 315
74 332
74 390
74 459
74 473
74 487
74 493
74 517
74 535
74 614
74 633
74 755
74 798
74 807
74 836
74 850
74 881
74 907
74 915
74 980
74 981
74 1031
74 1050
74 1075
74 1084
74 1136
74 1168
74 1233
74 1256
74 1352
74 1361
74 1375
74 1428
74 1463
74 1493
74 1504
74 1508
74 1561
74 1650
74 1671
74 1708
74 1755
74 1790
74 1796
74 1818
74 1848
74 1874
74 1913
74 1932
74 1953
74 1954
74 1989
74 2023
74 2037
74 2068
74 2101
74 2149
74 2156
74 2203
74 2220
74 2223
74 2227
74 2258
74 2261
74 2265
74 2269
74 2277
74 2295
74 2304
75 79
75 95
75 173
75 176
75 212
75 230
75 244
75 259
75 283
75 311
75 315
75 320
75 332
75 346
75 356
75 370
75 382
75 397
75 463
75 482
75 525
75 531
75 614
75 623
75 633
75 640
75 706
75 748
75 782
75 839
75 883
75 906
75 961
75 970
75 981
75 1058
75 1060
75 1066
75 1068
75 1075
75 1084
75 1159
75 1176
75 1250
75 1253
75 1270
75 1273
75 1297
75 1299
75 1327
75 1340
75 1433
75 1440
75 1442
75 1466
75 1489
75 1499
75 1505
75 1561
75 1571
75 1634
75 1650
75 1727
75 1730
75 1734
75 1737
75 1786
75 1803
75 1812
75 1813
75 1818
75 1825
75 1844
75 1848
75 1874
75 1921
75 1931
75 1935
75 1953
75 1954
75 1974
75 1991
75 2037
75 2113
75 2120
75 2128
75 2156
75 2177
75 2206
75 2219
75 2227
75 2234
75 2252
75 2260
75 2263
75 2265
75 2311
76 80
76 145
76 158
76 267
76 401
76 472
76 483
76 486
76 489
76 578
76 595
76 621
76 646
76 657
76 658
76 680
76 693
76 735
76 799
76 824
76 863
76 925
76 1025
76 1071
76 1157
76 1183
76 1272
76 1346
76 1374
76 1404
76 1477
76 1485
76 1534
76 1579
76 1580
76 1582
76 1589
76 1592
76 1647
76 1711
76 1757
76 1759
76 1767
76 1846
76 1938
76 1988
76 2001
76 2043
76 2044
76 2052
76 2062
76 2175
76 2197
76 2199
76 2230
77 83
77 85
77 143
77 180
77 236
77 285
77 293
77 310
77 315
77 380
77 427
77 511
77 575
77 691
77 732
77 750
77 751
77 785
77 822
77 837
77 888
77 908
77 972
77 993
77 998
77 1051
77 1082
77 1167
77 1171
77 1186
77 1225
77 1233
77 1304
77 1311
77 1343
77 1371
77 1384
77 1392
77 1415
77 1432
77 1520
77 1533
77 1563
77 1568
77 1586
77 1595
77 1612
77 1621
77 1633
77 1675
77 1718
77 1778
77 1815
77 1885
77 1979
77 1986
77 2049
77 2057
77 2108
77 2140
77 2162
78 128
78 145
78 289
78 457
78 472
78 643
78 646
78 679
78 749
78 851
78 882
78 999
78 1099
78 1126
78 1131
78 1133
78 1202
78 1282
78 1350
78 1469
78 1470
78 1477
78 1547
78 1614
78 1735
78 1768
78 1816
78 1819
78 1834
78 1912
78 1921
78 1927
78 1961
78 2001
78 2049
78 2052
78 2114
78 2158
78 2256
78 2304
79 122
79 124
79 183
79 188
79 193
79 226
79 254
79 283
79 289
79 313
79 320
79 323
79 330
79 332
79 345
79 379
79 397
79 453
79 476
79 529
79 533
79 553
79 567
79 593
79 616
79 633
79 747
79 782
79 786
79 830
79 836
79 837
79 855
79 864
79 871
79 894
79 900
79 906
79 918
79 932
79 947
79 980
79 983
79 996
79 1029
79 1073
79 1074
79 1075
79 1077
79 1082
79 1084
79 1138
79 1145
79 1150
79 1159
79 1171
79 1176
79 1181
79 1184
79 1236
79 1258
79 1281
79 1299
79 1301
79 1304
79 1308
79 1333
79 1354
79 1361
79 1413
79 1423
79 1425
79 1433
79 1440
79 1448
79 1450
79 1466
79 1492
79 1493
79 1503
79 1544
79 1576
79 1590
79 1600
79 1684
79 1697
79 1724
79 1727
79 1755
79 1779
79 1786
79 1796
79 1803
79 1804
79 1808
79 1825
79 1834
79 1839
79 1845
79 1848
79 1849
79 1859
79 1874
79 1918
79 1931
79 1935
79 1939
79 1963
79 1969
79 1998
79 2008
79 2060
79 2066
79 2072
79 2076
79 2086
79 2094
79 2104
79 2113
79 2120
79 2128
79 2151
79 2215
79 2234
79 2242
79 2252
79 2254
79 2263
79 2265
79 2304
80 88
80 112
80 213
80 285
80 383
80 440
80 445
80 460
80 472
80 479
80 493
80 494
80 504
80 512
80 528
80 540
80 550
80 562
80 581
80 589
80 602
80 744
80 823
80 875
80 877
80 930
80 970
80 975
80 991
80 1002
80 1094
80 1096
80 1124
80 1152
80 1186
80 1220
80 1246
80 1265
80 1276
80 1281
80 1310
80 1364
80 1409
80 1411
80 1485
80 1520
80 1556
80 1672
80 1680
80 1821
80 1828
80 1870
80 1873
80 2000
80 2082
80 2089
80 2143
80 2175
80 2183
80 2299
81 113
81 146
81 166
81 201
81 202
81 233
81 266
81 315
81 346
81 347
81 404
81 407
81 419
81 430
81 437
81 439
81 446
81 455
81 465
81 509
81 510
81 535
81 537
81 546
81 630
81 643
81 648
81 679
81 693
81 718
81 788
81 797
81 798
81 829
81 833
81 840
81 883
81 928
81 1001
81 1050
81 1103
81 1130
81 1133
81 1143
81 1169
81 1182
81 1241
81 1251
81 1308
81 1323
81 1332
81 1392
81 1434
81 1563
81 1605
81 1679
81 1685
81 1690
81 1824
81 1845
81 1868
81 1873
81 1963
81 2008
81 2030
81 2045
81 2065
81 2073
81 2108
81 2123
81 2143
81 2198
81 2295
82 99
82 229
82 307
82 331
82 336
82 337
82 400
82 436
82 483
82 646
82 889
82 905
82 946
82 1062
82 1194
82 1316
82 1338
82 1374
82 1408
82 1417
82 1507
82 1534
82 1553
82 1589
82 1705
82 1791
82 1819
82 2001
82 2006
82 2044
82 2136
82 2218
83 84
83 143
83 173
83 180
83 190
83 260
83 293
83 305
83 310
83 363
83 373
83 380
83 427
83 475
83 513
83 610
83 613
83 641
83 655
83 684
83 732
83 746
83 751
83 765
83 837
83 849
83 853
83 864
83 923
83 972
83 988
83 998
83 1004
83 1049
83 1051
83 1082
83 1105
83 1122
83 1167
83 1186
83 1305
83 1355
83 1358
83 1384
83 1387
83 1415
83 1473
83 1500
83 1520
83 1531
83 1533
83 1539
83 1546
83 1568
83 1586
83 1598
83 1630
83 1632
83 1633
83 1660
83 1774
83 1815
83 1873
83 1885
83 1926
83 1964
83 1974
83 1986
83 1992
83 2012
83 2037
83 2057
83 2087
83 2162
83 2182
83 2190
83 2236
84 116
84 127
84 130
84 133
84 135
84 140
84 142
84 146
84 149
84 155
84 161
84 163
84 169
84 180
84 183
84 187
84 190
84 192
84 194
84 201
84 215
84 227
84 228
84 252
84 253
84 256
84 271
84 294
84 308
84 310
84 315
84 331
84 335
84 341
84 342
84 343
84 364
84 383
84 388
84 392
84 408
84 413
84 423
84 431
84 437
84 441
84 452
84 453
84 458
84 462
84 466
84 472
84 479
84 493
84 512
84 513
84 523
84 528
84 533
84 534
84 550
84 563
84 579
84 593
84 601
84 629
84 633
84 640
84 642
84 652
84 658
84 672
84 693
84 702
84 707
84 708
84 709
84 711
84 712
84 735
84 742
84 753
84 756
84 767
84 769
84 784
84 793
84 800
84 815
84 816
84 824
84 832
84 840
84 848
84 861
84 864
84 865
84 866
84 874
84 879
84 883
84 884
84 898
84 908
84 910
84 912
84 924
84 930
84 932
84 949
84 950
84 951
84 956
84 960
84 961
84 970
84 984
84 988
84 998
84 1004
84 1009
84 1012
84 1021
84 1027
84 1071
84 1072
84 1094
84 1102
84 1103
84 1105
84 1106
84 1111
84 1120
84 1124
84 1148
84 1152
84 1158
84 1166
84 1176
84 1177
84 1188
84 1203
84 1204
84 1211
84 1214
84 1216
84 1221
84 1234
84 1244
84 1262
84 1287
84 1292
84 1297
84 1299
84 1310
84 1329
84 1354
84 1358
84 1364
84 1372
84 1384
84 1389
84 1394
84 1409
84 1415
84 1424
84 1442
84 1451
84 1464
84 1485
84 1491
84 1495
84 1496
84 1516
84 1520
84 1535
84 1538
84 1539
84 1554
84 1556
84 1562
84 1579
84 1581
84 1612
84 1615
84 1621
84 1625
84 1663
84 1683
84 1687
84 1693
84 1716
84 1717
84 1740
84 1748
84 1765
84 1770
84 1792
84 1793
84 1809
84 1815
84 1817
84 1821
84 1824
84 1844
84 1845
84 1854
84 1864
84 1873
84 1903
84 1908
84 1909
84 1921
84 1925
84 1931
84 1936
84 1938
84 1951
84 1956
84 1957
84 1959
84 1965
84 1984
84 2027
84 2043
84 2046
84 2051
84 2067
84 2089
84 2095
84 2098
84 2144
84 2146
84 2147
84 2160
84 2164
84 2175
84 2177
84 2186
84 2187
84 2198
84 2203
84 2210
84 2212
84 2225
84 2229
84 2232
84 2236
84 2237
84 2252
84 2255
84 2264
84 2269
84 2288
84 2289
85 137
85 157
85 210
85 216
85 253
85 259
85 319
85 334
85 338
85 342
85 368
85 376
85 385
85 388
85 406
85 439
85 445
85 453
85 460
85 461
85 487
85 490
85 497
85 499
85 504
85 511
85 512
85 514
85 525
85 527
85 530
85 575
85 579
85 580
85 590
85 608
85 613
85 642
85 683
85 694
85 701
85 715
85 735
85 743
85 756
85 765
85 767
85 792
85 800
85 831
85 853
85 864
85 874
85 898
85 919
85 930
85 932
85 944
85 950
85 954
85 956
85 961
85 972
85 977
85 984
85 1020
85 1050
85 1062
85 1085
85 1091
85 1092
85 1118
85 1137
85 1166
85 1167
85 1175
85 1206
85 1222
85 1233
85 1242
85 1244
85 1280
85 1282
85 1283
85 1308
85 1315
85 1339
85 1341
85 1355
85 1358
85 1403
85 1404
85 1405
85 1485
85 1503
85 1512
85 1519
85 1520
85 1530
85 1538
85 1539
85 1540
85 1544
85 1557
85 1564
85 1575
85 1583
85 1584
85 1594
85 1611
85 1620
85 1637
85 1639
85 1679
85 1685
85 1689
85 1690
85 1713
85 1717
85 1723
85 1745
85 1746
85 1752
85 1776
85 1783
85 1798
85 1799
85 1806
85 1835
85 1842
85 1843
85 1853
85 1858
85 1864
85 1871
85 1873
85 1879
85 1927
85 1928
85 1931
85 1951
85 1957
85 1974
85 1986
85 1987
85 2005
85 2008
85 2013
85 2017
85 2022
85 2027
85 2036
85 2046
85 2089
85 2100
85 2105
85 2113
85 2115
85 2117
85 2124
85 2133
85 2174
85 2185
85 2221
85 2245
85 2260
85 2264
85 2268
85 2281
85 2292
85 2298
85 2308
86 92
86 118
86 142
86 180
86 201
86 213
86 234
86 252
86 260
86 301
86 308
86 342
86 392
86 423
86 431
86 433
86 437
86 440
86 443
86 446
86 468
86 472
86 493
86 494
86 496
86 500
86 512
86 538
86 540
86 550
86 562
86 570
86 585
86 588
86 589
86 592
86 601
86 682
86 701
86 729
86 730
86 735
86 776
86 791
86 824
86 831
86 848
86 883
86 884
86 946
86 953
86 956
86 958
86 972
86 990
86 1010
86 1030
86 1036
86 1064
86 1095
86 1124
86 1149
86 1169
86 1188
86 1193
86 1219
86 1238
86 1270
86 1274
86 1281
86 1292
86 1362
86 1364
86 1380
86 1405
86 1485
86 1499
86 1680
86 1683
86 1697
86 1741
86 1844
86 1873
86 1901
86 1908
86 1995
86 2089
86 2125
86 2129
86 2175
86 2182
86 2210
86 2225
86 2249
86 2268
86 2299
87 159
87 161
87 172
87 176
87 180
87 210
87 213
87 216
87 236
87 242
87 248
87 273
87 275
87 287
87 293
87 316
87 320
87 331
87 343
87 365
87 389
87 399
87 411
87 439
87 446
87 450
87 472
87 494
87 496
87 504
87 505
87 540
87 550
87 570
87 579
87 630
87 633
87 647
87 654
87 656
87 658
87 660
87 694
87 701
87 705
87 709
87 741
87 746
87 756
87 763
87 765
87 778
87 792
87 841
87 848
87 855
87 861
87 893
87 923
87 954
87 978
87 996
87 998
87 1004
87 1008
87 1010
87 1016
87 1019
87 1036
87 1054
87 1066
87 1091
87 1095
87 1110
87 1160
87 1203
87 1259
87 1281
87 1297
87 1323
87 1335
87 1355
87 1393
87 1404
87 1411
87 1424
87 1435
87 1443
87 1458
87 1512
87 1514
87 1538
87 1560
87 1563
87 1583
87 1598
87 1606
87 1612
87 1621
87 1659
87 1670
87 1676
87 1713
87 1741
87 1743
87 1771
87 1828
87 1829
87 1834
87 1835
87 1890
87 1894
87 1913
87 1927
87 1950
87 1964
87 1979
87 1992
87 1995
87 2022
87 2037
87 2058
87 2062
87 2068
87 2071
87 2073
87 2079
87 2081
87 2167
87 2175
87 2213
87 2220
87 2225
87 2236
88 112
88 260
88 445
88 518
88 540
88 672
88 902
88 954
88 1118
88 1193
88 1238
88 1244
88 1377
88 1394
88 1404
88 1411
88 1564
88 1870
88 1879
88 2000
88 2102
88 2174
88 2264
89 95
89 102
89 110
89 124
89 247
89 419
89 509
89 532
89 559
89 567
89 606
89 640
89 696
89 704
89 706
89 755
89 787
89 798
89 829
89 830
89 862
89 883
89 892
89 909
89 938
89 1146
89 1159
89 1185
89 1198
89 1212
89 1273
89 1309
89 1357
89 1371
89 1373
89 1385
89 1398
89 1433
89 1437
89 1450
89 1457
89 1466
89 1487
89 1489
89 1563
89 1576
89 1590
89 1676
89 1802
89 1812
89 1813
89 1825
89 1834
89 1840
89 1844
89 1852
89 1874
89 1907
89 1918
89 1919
89 1935
89 1949
89 1956
89 2003
89 2019
89 2021
89 2024
89 2034
89 2059
89 2066
89 2073
89 2112
89 2120
89 2134
89 2144
89 2177
89 2195
89 2206
89 2228
89 2272
89 2295
89 2305
89 2306
90 190
90 321
90 432
90 453
90 601
90 676
90 753
90 756
90 968
90 1188
90 1221
90 1344
90 1444
90 1496
90 1530
90 1554
90 1560
90 2031
90 2089
90 2161
90 2190
90 2271
91 126
91 139
91 169
91 190
91 209
91 228
91 252
91 280
91 315
91 332
91 341
91 425
91 472
91 529
91 593
91 633
91 645
91 672
91 676
91 685
91 707
91 743
91 798
91 805
91 819
91 848
91 850
91 876
91 880
91 915
91 986
91 1003
91 1039
91 1058
91 1106
91 1128
91 1137
91 1189
91 1232
91 1280
91 1309
91 1329
91 1337
91 1354
91 1398
91 1416
91 1495
91 1504
91 1505
91 1515
91 1561
91 1563
91 1576
91 1578
91 1590
91 1724
91 1755
91 1772
91 1774
91 1788
91 1825
91 1831
91 1848
91 1874
91 1878
91 1911
91 1921
91 1925
91 1931
91 1953
91 1982
91 1984
91 1992
91 2068
91 2120
91 2127
91 2156
91 2171
91 2226
91 2242
91 2265
91 2267
91 2277
91 2288
92 96
92 107
92 124
92 133
92 157
92 161
92 173
92 189
92 190
92 192
92 201
92 223
92 231
92 239
92 242
92 253
92 259
92 260
92 268
92 270
92 281
92 293
92 308
92 321
92 350
92 383
92 385
92 406
92 412
92 423
92 439
92 443
92 448
92 461
92 468
92 513
92 519
92 521
92 538
92 579
92 610
92 616
92 642
92 655
92 696
92 698
92 701
92 714
92 715
92 732
92 741
92 746
92 751
92 756
92 760
92 771
92 813
92 814
92 831
92 861
92 864
92 875
92 876
92 888
92 893
92 904
92 910
92 919
92 932
92 961
92 968
92 972
92 1038
92 1051
92 1070
92 1078
92 1094
92 1114
92 1117
92 1127
92 1139
92 1167
92 1170
92 1177
92 1204
92 1244
92 1265
92 1283
92 1299
92 1305
92 1311
92 1324
92 1355
92 1372
92 1387
92 1392
92 1439
92 1462
92 1469
92 1485
92 1518
92 1520
92 1521
92 1533
92 1535
92 1554
92 1557
92 1570
92 1581
92 1639
92 1661
92 1678
92 1679
92 1685
92 1693
92 1713
92 1723
92 1741
92 1752
92 1753
92 1776
92 1782
92 1816
92 1842
92 1862
92 1864
92 1872
92 1873
92 1879
92 1886
92 1903
92 1908
92 1928
92 1962
92 1974
92 2073
92 2082
92 2084
92 2120
92 2125
92 2133
92 2181
92 2182
92 2213
92 2222
92 2237
92 2249
92 2260
92 2271
92 2274
92 2287
92 2295
92 2301
93 184
93 217
93 293
93 412
93 437
93 503
93 504
93 513
93 522
93 809
93 812
93 835
93 853
93 879
93 893
93 1048
93 1125
93 1268
93 1305
93 1462
93 1521
93 1626
93 1643
93 1775
93 1885
94 156
94 227
94 380
94 427
94 454
94 522
94 572
94 594
94 609
94 617
94 701
94 872
94 930
94 1165
94 1175
94 1277
94 1353
94 1360
94 1668
94 1726
94 2057
94 2161
95 124
95 146
95 150
95 162
95 176
95 230
95 244
95 247
95 271
95 313
95 315
95 320
95 332
95 397
95 419
95 423
95 516
95 525
95 531
95 553
95 567
95 599
95 633
95 673
95 674
95 708
95 755
95 787
95 798
95 829
95 850
95 938
95 960
95 980
95 1015
95 1035
95 1075
95 1084
95 1086
95 1090
95 1150
95 1159
95 1185
95 1233
95 1250
95 1265
95 1281
95 1301
95 1312
95 1332
95 1340
95 1361
95 1398
95 1405
95 1420
95 1433
95 1437
95 1440
95 1450
95 1499
95 1505
95 1561
95 1563
95 1590
95 1611
95 1650
95 1716
95 1730
95 1737
95 1755
95 1771
95 1782
95 1786
95 1787
95 1803
95 1812
95 1813
95 1825
95 1840
95 1846
95 1848
95 1852
95 1874
95 1918
95 1919
95 1995
95 2024
95 2037
95 2049
95 2066
95 2069
95 2111
95 2120
95 2156
95 2177
95 2204
95 2206
95 2252
95 2265
95 2295
95 2304
96 105
96 119
96 120
96 133
96 139
96 155
96 190
96 210
96 221
96 223
96 234
96 263
96 268
96 270
96 274
96 289
96 304
96 306
96 320
96 387
96 413
96 425
96 440
96 443
96 463
96 467
96 482
96 494
96 497
96 513
96 519
96 547
96 550
96 558
96 565
96 567
96 571
96 579
96 581
96 587
96 602
96 624
96 629
96 639
96 668
96 672
96 677
96 685
96 702
96 710
96 721
96 725
96 737
96 741
96 756
96 759
96 770
96 776
96 800
96 813
96 814
96 816
96 819
96 848
96 864
96 874
96 883
96 898
96 908
96 912
96 917
96 922
96 928
96 951
96 961
96 970
96 971
96 972
96 975
96 977
96 1008
96 1037
96 1038
96 1044
96 1058
96 1078
96 1098
96 1116
96 1117
96 1138
96 1143
96 1155
96 1166
96 1170
96 1181
96 1191
96 1211
96 1219
96 1225
96 1265
96 1270
96 1273
96 1276
96 1281
96 1297
96 1299
96 1327
96 1329
96 1337
96 1340
96 1372
96 1393
96 1425
96 1428
96 1430
96 1448
96 1482
96 1513
96 1518
96 1520
96 1535
96 1564
96 1571
96 1583
96 1587
96 1590
96 1600
96 1625
96 1648
96 1663
96 1667
96 1668
96 1680
96 1687
96 1703
96 1716
96 1738
96 1793
96 1814
96 1825
96 1842
96 1845
96 1849
96 1853
96 1854
96 1857
96 1868
96 1882
96 1895
96 1931
96 1951
96 1965
96 1991
96 2001
96 2023
96 2037
96 2046
96 2056
96 2075
96 2089
96 2103
96 2113
96 2118
96 2151
96 2185
96 2187
96 2193
96 2221
96 2225
96 2237
96 2242
96 2245
96 2258
96 2260
96 2274
96 2296
97 145
97 158
97 246
97 267
97 309
97 324
97 337
97 393
97 451
97 465
97 489
97 561
97 610
97 612
97 622
97 657
97 724
97 799
97 857
97 895
97 896
97 914
97 962
97 1076
97 1131
97 1183
97 1230
97 1237
97 1239
97 1286
97 1306
97 1374
97 1434
97 1452
97 1477
97 1486
97 1543
97 1592
97 1596
97 1610
97 1666
97 1721
97 1736
97 1816
97 1819
97 1847
97 1848
97 1898
97 2001
97 2044
97 2137
97 2199
97 2230
97 2239
97 2287
98 376
98 1135
98 1156
98 1164
98 1265
98 1440
98 1706
98 1720
98 2135
98 2308
99 158
99 178
99 229
99 278
99 337
99 392
99 400
99 402
99 428
99 508
99 634
99 646
99 664
99 671
99 680
99 709
99 783
99 854
99 905
99 946
99 995
99 1047
99 1080
99 1081
99 1109
99 1114
99 1123
99 1226
99 1266
99 1272
99 1320
99 1338
99 1365
99 1386
99 1408
99 1507
99 1574
99 1592
99 1651
99 1652
99 1705
99 1746
99 1758
99 1826
99 1861
99 1905
99 1937
99 1943
99 2006
99 2044
99 2080
99 2137
99 2155
99 2302
100 110
100 686
101 122
101 124
101 126
101 133
101 157
101 176
101 210
101 212
101 215
101 227
101 250
101 259
101 315
101 332
101 368
101 370
101 379
101 397
101 416
101 417
101 421
101 462
101 473
101 487
101 534
101 567
101 584
101 590
101 591
101 610
101 623
101 652
101 676
101 711
101 712
101 738
101 743
101 785
101 800
101 808
101 815
101 825
101 848
101 850
101 861
101 906
101 918
101 919
101 961
101 977
101 1050
101 1063
101 1111
101 1137
101 1140
101 1155
101 1204
101 1208
101 1265
101 1280
101 1337
101 1340
101 1343
101 1361
101 1416
101 1423
101 1425
101 1428
101 1439
101 1440
101 1444
101 1451
101 1471
101 1502
101 1505
101 1515
101 1535
101 1557
101 1561
101 1581
101 1583
101 1590
101 1611
101 1637
101 1669
101 1671
101 1679
101 1706
101 1708
101 1715
101 1717
101 1755
101 1771
101 1784
101 1786
101 1792
101 1818
101 1825
101 1831
101 1848
101 1849
101 1850
101 1864
101 1879
101 1888
101 1903
101 1908
101 1911
101 1921
101 1931
101 1986
101 2023
101 2066
101 2084
101 2146
101 2148
101 2150
101 2156
101 2160
101 2206
101 2245
101 2260
101 2261
101 2264
101 2265
101 2274
101 2288
102 191
102 202
102 219
102 230
102 233
102 239
102 244
102 247
102 255
102 273
102 311
102 320
102 332
102 370
102 381
102 404
102 419
102 439
102 458
102 465
102 506
102 534
102 592
102 616
102 688
102 704
102 777
102 787
102 798
102 829
102 830
102 862
102 906
102 924
102 928
102 938
102 983
102 1074
102 1110
102 1133
102 1198
102 1220
102 1253
102 1254
102 1281
102 1309
102 1348
102 1357
102 1361
102 1371
102 1378
102 1385
102 1388
102 1392
102 1398
102 1434
102 1440
102 1466
102 1483
102 1487
102 1489
102 1552
102 1563
102 1576
102 1579
102 1615
102 1645
102 1676
102 1755
102 1771
102 1779
102 1796
102 1804
102 1825
102 1834
102 1848
102 1852
102 1869
102 1895
102 1919
102 1921
102 1932
102 1935
102 1949
102 1956
102 1963
102 1969
102 1977
102 2003
102 2024
102 2029
102 2058
102 2065
102 2072
102 2076
102 2104
102 2143
102 2144
102 2147
102 2158
102 2228
102 2265
102 2273
103 119
103 146
103 189
103 201
103 265
103 274
103 311
103 351
103 359
103 362
103 381
103 405
103 461
103 481
103 502
103 520
103 559
103 565
103 648
103 658
103 667
103 673
103 683
103 714
103 760
103 761
103 782
103 787
103 814
103 836
103 841
103 907
103 909
103 924
103 980
103 991
103 1015
103 1029
103 1053
103 1071
103 1185
103 1200
103 1241
103 1254
103 1256
103 1262
103 1271
103 1281
103 1341
103 1348
103 1420
103 1469
103 1573
103 1579
103 1580
103 1588
103 1645
103 1677
103 1679
103 1754
103 1760
103 1763
103 1812
103 1822
103 1828
103 1841
103 1845
103 1859
103 1867
103 1880
103 1883
103 1896
103 1908
103 1963
103 1980
103 2019
103 2021
103 2024
103 2045
103 2068
103 2074
103 2104
103 2147
103 2151
103 2154
103 2204
103 2240
103 2244
103 2284
103 2306
103 2311
104 111
104 124
104 161
104 176
104 180
104 193
104 201
104 216
104 288
104 299
104 320
104 351
104 354
104 405
104 423
104 425
104 453
104 476
104 493
104 589
104 593
104 633
104 643
104 647
104 701
104 714
104 755
104 756
104 762
104 782
104 786
104 792
104 848
104 871
104 876
104 881
104 894
104 946
104 961
104 965
104 980
104 981
104 1004
104 1019
104 1029
104 1062
104 1066
104 1078
104 1086
104 1142
104 1175
104 1177
104 1181
104 1196
104 1215
104 1228
104 1256
104 1267
104 1268
104 1274
104 1279
104 1281
104 1335
104 1345
104 1355
104 1364
104 1375
104 1383
104 1396
104 1411
104 1421
104 1435
104 1488
104 1490
104 1493
104 1499
104 1505
104 1508
104 1513
104 1514
104 1538
104 1547
104 1578
104 1588
104 1590
104 1598
104 1621
104 1625
104 1635
104 1650
104 1677
104 1679
104 1697
104 1751
104 1771
104 1790
104 1793
104 1825
104 1848
104 1873
104 1874
104 1899
104 1908
104 1919
104 1931
104 1950
104 1951
104 1953
104 1954
104 1963
104 1974
104 1991
104 2023
104 2037
104 2060
104 2068
104 2069
104 2111
104 2127
104 2147
104 2151
104 2154
104 2156
104 2204
104 2220
104 2225
104 2252
104 2292
104 2304
105 124
105 136
105 157
105 162
105 184
105 208
105 236
105 264
105 290
105 368
105 391
105 412
105 437
105 440
105 443
105 453
105 466
105 482
105 517
105 527
105 539
105 550
105 563
105 572
105 580
105 594
105 601
105 635
105 639
105 748
105 753
105 776
105 819
105 831
105 845
105 848
105 912
105 936
105 956
105 990
105 1048
105 1165
105 1206
105 1219
105 1265
105 1322
105 1327
105 1503
105 1505
105 1549
105 1554
105 1578
105 1583
105 1669
105 1675
105 1687
105 1738
105 1761
105 1776
105 1787
105 1853
105 1859
105 1881
105 1903
105 1961
105 2017
105 2069
105 2089
105 2094
105 2098
105 2121
105 2127
105 2135
105 2148
105 2151
105 2170
105 2180
105 2185
105 2260
105 2262
106 198
106 287
106 430
106 460
106 468
106 545
106 581
106 589
106 609
106 643
106 677
106 680
106 683
106 701
106 791
106 872
106 930
106 965
106 1023
106 1169
106 1175
106 1668
106 1684
106 1705
106 1726
106 1814
106 1873
106 1896
106 1915
106 1922
106 2006
106 2116
106 2129
106 2143
106 2309
107 146
107 373
107 385
107 404
107 513
107 563
107 884
107 1050
107 1133
107 1274
107 1300
107 1653
107 1723
107 1771
107 1873
107 1953
107 2308
108 128
108 158
108 267
108 336
108 339
108 349
108 392
108 398
108 436
108 483
108 595
108 600
108 680
108 757
108 790
108 799
108 834
108 856
108 867
108 914
108 943
108 1025
108 1033
108 1047
108 1052
108 1100
108 1157
108 1178
108 1183
108 1223
108 1240
108 1263
108 1291
108 1351
108 1374
108 1405
108 1543
108 1552
108 1589
108 1592
108 1613
108 1666
108 1721
108 1757
108 1758
108 1797
108 1819
108 1832
108 1847
108 1898
108 1938
108 1943
108 1985
108 2001
108 2011
108 2044
108 2061
108 2142
108 2232
108 2239
109 184
109 294
109 418
109 427
109 654
109 918
109 961
109 1089
109 1354
109 1425
109 1775
109 1825
109 1854
109 1866
109 1925
109 1926
109 1950
109 2015
109 2025
109 2057
109 2066
109 2261
110 200
110 228
110 247
110 265
110 306
110 347
110 381
110 419
110 455
110 463
110 465
110 481
110 506
110 509
110 532
110 559
110 606
110 616
110 620
110 686
110 786
110 797
110 824
110 860
110 883
110 900
110 978
110 1068
110 1074
110 1101
110 1110
110 1200
110 1241
110 1254
110 1271
110 1281
110 1333
110 1348
110 1371
110 1373
110 1434
110 1437
110 1487
110 1489
110 1511
110 1542
110 1566
110 1576
110 1645
110 1676
110 1702
110 1709
110 1802
110 1834
110 1852
110 1868
110 1910
110 1918
110 1924
110 1963
110 2003
110 2021
110 2024
110 2059
110 2060
110 2072
110 2073
110 2123
110 2272
110 2296
111 117
111 124
111 287
111 315
111 465
111 472
111 479
111 511
111 555
111 559
111 679
111 683
111 756
111 840
111 863
111 937
111 960
111 1009
111 1022
111 1045
111 1053
111 1071
111 1139
111 1143
111 1151
111 1212
111 1251
111 1283
111 1331
111 1373
111 1388
111 1396
111 1405
111 1424
111 1434
111 1437
111 1550
111 1576
111 1612
111 1646
111 1672
111 1716
111 1825
111 1852
111 1963
111 1980
111 1999
111 2029
111 2093
111 2140
111 2163
111 2192
111 2260
112 143
112 260
112 285
112 380
112 445
112 494
112 540
112 550
112 735
112 954
112 1118
112 1188
112 1377
112 1699
112 2000
113 173
113 189
113 191
113 201
113 213
113 217
113 235
113 258
113 287
113 325
113 331
113 343
113 359
113 364
113 365
113 370
113 392
113 415
113 429
113 433
113 445
113 446
113 450
113 452
113 472
113 478
113 484
113 492
113 499
113 504
113 511
113 522
113 537
113 542
113 586
113 588
113 630
113 642
113 643
113 648
113 655
113 658
113 689
113 691
113 735
113 756
113 780
113 835
113 843
113 853
113 863
113 879
113 883
113 886
113 901
113 923
113 924
113 930
113 959
113 993
113 1024
113 1045
113 1059
113 1062
113 1071
113 1090
113 1094
113 1102
113 1103
113 1110
113 1125
113 1140
113 1174
113 1251
113 1259
113 1275
113 1281
113 1283
113 1285
113 1298
113 1305
113 1325
113 1326
113 1330
113 1334
113 1347
113 1377
113 1387
113 1396
113 1399
113 1405
113 1411
113 1412
113 1424
113 1429
113 1443
113 1491
113 1521
113 1540
113 1542
113 1544
113 1546
113 1565
113 1570
113 1576
113 1580
113 1599
113 1618
113 1626
113 1638
113 1655
113 1672
113 1685
113 1699
113 1760
113 1769
113 1824
113 1828
113 1852
113 1873
113 1890
113 1963
113 1988
113 2051
113 2062
113 2073
113 2132
113 2163
113 2183
113 2307
113 2309
114 124
114 819
114 1159
114 1254
114 1558
114 1734
114 1787
114 2066
115 158
115 165
115 178
115 349
115 374
115 393
115 488
115 493
115 574
115 595
115 691
115 692
115 740
115 749
115 889
115 911
115 943
115 1083
115 1114
115 1157
115 1179
115 1223
115 1374
115 1412
115 1477
115 1538
115 1604
115 1613
115 1622
115 1672
115 1791
115 1820
115 1892
115 1905
115 1970
115 2001
115 2009
115 2011
115 2020
115 2028
115 2044
115 2099
115 2136
115 2198
116 149
116 157
116 217
116 304
116 312
116 421
116 438
116 441
116 453
116 729
116 824
116 861
116 894
116 898
116 1038
116 1188
116 1214
116 1241
116 1265
116 1268
116 1288
116 1485
116 1776
116 1785
116 1793
116 1841
116 1848
116 2101
116 2151
116 2202
116 2232
116 2311
117 146
117 157
117 159
117 201
117 236
117 266
117 287
117 316
117 338
117 415
117 446
117 472
117 484
117 511
117 655
117 665
117 691
117 693
117 705
117 741
117 756
117 759
117 765
117 778
117 792
117 818
117 831
117 863
117 883
117 923
117 977
117 998
117 1004
117 1016
117 1036
117 1045
117 1071
117 1090
117 1092
117 1103
117 1116
117 1151
117 1177
117 1194
117 1281
117 1331
117 1347
117 1355
117 1396
117 1405
117 1467
117 1485
117 1492
117 1513
117 1563
117 1576
117 1598
117 1606
117 1674
117 1716
117 1754
117 1834
117 1853
117 1920
117 1974
117 2022
117 2029
117 2037
117 2043
117 2062
117 2071
117 2117
117 2147
117 2163
117 2192
117 2225
117 2237
117 2295
117 2309
118 151
118 158
118 262
118 342
118 418
118 448
118 507
118 550
118 574
118 580
118 634
118 682
118 750
118 808
118 856
118 1036
118 1052
118 1134
118 1146
118 1506
118 1538
118 1589
118 1592
118 1625
118 1666
118 1937
118 2209
118 2297
119 120
119 138
119 155
119 161
119 176
119 189
119 201
119 230
119 274
119 338
119 354
119 369
119 438
119 461
119 472
119 502
119 520
119 532
119 537
119 547
119 565
119 587
119 592
119 648
119 722
119 725
119 741
119 756
119 759
119 761
119 781
119 787
119 816
119 818
119 860
119 861
119 877
119 909
119 922
119 960
119 971
119 992
119 1009
119 1013
119 1036
119 1101
119 1116
119 1142
119 1143
119 1191
119 1205
119 1211
119 1225
119 1246
119 1251
119 1254
119 1262
119 1270
119 1281
119 1296
119 1393
119 1420
119 1427
119 1430
119 1467
119 1499
119 1511
119 1560
119 1571
119 1579
119 1580
119 1598
119 1600
119 1607
119 1650
119 1684
119 1713
119 1756
119 1806
119 1812
119 1822
119 1824
119 1828
119 1841
119 1845
119 1864
119 1880
119 1883
119 1899
119 1919
119 1927
119 1951
119 1956
119 2003
119 2019
119 2021
119 2022
119 2037
119 2043
119 2055
119 2065
119 2067
119 2068
119 2076
119 2082
119 2104
119 2112
119 2192
119 2206
119 2225
119 2248
119 2255
119 2273
119 2289
119 2305
119 2306
120 138
120 161
120 176
120 210
120 216
120 236
120 244
120 247
120 274
120 282
120 320
120 332
120 338
120 369
120 379
120 383
120 413
120 419
120 438
120 482
120 512
120 537
120 547
120 581
120 589
120 592
120 593
120 623
120 629
120 642
120 725
120 741
120 755
120 756
120 759
120 786
120 791
120 832
120 839
120 852
120 922
120 936
120 937
120 948
120 961
120 970
120 971
120 992
120 996
120 1009
120 1036
120 1054
120 1075
120 1102
120 1142
120 1143
120 1144
120 1211
120 1246
120 1251
120 1270
120 1296
120 1336
120 1340
120 1393
120 1430
120 1433
120 1448
120 1459
120 1497
120 1499
120 1503
120 1514
120 1538
120 1560
120 1566
120 1571
120 1586
120 1598
120 1600
120 1607
120 1650
120 1659
120 1697
120 1713
120 1756
120 1779
120 1803
120 1804
120 1813
120 1825
120 1835
120 1866
120 1873
120 1874
120 1899
120 1925
120 1931
120 1951
120 1956
120 1962
120 1999
120 2003
120 2037
120 2055
120 2060
120 2063
120 2068
120 2071
120 2073
120 2111
120 2168
120 2175
120 2195
120 2221
120 2225
120 2231
120 2248
120 2252
120 2259
120 2305
120 2306
121 195
121 198
121 340
121 600
121 625
121 664
121 679
121 899
121 962
121 1052
121 1099
121 1226
121 1240
121 1414
121 1436
121 1666
121 1736
121 2283
122 124
122 139
122 162
122 176
122 289
122 320
122 373
122 385
122 404
122 417
122 461
122 476
122 515
122 519
122 533
122 534
122 553
122 567
122 584
122 587
122 591
122 610
122 611
122 633
122 685
122 743
122 752
122 754
122 819
122 871
122 932
122 977
122 983
122 1039
122 1063
122 1069
122 1111
122 1133
122 1139
122 1150
122 1168
122 1171
122 1184
122 1194
122 1208
122 1220
122 1281
122 1337
122 1344
122 1425
122 1482
122 1528
122 1537
122 1558
122 1561
122 1569
122 1590
122 1643
122 1667
122 1669
122 1679
122 1703
122 1708
122 1724
122 1743
122 1796
122 1825
122 1849
122 1851
122 1857
122 1921
122 1931
122 1951
122 1966
122 1984
122 2023
122 2037
122 2066
122 2081
122 2097
122 2103
122 2146
122 2203
122 2215
122 2242
122 2254
122 2260
122 2261
122 2265
123 158
123 164
123 392
123 515
123 560
123 625
123 717
123 867
123 1126
123 1243
123 1286
123 1287
123 1391
123 1417
123 1534
123 1574
123 1582
123 1589
123 1602
123 1610
123 1720
123 1820
123 1830
123 1981
123 2001
123 2052
123 2114
123 2155
123 2188
123 2302
124 126
124 130
124 146
124 148
124 162
124 176
124 208
124 210
124 214
124 215
124 225
124 227
124 228
124 244
124 247
124 252
124 259
124 263
124 264
124 270
124 271
124 289
124 315
124 330
124 332
124 346
124 350
124 352
124 358
124 368
124 370
124 382
124 390
124 397
124 410
124 417
124 421
124 425
124 443
124 462
124 471
124 473
124 482
124 497
124 516
124 525
124 531
124 553
124 567
124 584
124 587
124 591
124 599
124 607
124 610
124 611
124 623
124 633
124 640
124 652
124 665
124 673
124 676
124 705
124 706
124 707
124 708
124 710
124 712
124 714
124 736
124 738
124 743
124 746
124 748
124 754
124 755
124 756
124 782
124 785
124 787
124 798
124 800
124 805
124 812
124 814
124 819
124 825
124 829
124 831
124 839
124 840
124 876
124 892
124 918
124 920
124 932
124 944
124 952
124 984
124 986
124 998
124 1038
124 1039
124 1060
124 1062
124 1063
124 1069
124 1070
124 1071
124 1093
124 1104
124 1111
124 1139
124 1159
124 1168
124 1170
124 1171
124 1177
124 1184
124 1185
124 1208
124 1212
124 1225
124 1233
124 1250
124 1265
124 1273
124 1276
124 1280
124 1301
124 1308
124 1329
124 1337
124 1340
124 1345
124 1354
124 1361
124 1388
124 1401
124 1425
124 1433
124 1437
124 1439
124 1440
124 1442
124 1446
124 1450
124 1469
124 1488
124 1497
124 1500
124 1502
124 1505
124 1511
124 1518
124 1538
124 1557
124 1558
124 1561
124 1563
124 1576
124 1581
124 1583
124 1590
124 1609
124 1611
124 1621
124 1634
124 1637
124 1650
124 1667
124 1669
124 1671
124 1703
124 1708
124 1715
124 1717
124 1728
124 1730
124 1734
124 1736
124 1737
124 1738
124 1743
124 1745
124 1755
124 1776
124 1779
124 1782
124 1787
124 1790
124 1793
124 1803
124 1812
124 1813
124 1825
124 1840
124 1844
124 1848
124 1849
124 1852
124 1859
124 1864
124 1869
124 1874
124 1878
124 1879
124 1882
124 1903
124 1918
124 1921
124 1927
124 1935
124 1949
124 1957
124 1973
124 1982
124 1984
124 1991
124 2021
124 2024
124 2037
124 2049
124 2066
124 2070
124 2084
124 2089
124 2092
124 2098
124 2100
124 2109
124 2113
124 2124
124 2133
124 2150
124 2151
124 2160
124 2168
124 2176
124 2177
124 2183
124 2184
124 2206
124 2225
124 2237
124 2245
124 2258
124 2260
124 2261
124 2265
124 2280
124 2306
125 175
125 204
125 325
125 331
125 343
125 408
125 415
125 433
125 446
125 450
125 452
125 472
125 484
125 494
125 499
125 504
125 535
125 588
125 630
125 660
125 661
125 698
125 703
125 749
125 758
125 783
125 786
125 792
125 827
125 883
125 901
125 904
125 954
125 1015
125 1094
125 1100
125 1174
125 1194
125 1259
125 1275
125 1281
125 1324
125 1325
125 1492
125 1565
125 1570
125 1582
125 1618
125 1739
125 1873
125 1890
125 1933
125 1977
125 1999
125 2005
125 2051
125 2062
125 2143
125 2249
126 149
126 162
126 190
126 212
126 215
126 233
126 256
126 269
126 280
126 293
126 332
126 370
126 397
126 419
126 425
126 430
126 462
126 471
126 534
126 599
126 605
126 623
126 633
126 640
126 652
126 669
126 676
126 701
126 704
126 711
126 712
126 738
126 747
126 759
126 760
126 772
126 782
126 798
126 810
126 815
126 825
126 836
126 850
126 861
126 906
126 915
126 945
126 980
126 986
126 1021
126 1035
126 1075
126 1111
126 1127
126 1137
126 1198
126 1200
126 1208
126 1236
126 1256
126 1258
126 1267
126 1268
126 1273
126 1280
126 1299
126 1309
126 1327
126 1337
126 1361
126 1363
126 1385
126 1390
126 1398
126 1411
126 1416
126 1421
126 1433
126 1440
126 1444
126 1482
126 1515
126 1554
126 1561
126 1563
126 1576
126 1578
126 1611
126 1634
126 1676
126 1677
126 1679
126 1708
126 1755
126 1784
126 1786
126 1831
126 1844
126 1848
126 1859
126 1874
126 1888
126 1911
126 1921
126 1949
126 1977
126 1982
126 1984
126 1989
126 1991
126 1992
126 2027
126 2042
126 2046
126 2084
126 2104
126 2120
126 2150
126 2156
126 2160
126 2177
126 2206
126 2215
126 2227
126 2232
126 2245
126 2265
126 2267
126 2288
127 140
127 142
127 154
127 187
127 196
127 201
127 234
127 251
127 252
127 317
127 392
127 408
127 423
127 431
127 437
127 441
127 453
127 512
127 677
127 742
127 848
127 876
127 931
127 940
127 946
127 950
127 998
127 1010
127 1064
127 1095
127 1149
127 1152
127 1180
127 1281
127 1287
127 1288
127 1292
127 1364
127 1405
127 1417
127 1517
127 1556
127 1559
127 1579
127 1621
127 1809
127 1908
127 1959
127 1996
127 2027
127 2151
127 2214
127 2225
127 2233
128 145
128 150
128 158
128 182
128 195
128 219
128 243
128 246
128 247
128 267
128 309
128 370
128 371
128 420
128 457
128 483
128 489
128 541
128 560
128 577
128 595
128 600
128 622
128 625
128 646
128 657
128 680
128 728
128 740
128 771
128 775
128 790
128 828
128 842
128 867
128 870
128 882
128 896
128 914
128 957
128 1052
128 1099
128 1126
128 1131
128 1183
128 1190
128 1239
128 1240
128 1243
128 1278
128 1287
128 1293
128 1306
128 1346
128 1351
128 1374
128 1402
128 1417
128 1436
128 1452
128 1477
128 1486
128 1509
128 1532
128 1536
128 1543
128 1589
128 1592
128 1593
128 1608
128 1610
128 1666
128 1711
128 1720
128 1721
128 1729
128 1736
128 1739
128 1756
128 1819
128 1846
128 1847
128 1875
128 1898
128 1918
128 1949
128 1981
128 2001
128 2011
128 2044
128 2049
128 2052
128 2114
128 2152
128 2188
128 2195
128 2218
128 2239
128 2256
128 2265
128 2278
128 2283
128 2287
128 2302
129 2099
130 149
130 190
130 197
130 256
130 269
130 271
130 284
130 304
130 305
130 310
130 319
130 341
130 368
130 416
130 425
130 435
130 607
130 636
130 676
130 681
130 711
130 723
130 737
130 743
130 750
130 805
130 813
130 815
130 819
130 825
130 861
130 908
130 913
130 915
130 926
130 934
130 935
130 945
130 956
130 969
130 986
130 988
130 1021
130 1043
130 1049
130 1050
130 1063
130 1093
130 1104
130 1105
130 1176
130 1221
130 1232
130 1265
130 1305
130 1308
130 1318
130 1383
130 1387
130 1390
130 1400
130 1401
130 1415
130 1438
130 1439
130 1442
130 1444
130 1451
130 1482
130 1500
130 1502
130 1519
130 1520
130 1521
130 1535
130 1537
130 1538
130 1540
130 1578
130 1581
130 1583
130 1626
130 1634
130 1643
130 1703
130 1775
130 1831
130 1871
130 1891
130 1897
130 1903
130 1911
130 1926
130 1931
130 1974
130 1984
130 1992
130 2007
130 2025
130 2067
130 2138
130 2170
130 2184
130 2245
130 2260
131 227
131 259
131 405
131 417
131 607
131 665
131 673
131 694
131 782
131 902
131 1072
131 1098
131 1117
131 1163
131 1201
131 1218
131 1233
131 1234
131 1354
131 1394
131 1406
131 1503
131 1557
131 1573
131 1708
131 1864
131 1866
131 1870
131 1893
131 2016
131 2048
131 2100
131 2295
132 961
132 1280
132 1389
132 1831
132 1984
133 147
133 190
133 193
133 203
133 236
133 259
133 266
133 269
133 284
133 319
133 341
133 358
133 396
133 399
133 442
133 453
133 462
133 476
133 516
133 519
133 532
133 538
133 593
133 607
133 711
133 750
133 776
133 815
133 831
133 908
133 919
133 923
133 968
133 977
133 988
133 996
133 1004
133 1021
133 1027
133 1070
133 1105
133 1117
133 1128
133 1164
133 1189
133 1201
133 1232
133 1245
133 1252
133 1265
133 1300
133 1332
133 1335
133 1355
133 1368
133 1383
133 1400
133 1404
133 1425
133 1451
133 1471
133 1492
133 1502
133 1503
133 1512
133 1520
133 1523
133 1535
133 1557
133 1583
133 1590
133 1620
133 1630
133 1639
133 1700
133 1706
133 1723
133 1745
133 1751
133 1752
133 1770
133 1774
133 1798
133 1842
133 1864
133 1879
133 1911
133 1926
133 1927
133 1946
133 1983
133 1986
133 1992
133 2007
133 2048
133 2067
133 2138
133 2164
133 2185
133 2235
133 2236
133 2252
133 2271
133 2284
133 2286
134 194
134 217
134 456
134 568
134 774
134 793
134 809
134 1089
134 1148
134 1300
134 1305
134 1451
134 1500
134 1539
134 1643
134 1831
134 1885
134 1908
134 2170
134 2286
135 140
135 142
135 175
135 187
135 196
135 201
135 234
135 252
135 260
135 270
135 348
135 392
135 423
135 431
135 441
135 453
135 493
135 523
135 528
135 550
135 570
135 588
135 597
135 601
135 639
135 702
135 714
135 761
135 822
135 824
135 848
135 924
135 931
135 954
135 1042
135 1064
135 1144
135 1149
135 1152
135 1180
135 1210
135 1229
135 1244
135 1268
135 1287
135 1288
135 1292
135 1358
135 1377
135 1394
135 1538
135 1556
135 1559
135 1579
135 1615
135 1619
135 1621
135 1654
135 1676
135 1697
135 1703
135 1738
135 1751
135 1767
135 1776
135 1809
135 1837
135 1870
135 1938
135 1959
135 1996
135 2016
135 2027
135 2060
135 2089
135 2095
135 2151
135 2166
135 2167
135 2193
135 2202
135 2210
135 2214
135 2225
135 2240
135 2258
135 2264
136 157
136 160
136 193
136 210
136 227
136 236
136 239
136 246
136 250
136 269
136 315
136 459
136 473
136 487
136 517
136 535
136 593
136 614
136 704
136 743
136 772
136 785
136 798
136 881
136 887
136 960
136 981
136 1048
136 1050
136 1136
136 1156
136 1160
136 1161
136 1232
136 1233
136 1289
136 1308
136 1352
136 1398
136 1475
136 1483
136 1493
136 1508
136 1537
136 1564
136 1671
136 1675
136 1708
136 1715
136 1761
136 1783
136 1790
136 1903
136 1931
136 1932
136 1949
136 1953
136 1954
136 2023
136 2101
136 2134
136 2149
136 2151
136 2220
136 2227
136 2240
136 2259
136 2269
136 2277
136 2295
137 190
137 210
137 216
137 252
137 266
137 281
137 299
137 319
137 325
137 361
137 377
137 380
137 461
137 494
137 511
137 521
137 580
137 590
137 594
137 701
137 756
137 782
137 791
137 792
137 923
137 930
137 972
137 998
137 1062
137 1063
137 1092
137 1132
137 1140
137 1164
137 1186
137 1224
137 1251
137 1282
137 1355
137 1361
137 1461
137 1485
137 1503
137 1515
137 1538
137 1564
137 1595
137 1620
137 1743
137 1745
137 1762
137 1786
137 1806
137 1883
137 1928
137 1931
137 1957
137 1962
137 2027
137 2048
137 2069
137 2151
137 2174
137 2202
137 2298
138 146
138 155
138 166
138 189
138 201
138 210
138 212
138 215
138 233
138 247
138 255
138 274
138 332
138 369
138 370
138 374
138 413
138 433
138 446
138 455
138 458
138 472
138 479
138 496
138 506
138 532
138 538
138 555
138 565
138 567
138 587
138 592
138 605
138 616
138 643
138 679
138 688
138 786
138 797
138 798
138 802
138 816
138 830
138 849
138 860
138 877
138 881
138 900
138 924
138 930
138 944
138 950
138 951
138 960
138 991
138 998
138 1001
138 1009
138 1046
138 1056
138 1074
138 1077
138 1084
138 1101
138 1110
138 1143
138 1177
138 1181
138 1205
138 1236
138 1246
138 1251
138 1252
138 1254
138 1258
138 1281
138 1282
138 1332
138 1354
138 1371
138 1411
138 1420
138 1424
138 1427
138 1437
138 1451
138 1466
138 1469
138 1485
138 1493
138 1495
138 1511
138 1513
138 1563
138 1576
138 1600
138 1615
138 1633
138 1646
138 1650
138 1672
138 1690
138 1702
138 1709
138 1727
138 1741
138 1755
138 1763
138 1802
138 1828
138 1835
138 1845
138 1848
138 1860
138 1869
138 1920
138 1921
138 1924
138 1926
138 1931
138 1950
138 1951
138 1977
138 1989
138 1999
138 2029
138 2034
138 2043
138 2051
138 2058
138 2060
138 2082
138 2101
138 2104
138 2143
138 2160
138 2220
138 2272
138 2273
138 2296
138 2303
138 2304
138 2306
139 149
139 163
139 174
139 183
139 190
139 209
139 252
139 256
139 280
139 330
139 332
139 335
139 341
139 345
139 410
139 413
139 472
139 501
139 533
139 534
139 623
139 640
139 645
139 672
139 676
139 707
139 711
139 761
139 784
139 805
139 864
139 880
139 922
139 944
139 971
139 982
139 986
139 998
139 1039
139 1044
139 1049
139 1060
139 1073
139 1077
139 1116
139 1137
139 1143
139 1171
139 1220
139 1236
139 1258
139 1280
139 1327
139 1340
139 1354
139 1415
139 1416
139 1442
139 1495
139 1496
139 1505
139 1515
139 1554
139 1611
139 1634
139 1703
139 1724
139 1772
139 1784
139 1787
139 1789
139 1799
139 1809
139 1825
139 1849
139 1851
139 1878
139 1911
139 1931
139 1982
139 1984
139 2151
139 2174
139 2177
139 2203
139 2215
139 2232
139 2254
139 2276
139 2277
140 142
140 154
140 187
140 196
140 201
140 220
140 234
140 251
140 252
140 308
140 335
140 342
140 392
140 395
140 431
140 437
140 441
140 442
140 443
140 446
140 453
140 504
140 512
140 523
140 524
140 533
140 548
140 550
140 575
140 588
140 677
140 693
140 698
140 702
140 714
140 729
140 738
140 742
140 750
140 848
140 865
140 868
140 876
140 878
140 879
140 883
140 894
140 931
140 950
140 998
140 1062
140 1064
140 1095
140 1124
140 1149
140 1152
140 1193
140 1262
140 1268
140 1281
140 1288
140 1292
140 1315
140 1358
140 1364
140 1405
140 1411
140 1485
140 1517
140 1556
140 1559
140 1578
140 1579
140 1621
140 1676
140 1683
140 1767
140 1793
140 1809
140 1815
140 1842
140 1860
140 1867
140 1870
140 1908
140 1909
140 1938
140 1957
140 1966
140 1996
140 2027
140 2067
140 2095
140 2098
140 2125
140 2151
140 2164
140 2167
140 2192
140 2214
140 2225
140 2269
141 213
141 287
141 312
141 343
141 446
141 472
141 479
141 481
141 562
141 643
141 698
141 802
141 1094
141 1103
141 1174
141 1253
141 1324
141 1347
141 1348
141 1466
141 1594
141 1623
141 1685
141 1719
141 1739
141 1886
141 1963
141 1966
141 1999
141 2030
141 2062
141 2082
141 2210
141 2233
141 2309
142 159
142 175
142 180
142 191
142 192
142 196
142 201
142 210
142 227
142 234
142 252
142 303
142 312
142 318
142 342
142 348
142 363
142 383
142 392
142 411
142 418
142 423
142 437
142 439
142 441
142 446
142 472
142 493
142 494
142 496
142 504
142 528
142 550
142 579
142 601
142 604
142 631
142 637
142 639
142 670
142 677
142 693
142 702
142 730
142 776
142 824
142 848
142 849
142 863
142 865
142 876
142 878
142 883
142 884
142 894
142 898
142 904
142 920
142 923
142 924
142 931
142 940
142 953
142 955
142 972
142 996
142 998
142 1064
142 1067
142 1094
142 1095
142 1096
142 1102
142 1115
142 1122
142 1149
142 1152
142 1180
142 1210
142 1217
142 1229
142 1238
142 1262
142 1275
142 1281
142 1292
142 1297
142 1300
142 1307
142 1310
142 1358
142 1364
142 1372
142 1377
142 1380
142 1387
142 1400
142 1424
142 1456
142 1485
142 1491
142 1496
142 1562
142 1570
142 1621
142 1623
142 1663
142 1664
142 1676
142 1683
142 1697
142 1717
142 1741
142 1793
142 1795
142 1809
142 1873
142 1913
142 1971
142 2027
142 2040
142 2047
142 2051
142 2060
142 2095
142 2098
142 2115
142 2130
142 2156
142 2164
142 2166
142 2193
142 2196
142 2198
142 2202
142 2210
142 2212
142 2214
142 2225
142 2233
142 2240
142 2271
142 2289
143 156
143 176
143 180
143 260
143 285
143 293
143 310
143 363
143 379
143 380
143 427
143 435
143 475
143 519
143 550
143 594
143 602
143 610
143 639
143 684
143 691
143 732
143 751
143 759
143 837
143 849
143 972
143 1051
143 1082
143 1097
143 1167
143 1186
143 1244
143 1277
143 1304
143 1371
143 1384
143 1392
143 1415
143 1432
143 1520
143 1533
143 1538
143 1546
143 1568
143 1586
143 1595
143 1612
143 1633
143 1718
143 1723
143 1778
143 1815
143 1885
143 1986
143 2015
143 2055
143 2057
143 2089
143 2140
143 2151
143 2162
143 2264
143 2308
144 158
144 267
144 472
144 511
144 574
144 914
144 1178
144 1291
144 1617
144 1678
144 1930
144 1985
144 2018
144 2044
144 2061
144 2293
145 158
145 179
145 231
145 267
145 336
145 337
145 339
145 349
145 393
145 398
145 424
145 436
145 448
145 451
145 457
145 460
145 474
145 486
145 508
145 510
145 552
145 561
145 574
145 582
145 583
145 643
145 646
145 653
145 657
145 664
145 680
145 721
145 735
145 757
145 771
145 783
145 799
145 807
145 844
145 867
145 889
145 895
145 899
145 914
145 943
145 973
145 979
145 1026
145 1028
145 1047
145 1052
145 1065
145 1100
145 1126
145 1131
145 1183
145 1230
145 1239
145 1240
145 1255
145 1306
145 1313
145 1315
145 1374
145 1391
145 1412
145 1445
145 1452
145 1461
145 1470
145 1476
145 1477
145 1486
145 1527
145 1534
145 1543
145 1546
145 1582
145 1589
145 1591
145 1612
145 1617
145 1647
145 1666
145 1682
145 1711
145 1733
145 1739
145 1756
145 1757
145 1773
145 1778
145 1791
145 1819
145 1846
145 1847
145 1898
145 1933
145 1938
145 1970
145 1999
145 2001
145 2004
145 2005
145 2044
145 2123
145 2143
145 2152
145 2178
145 2217
145 2253
145 2302
146 157
146 175
146 180
146 182
146 189
146 190
146 191
146 192
146 200
146 201
146 202
146 210
146 233
146 247
146 252
146 255
146 265
146 266
146 274
146 278
146 282
146 303
146 325
146 350
146 351
146 370
146 375
146 377
146 385
146 392
146 401
146 404
146 423
146 433
146 437
146 441
146 453
146 465
146 472
146 479
146 489
146 493
146 494
146 502
146 505
146 506
146 511
146 520
146 523
146 532
146 549
146 567
146 578
146 585
146 588
146 591
146 598
146 601
146 607
146 634
146 685
146 686
146 689
146 690
146 692
146 693
146 705
146 706
146 712
146 714
146 728
146 738
146 750
146 759
146 787
146 792
146 802
146 817
146 824
146 833
146 848
146 860
146 863
146 871
146 877
146 878
146 883
146 892
146 894
146 906
146 908
146 909
146 920
146 923
146 924
146 934
146 946
146 950
146 951
146 980
146 988
146 991
146 993
146 998
146 1001
146 1010
146 1027
146 1064
146 1068
146 1071
146 1092
146 1094
146 1095
146 1109
146 1131
146 1133
146 1140
146 1143
146 1149
146 1151
146 1169
146 1177
146 1180
146 1188
146 1189
146 1194
146 1198
146 1205
146 1210
146 1219
146 1226
146 1246
146 1252
146 1262
146 1268
146 1269
146 1274
146 1281
146 1283
146 1288
146 1297
146 1308
146 1332
146 1347
146 1358
146 1362
146 1364
146 1405
146 1411
146 1417
146 1420
146 1424
146 1434
146 1437
146 1443
146 1452
146 1455
146 1485
146 1489
146 1492
146 1508
146 1513
146 1520
146 1538
146 1559
146 1563
146 1576
146 1579
146 1604
146 1611
146 1615
146 1621
146 1623
146 1645
146 1651
146 1663
146 1674
146 1679
146 1702
146 1716
146 1736
146 1741
146 1751
146 1754
146 1760
146 1763
146 1767
146 1776
146 1781
146 1782
146 1787
146 1809
146 1812
146 1822
146 1825
146 1840
146 1845
146 1852
146 1859
146 1867
146 1869
146 1873
146 1880
146 1896
146 1906
146 1909
146 1957
146 1959
146 1963
146 1964
146 1974
146 1977
146 2013
146 2019
146 2030
146 2044
146 2049
146 2062
146 2073
146 2074
146 2078
146 2082
146 2104
146 2112
146 2133
146 2144
146 2151
146 2164
146 2188
146 2191
146 2192
146 2202
146 2210
146 2214
146 2225
146 2233
146 2240
146 2271
146 2284
146 2296
146 2304
146 2308
146 2312
147 190
147 264
147 308
147 321
147 358
147 368
147 425
147 513
147 607
147 624
147 636
147 737
147 741
147 746
147 750
147 819
147 849
147 908
147 913
147 968
147 969
147 1004
147 1225
147 1354
147 1535
147 1540
147 1581
147 1586
147 1598
147 1630
147 1741
147 1761
147 1774
147 1854
147 1903
147 1973
147 2012
147 2081
147 2087
147 2138
147 2206
147 2225
147 2236
147 2260
147 2295
148 180
148 190
148 210
148 227
148 259
148 271
148 343
148 354
148 389
148 465
148 472
148 497
148 591
148 610
148 785
148 800
148 932
148 972
148 1171
148 1204
148 1225
148 1232
148 1233
148 1234
148 1281
148 1343
148 1385
148 1434
148 1435
148 1485
148 1520
148 1537
148 1576
148 1633
148 1650
148 1738
148 1748
148 1774
148 1848
148 1951
148 1956
148 1974
148 1992
148 2017
148 2185
148 2306
149 163
149 174
149 184
149 197
149 256
149 304
149 321
149 373
149 413
149 426
149 472
149 501
149 517
149 545
149 547
149 581
149 607
149 609
149 640
149 672
149 677
149 701
149 711
149 773
149 815
149 823
149 849
149 853
149 912
149 944
149 956
149 971
149 976
149 1004
149 1037
149 1044
149 1073
149 1105
149 1143
149 1158
149 1220
149 1233
149 1251
149 1258
149 1318
149 1354
149 1411
149 1416
149 1430
149 1442
149 1444
149 1459
149 1482
149 1495
149 1496
149 1520
149 1529
149 1540
149 1568
149 1578
149 1623
149 1637
149 1658
149 1668
149 1775
149 1787
149 1799
149 1821
149 1854
149 1860
149 1871
149 1882
149 1926
149 1982
149 2014
149 2046
149 2066
149 2067
149 2087
149 2094
149 2148
149 2215
149 2271
149 2276
149 2277
149 2286
150 205
150 214
150 218
150 273
150 457
150 506
150 616
150 646
150 649
150 828
150 842
150 896
150 899
150 995
150 1046
150 1074
150 1076
150 1141
150 1182
150 1226
150 1239
150 1293
150 1532
150 1593
150 1712
150 1721
150 1736
150 1918
150 2119
150 2239
150 2256
150 2287
151 158
151 164
151 185
151 219
151 267
151 268
151 292
151 312
151 343
151 349
151 365
151 392
151 394
151 442
151 446
151 472
151 486
151 489
151 493
151 507
151 541
151 550
151 564
151 578
151 583
151 598
151 621
151 671
151 696
151 727
151 783
151 795
151 854
151 856
151 894
151 914
151 925
151 940
151 946
151 967
151 974
151 989
151 1030
151 1034
151 1080
151 1096
151 1114
151 1134
151 1140
151 1149
151 1187
151 1213
151 1263
151 1266
151 1274
151 1278
151 1287
151 1290
151 1307
151 1316
151 1320
151 1321
151 1342
151 1356
151 1364
151 1370
151 1386
151 1391
151 1394
151 1414
151 1417
151 1453
151 1472
151 1485
151 1486
151 1498
151 1506
151 1536
151 1574
151 1602
151 1625
151 1647
151 1656
151 1661
151 1682
151 1686
151 1693
151 1722
151 1725
151 1756
151 1758
151 1800
151 1801
151 1816
151 1820
151 1838
151 1932
151 1937
151 1952
151 2077
151 2091
151 2164
151 2174
151 2199
151 2209
151 2287
151 2293
152 466
152 784
152 961
152 1634
152 1643
152 1740
152 1885
152 2146
152 2170
152 2219
153 164
153 267
153 326
153 336
153 691
153 962
153 1065
153 1351
153 1414
153 1490
153 1536
153 1548
153 1591
153 1898
153 2044
153 2218
154 187
154 201
154 220
154 234
154 251
154 252
154 408
154 431
154 441
154 848
154 1064
154 1149
154 1180
154 1193
154 1292
154 1377
154 1517
154 1559
154 1619
154 1809
154 1996
154 2151
154 2166
154 2225
155 183
155 223
155 270
155 274
155 280
155 289
155 351
155 355
155 413
155 425
155 426
155 443
155 463
155 479
155 497
155 530
155 531
155 534
155 537
155 571
155 587
155 590
155 623
155 629
155 672
155 759
155 765
155 793
155 816
155 833
155 868
155 883
155 917
155 944
155 949
155 970
155 971
155 976
155 1037
155 1044
155 1077
155 1170
155 1191
155 1211
155 1233
155 1251
155 1343
155 1430
155 1439
155 1467
155 1485
155 1495
155 1518
155 1534
155 1571
155 1581
155 1587
155 1637
155 1672
155 1701
155 1713
155 1717
155 1765
155 1821
155 1824
155 1825
155 1842
155 1857
155 1882
155 1951
155 1991
155 2046
155 2237
155 2255
155 2276
155 2305
156 227
156 293
156 298
156 315
156 316
156 319
156 326
156 335
156 358
156 380
156 388
156 403
156 430
156 453
156 454
156 460
156 463
156 468
156 522
156 532
156 545
156 550
156 563
156 581
156 589
156 593
156 594
156 601
156 609
156 610
156 617
156 640
156 643
156 677
156 679
156 701
156 702
156 729
156 791
156 822
156 835
156 872
156 888
156 928
156 930
156 956
156 961
156 965
156 969
156 970
156 975
156 1023
156 1051
156 1118
156 1125
156 1156
156 1165
156 1169
156 1175
156 1186
156 1189
156 1219
156 1233
156 1277
156 1308
156 1327
156 1334
156 1339
156 1352
156 1358
156 1415
156 1442
156 1460
156 1462
156 1503
156 1512
156 1539
156 1586
156 1642
156 1663
156 1668
156 1717
156 1726
156 1809
156 1814
156 1815
156 1835
156 1868
156 1873
156 1885
156 1908
156 1909
156 1911
156 1931
156 1991
156 2015
156 2057
156 2116
156 2129
156 2146
156 2147
156 2240
156 2258
156 2292
157 162
157 176
157 197
157 210
157 217
157 227
157 234
157 236
157 250
157 252
157 253
157 293
157 304
157 305
157 338
157 346
157 383
157 391
157 405
157 406
157 409
157 410
157 417
157 423
157 438
157 439
157 442
157 453
157 472
157 473
157 482
157 487
157 494
157 511
157 519
157 523
157 525
157 527
157 530
157 540
157 549
157 550
157 559
157 567
157 570
157 594
157 607
157 623
157 647
157 654
157 663
157 665
157 673
157 677
157 701
157 711
157 729
157 741
157 746
157 748
157 750
157 756
157 776
157 792
157 808
157 813
157 818
157 825
157 831
157 850
157 874
157 881
157 892
157 894
157 908
157 919
157 926
157 932
157 956
157 968
157 970
157 998
157 1016
157 1036
157 1044
157 1054
157 1062
157 1063
157 1064
157 1071
157 1078
157 1086
157 1092
157 1095
157 1098
157 1104
157 1110
157 1111
157 1147
157 1152
157 1160
157 1171
157 1175
157 1176
157 1181
157 1206
157 1218
157 1234
157 1249
157 1265
157 1273
157 1280
157 1281
157 1283
157 1296
157 1308
157 1318
157 1327
157 1337
157 1401
157 1409
157 1410
157 1438
157 1439
157 1458
157 1499
157 1503
157 1505
157 1518
157 1523
157 1533
157 1535
157 1557
157 1564
157 1575
157 1581
157 1583
157 1598
157 1606
157 1619
157 1625
157 1650
157 1668
157 1676
157 1708
157 1716
157 1717
157 1723
157 1743
157 1746
157 1751
157 1760
157 1771
157 1772
157 1776
157 1785
157 1792
157 1806
157 1835
157 1844
157 1851
157 1858
157 1864
157 1866
157 1871
157 1879
157 1908
157 1909
157 1915
157 1926
157 1951
157 1964
157 1967
157 1991
157 1995
157 2015
157 2022
157 2025
157 2037
157 2049
157 2089
157 2100
157 2105
157 2113
157 2117
157 2126
157 2133
157 2150
157 2151
157 2160
157 2164
157 2175
157 2203
157 2225
157 2245
157 2252
157 2258
157 2261
157 2268
157 2269
157 2274
157 2279
158 164
158 167
158 179
158 185
158 198
158 205
158 219
158 229
158 231
158 262
158 267
158 309
158 328
158 336
158 337
158 339
158 340
158 349
158 357
158 362
158 365
158 369
158 371
158 377
158 384
158 393
158 398
158 402
158 418
158 420
158 424
158 428
158 433
158 448
158 451
158 457
158 460
158 472
158 474
158 483
158 485
158 486
158 488
158 489
158 493
158 507
158 547
158 550
158 552
158 560
158 561
158 573
158 574
158 582
158 583
158 595
158 598
158 600
158 621
158 622
158 628
158 634
158 643
158 646
158 650
158 653
158 657
158 664
158 678
158 680
158 693
158 696
158 700
158 713
158 717
158 735
158 740
158 749
158 757
158 771
158 783
158 790
158 792
158 795
158 799
158 807
158 817
158 821
158 854
158 856
158 859
158 867
158 870
158 882
158 885
158 891
158 895
158 914
158 921
158 925
158 929
158 940
158 943
158 953
158 962
158 964
158 967
158 979
158 999
158 1025
158 1026
158 1047
158 1052
158 1054
158 1065
158 1080
158 1081
158 1083
158 1100
158 1107
158 1114
158 1119
158 1123
158 1126
158 1131
158 1134
158 1146
158 1183
158 1190
158 1192
158 1195
158 1199
158 1202
158 1209
158 1226
158 1230
158 1237
158 1239
158 1240
158 1243
158 1248
158 1255
158 1266
158 1272
158 1278
158 1286
158 1287
158 1290
158 1293
158 1295
158 1306
158 1307
158 1313
158 1314
158 1316
158 1335
158 1342
158 1346
158 1349
158 1351
158 1365
158 1374
158 1379
158 1382
158 1386
158 1391
158 1395
158 1402
158 1408
158 1412
158 1414
158 1417
158 1445
158 1452
158 1453
158 1468
158 1472
158 1477
158 1486
158 1509
158 1525
158 1527
158 1532
158 1534
158 1543
158 1551
158 1552
158 1553
158 1555
158 1574
158 1582
158 1589
158 1591
158 1592
158 1597
158 1602
158 1604
158 1610
158 1613
158 1616
158 1622
158 1652
158 1656
158 1661
158 1665
158 1666
158 1678
158 1682
158 1686
158 1691
158 1695
158 1696
158 1705
158 1710
158 1711
158 1721
158 1722
158 1729
158 1733
158 1736
158 1739
158 1756
158 1757
158 1758
158 1759
158 1762
158 1791
158 1797
158 1801
158 1816
158 1819
158 1830
158 1846
158 1847
158 1855
158 1861
158 1862
158 1865
158 1873
158 1889
158 1892
158 1898
158 1914
158 1930
158 1933
158 1937
158 1938
158 1947
158 1952
158 1963
158 1970
158 1972
158 1975
158 1978
158 1999
158 2001
158 2002
158 2005
158 2006
158 2009
158 2020
158 2028
158 2038
158 2044
158 2052
158 2053
158 2061
158 2077
158 2080
158 2107
158 2123
158 2142
158 2143
158 2152
158 2153
158 2155
158 2173
158 2178
158 2199
158 2217
158 2218
158 2239
158 2243
158 2253
158 2256
158 2293
158 2302
159 161
159 162
159 176
159 210
159 227
159 275
159 315
159 316
159 350
159 361
159 379
159 383
159 389
159 496
159 540
159 563
159 579
159 607
159 647
159 654
159 709
159 735
159 746
159 756
159 778
159 780
159 791
159 812
159 831
159 884
159 893
159 898
159 919
159 923
159 949
159 965
159 996
159 998
159 1004
159 1010
159 1091
159 1166
159 1204
159 1214
159 1297
159 1335
159 1341
159 1355
159 1364
159 1432
159 1435
159 1458
159 1459
159 1485
159 1491
159 1496
159 1531
159 1586
159 1595
159 1621
159 1635
159 1637
159 1657
159 1659
159 1668
159 1676
159 1717
159 1732
159 1741
159 1746
159 1752
159 1777
159 1805
159 1829
159 1872
159 1894
159 1928
159 1964
159 2063
159 2070
159 2108
159 2111
159 2115
159 2140
159 2214
159 2225
159 2233
159 2264
159 2271
160 210
160 226
160 230
160 315
160 487
160 517
160 535
160 593
160 645
160 648
160 743
160 850
160 881
160 907
160 926
160 934
160 1039
160 1049
160 1136
160 1160
160 1176
160 1189
160 1232
160 1233
160 1308
160 1334
160 1352
160 1428
160 1451
160 1463
160 1483
160 1493
160 1504
160 1508
160 1537
160 1564
160 1671
160 1675
160 1700
160 1755
160 1761
160 1790
160 1866
160 1885
160 1893
160 1903
160 1926
160 1953
160 1954
160 2008
160 2023
160 2068
160 2148
160 2163
160 2227
160 2240
160 2277
160 2295
160 2308
161 173
161 176
161 190
161 200
161 210
161 269
161 271
161 288
161 294
161 301
161 315
161 320
161 338
161 354
161 358
161 397
161 423
161 438
161 439
161 468
161 487
161 494
161 497
161 513
161 517
161 530
161 537
161 547
161 570
161 579
161 589
161 590
161 594
161 617
161 674
161 701
161 705
161 714
161 715
161 725
161 741
161 746
161 755
161 756
161 778
161 792
161 808
161 816
161 818
161 861
161 866
161 876
161 877
161 893
161 894
161 910
161 923
161 932
161 945
161 949
161 958
161 965
161 970
161 971
161 980
161 998
161 1004
161 1015
161 1036
161 1049
161 1050
161 1075
161 1091
161 1116
161 1117
161 1136
161 1142
161 1143
161 1171
161 1203
161 1211
161 1225
161 1228
161 1232
161 1254
161 1308
161 1335
161 1345
161 1355
161 1361
161 1404
161 1430
161 1433
161 1435
161 1439
161 1475
161 1493
161 1508
161 1514
161 1515
161 1521
161 1537
161 1540
161 1560
161 1571
161 1575
161 1598
161 1600
161 1606
161 1607
161 1635
161 1640
161 1650
161 1658
161 1697
161 1713
161 1738
161 1740
161 1741
161 1743
161 1748
161 1760
161 1765
161 1771
161 1786
161 1793
161 1798
161 1799
161 1803
161 1806
161 1864
161 1873
161 1886
161 1894
161 1913
161 1931
161 1951
161 1954
161 1956
161 1958
161 1964
161 1974
161 1979
161 1992
161 1995
161 2022
161 2037
161 2055
161 2063
161 2067
161 2081
161 2110
161 2154
161 2156
161 2190
161 2200
161 2211
161 2225
161 2236
161 2255
161 2292
161 2295
161 2306
162 174
162 176
162 210
162 220
162 223
162 246
162 252
162 256
162 259
162 273
162 281
162 306
162 308
162 315
162 321
162 361
162 369
162 392
162 410
162 416
162 419
162 425
162 434
162 437
162 440
162 453
162 493
162 497
162 509
162 513
162 519
162 522
162 525
162 535
162 545
162 547
162 567
162 584
162 589
162 607
162 609
162 640
162 648
162 665
162 673
162 674
162 676
162 685
162 706
162 708
162 726
162 737
162 748
162 753
162 755
162 756
162 760
162 765
162 768
162 776
162 779
162 782
162 813
162 819
162 826
162 829
162 858
162 876
162 892
162 894
162 908
162 913
162 934
162 955
162 977
162 998
162 1003
162 1024
162 1031
162 1038
162 1039
162 1048
162 1060
162 1095
162 1098
162 1102
162 1147
162 1159
162 1164
162 1170
162 1176
162 1185
162 1211
162 1219
162 1220
162 1225
162 1238
162 1249
162 1250
162 1256
162 1258
162 1265
162 1267
162 1273
162 1279
162 1280
162 1281
162 1308
162 1312
162 1318
162 1343
162 1364
162 1372
162 1380
162 1390
162 1398
162 1437
162 1438
162 1440
162 1450
162 1456
162 1471
162 1482
162 1488
162 1505
162 1520
162 1537
162 1539
162 1546
162 1583
162 1609
162 1611
162 1621
162 1633
162 1650
162 1663
162 1703
162 1730
162 1745
162 1751
162 1761
162 1783
162 1787
162 1793
162 1813
162 1825
162 1844
162 1852
162 1859
162 1860
162 1874
162 1878
162 1882
162 1903
162 1908
162 1911
162 1918
162 1926
162 1928
162 1967
162 1973
162 1993
162 1995
162 2012
162 2023
162 2037
162 2066
162 2069
162 2081
162 2087
162 2089
162 2094
162 2103
162 2115
162 2133
162 2141
162 2148
162 2151
162 2156
162 2171
162 2177
162 2214
162 2232
162 2233
162 2237
162 2240
162 2259
162 2269
162 2274
162 2295
162 2312
163 280
163 335
163 640
163 672
163 1037
163 1044
163 1171
163 1267
163 1354
163 1442
163 1444
163 1495
163 1515
163 1772
163 2276
164 182
164 267
164 268
164 424
164 483
164 680
164 757
164 911
164 914
164 946
164 962
164 1025
164 1107
164 1146
164 1239
164 1255
164 1263
164 1290
164 1293
164 1295
164 1307
164 1346
164 1351
164 1374
164 1414
164 1452
164 1477
164 1506
164 1507
164 1534
164 1536
164 1551
164 1552
164 1589
164 1591
164 1613
164 1656
164 1721
164 1757
164 1830
164 1847
164 1934
164 2044
164 2052
164 2053
164 2218
164 2293
164 2294
165 210
165 374
165 457
165 488
165 501
165 621
165 650
165 743
165 749
165 816
165 884
165 960
165 1065
165 1082
165 1087
165 1109
165 1154
165 1155
165 1235
165 1252
165 1266
165 1289
165 1412
165 1493
165 1495
165 1767
165 1854
165 1873
165 1883
165 1943
165 1961
165 1999
165 2004
165 2009
165 2044
165 2093
165 2276
165 2302
165 2304
166 176
166 183
166 190
166 201
166 202
166 247
166 254
166 255
166 266
166 345
166 347
166 375
166 446
166 465
166 472
166 476
166 533
166 555
166 616
166 704
166 715
166 722
166 736
166 752
166 788
166 792
166 807
166 824
166 830
166 871
166 900
166 928
166 951
166 960
166 983
166 1074
166 1085
166 1099
166 1110
166 1130
166 1139
166 1145
166 1168
166 1177
166 1253
166 1271
166 1275
166 1282
166 1308
166 1323
166 1333
166 1388
166 1392
166 1407
166 1427
166 1434
166 1443
166 1448
166 1457
166 1466
166 1469
166 1483
166 1485
166 1511
166 1521
166 1542
166 1550
166 1563
166 1638
166 1679
166 1690
166 1702
166 1724
166 1780
166 1790
166 1845
166 1893
166 1907
166 1918
166 1949
166 1963
166 1974
166 1977
166 1999
166 2045
166 2072
166 2104
166 2123
166 2140
166 2203
166 2295
166 2305
167 267
167 357
167 384
167 595
167 749
167 933
167 1047
167 1100
167 1183
167 1486
167 1527
167 1589
167 1604
167 1613
167 1652
167 1710
167 1794
167 1797
167 2044
167 2137
167 2173
168 378
168 394
168 485
168 511
168 595
168 621
168 694
168 717
168 794
168 1008
168 1349
168 1374
168 1506
168 1543
168 1661
168 1666
168 1801
168 1898
168 1914
168 1985
168 2044
169 314
169 352
169 413
169 466
169 529
169 533
169 534
169 651
169 672
169 724
169 761
169 784
169 912
169 971
169 1058
169 1106
169 1258
169 1264
169 1329
169 1495
169 1587
169 1753
169 1788
169 1827
169 1904
169 1925
169 2171
169 2215
169 2226
169 2262
169 2267
169 2276
170 1881
171 198
171 680
171 757
171 806
171 817
171 914
171 1223
171 1230
171 1240
171 1263
171 1386
171 1662
171 1832
171 1905
172 342
172 437
172 440
172 504
172 588
172 827
172 953
172 1394
172 1584
172 2208
172 2268
173 176
173 180
173 189
173 190
173 202
173 217
173 242
173 244
173 268
173 275
173 283
173 287
173 294
173 305
173 310
173 326
173 332
173 335
173 350
173 382
173 383
173 388
173 389
173 437
173 439
173 468
173 472
173 493
173 494
173 511
173 513
173 522
173 538
173 568
173 570
173 588
173 589
173 610
173 613
173 614
173 631
173 633
173 643
173 674
173 704
173 709
173 715
173 756
173 759
173 764
173 786
173 791
173 792
173 803
173 807
173 808
173 835
173 843
173 853
173 861
173 864
173 879
173 883
173 884
173 888
173 893
173 930
173 932
173 956
173 961
173 965
173 969
173 978
173 991
173 1013
173 1020
173 1048
173 1049
173 1062
173 1084
173 1094
173 1120
173 1125
173 1130
173 1156
173 1177
173 1205
173 1245
173 1256
173 1268
173 1281
173 1299
173 1305
173 1308
173 1318
173 1326
173 1344
173 1348
173 1355
173 1361
173 1373
173 1392
173 1399
173 1411
173 1429
173 1433
173 1443
173 1485
173 1491
173 1499
173 1500
173 1513
173 1521
173 1539
173 1540
173 1546
173 1563
173 1564
173 1571
173 1580
173 1584
173 1598
173 1626
173 1640
173 1676
173 1697
173 1713
173 1734
173 1741
173 1743
173 1760
173 1775
173 1799
173 1803
173 1812
173 1815
173 1834
173 1844
173 1873
173 1874
173 1885
173 1891
173 1910
173 1931
173 1935
173 1963
173 1974
173 1986
173 1995
173 2015
173 2036
173 2037
173 2043
173 2045
173 2060
173 2061
173 2067
173 2120
173 2156
173 2177
173 2190
173 2213
173 2227
173 2251
173 2252
173 2289
174 226
174 230
174 280
174 283
174 330
174 533
174 559
174 605
174 645
174 651
174 662
174 672
174 724
174 836
174 858
174 873
174 903
174 909
174 915
174 945
174 986
174 1003
174 1039
174 1058
174 1066
174 1073
174 1077
174 1171
174 1200
174 1220
174 1236
174 1258
174 1329
174 1361
174 1366
174 1413
174 1478
174 1539
174 1567
174 1587
174 1724
174 1727
174 1799
174 1839
174 1878
174 1924
174 1925
174 1953
174 1982
174 1984
174 2013
174 2068
174 2094
174 2097
174 2101
174 2109
174 2112
174 2148
174 2156
174 2215
174 2232
174 2234
174 2242
174 2254
175 191
175 192
175 196
175 201
175 204
175 213
175 220
175 223
175 285
175 325
175 331
175 342
175 408
175 415
175 423
175 431
175 433
175 436
175 437
175 439
175 446
175 450
175 452
175 472
175 491
175 493
175 494
175 504
175 510
175 512
175 523
175 535
175 538
175 547
175 549
175 550
175 562
175 564
175 578
175 624
175 630
175 643
175 661
175 687
175 690
175 693
175 698
175 703
175 742
175 758
175 761
175 776
175 792
175 807
175 824
175 848
175 854
175 863
175 883
175 904
175 967
175 1009
175 1015
175 1042
175 1051
175 1052
175 1054
175 1067
175 1094
175 1096
175 1100
175 1103
175 1108
175 1110
175 1124
175 1133
175 1140
175 1149
175 1172
175 1177
175 1180
175 1194
175 1203
175 1259
175 1275
175 1281
175 1287
175 1304
175 1321
175 1356
175 1362
175 1380
175 1405
175 1424
175 1449
175 1485
175 1489
175 1513
175 1559
175 1565
175 1594
175 1612
175 1618
175 1623
175 1655
175 1703
175 1719
175 1751
175 1762
175 1781
175 1801
175 1806
175 1816
175 1821
175 1824
175 1846
175 1870
175 1886
175 1890
175 1896
175 1938
175 1959
175 1966
175 2005
175 2034
175 2051
175 2062
175 2123
175 2143
175 2166
175 2196
175 2210
175 2225
175 2233
176 190
176 193
176 201
176 212
176 227
176 244
176 246
176 247
176 248
176 259
176 265
176 275
176 277
176 282
176 288
176 300
176 313
176 320
176 332
176 338
176 354
176 364
176 366
176 379
176 382
176 397
176 399
176 419
176 425
176 437
176 438
176 439
176 449
176 453
176 461
176 465
176 470
176 472
176 494
176 498
176 516
176 530
176 537
176 547
176 548
176 553
176 570
176 588
176 593
176 630
176 633
176 637
176 642
176 647
176 648
176 654
176 660
176 673
176 674
176 694
176 705
176 709
176 714
176 715
176 732
176 734
176 736
176 741
176 743
176 746
176 754
176 755
176 756
176 759
176 782
176 792
176 807
176 808
176 816
176 833
176 836
176 837
176 841
176 848
176 861
176 871
176 876
176 883
176 884
176 894
176 906
176 922
176 948
176 965
176 977
176 980
176 981
176 992
176 1003
176 1004
176 1008
176 1015
176 1020
176 1023
176 1029
176 1051
176 1053
176 1068
176 1075
176 1082
176 1084
176 1086
176 1091
176 1095
176 1110
176 1116
176 1133
176 1142
176 1144
176 1145
176 1150
176 1159
176 1167
176 1180
176 1181
176 1196
176 1211
176 1214
176 1228
176 1247
176 1256
176 1265
176 1270
176 1281
176 1289
176 1297
176 1301
176 1304
176 1335
176 1355
176 1361
176 1363
176 1378
176 1393
176 1406
176 1411
176 1413
176 1427
176 1430
176 1432
176 1433
176 1434
176 1435
176 1440
176 1442
176 1460
176 1475
176 1487
176 1493
176 1499
176 1508
176 1513
176 1514
176 1521
176 1538
176 1540
176 1561
176 1571
176 1598
176 1600
176 1607
176 1625
176 1633
176 1650
176 1657
176 1669
176 1670
176 1676
176 1697
176 1713
176 1727
176 1732
176 1734
176 1741
176 1743
176 1744
176 1755
176 1756
176 1771
176 1779
176 1786
176 1796
176 1799
176 1803
176 1806
176 1813
176 1823
176 1825
176 1829
176 1844
176 1858
176 1859
176 1872
176 1874
176 1878
176 1893
176 1895
176 1899
176 1911
176 1919
176 1931
176 1935
176 1950
176 1951
176 1953
176 1954
176 1958
176 1963
176 1964
176 1969
176 1974
176 1979
176 1992
176 1995
176 2013
176 2022
176 2037
176 2043
176 2045
176 2056
176 2058
176 2063
176 2068
176 2070
176 2071
176 2079
176 2081
176 2101
176 2110
176 2115
176 2120
176 2147
176 2151
176 2154
176 2156
176 2162
176 2163
176 2166
176 2167
176 2175
176 2177
176 2197
176 2206
176 2225
176 2232
176 2236
176 2248
176 2252
176 2259
176 2261
176 2265
176 2273
176 2275
176 2279
176 2280
176 2289
176 2295
176 2303
177 228
177 315
177 559
177 569
177 584
177 606
177 645
177 667
177 714
177 752
177 782
177 798
177 841
177 876
177 980
177 983
177 991
177 1003
177 1015
177 1029
177 1053
177 1177
177 1309
177 1331
177 1345
177 1396
177 1512
177 1548
177 1563
177 1588
177 1615
177 1677
177 1679
177 1754
177 1789
177 1867
177 1908
177 1980
177 2147
177 2151
177 2191
177 2204
177 2237
177 2240
177 2244
177 2304
177 2311
178 229
178 337
178 771
178 862
178 979
178 1146
178 1240
178 1257
178 1313
178 1346
178 1408
178 1522
178 1574
178 1613
178 1651
178 1696
178 1712
178 1757
178 1820
178 1826
178 1905
178 2006
178 2061
178 2080
178 2091
178 2253
179 267
179 486
179 488
179 582
179 650
179 653
179 700
179 749
179 757
179 783
179 957
179 973
179 1100
179 1103
179 1109
179 1199
179 1374
179 1379
179 1476
179 1527
179 1534
179 1555
179 1574
179 1580
179 1582
179 1592
179 1613
179 1691
179 1733
179 1736
179 1739
179 1933
179 1934
179 2001
179 2004
179 2077
179 2143
179 2173
179 2230
180 190
180 192
180 227
180 259
180 268
180 281
180 293
180 300
180 310
180 320
180 326
180 343
180 348
180 358
180 380
180 383
180 389
180 414
180 421
180 423
180 427
180 429
180 431
180 434
180 437
180 439
180 440
180 443
180 446
180 461
180 468
180 472
180 475
180 493
180 494
180 496
180 497
180 504
180 511
180 537
180 540
180 549
180 550
180 570
180 589
180 591
180 592
180 601
180 610
180 631
180 639
180 677
180 693
180 701
180 712
180 715
180 729
180 732
180 735
180 738
180 751
180 756
180 758
180 759
180 767
180 776
180 778
180 791
180 792
180 800
180 808
180 818
180 825
180 837
180 848
180 852
180 861
180 863
180 876
180 883
180 884
180 893
180 894
180 898
180 919
180 932
180 944
180 956
180 958
180 965
180 970
180 972
180 990
180 996
180 998
180 1011
180 1023
180 1038
180 1051
180 1055
180 1071
180 1082
180 1091
180 1092
180 1096
180 1122
180 1159
180 1164
180 1167
180 1175
180 1177
180 1186
180 1188
180 1218
180 1228
180 1238
180 1259
180 1265
180 1270
180 1273
180 1274
180 1275
180 1280
180 1281
180 1296
180 1304
180 1325
180 1334
180 1355
180 1364
180 1369
180 1371
180 1372
180 1377
180 1384
180 1385
180 1392
180 1404
180 1406
180 1415
180 1433
180 1435
180 1460
180 1485
180 1499
180 1521
180 1533
180 1538
180 1542
180 1560
180 1562
180 1564
180 1568
180 1586
180 1598
180 1618
180 1621
180 1632
180 1633
180 1657
180 1688
180 1700
180 1716
180 1717
180 1743
180 1751
180 1752
180 1760
180 1767
180 1803
180 1815
180 1825
180 1844
180 1853
180 1870
180 1873
180 1874
180 1879
180 1885
180 1894
180 1931
180 1948
180 1963
180 1974
180 1986
180 1995
180 2008
180 2022
180 2027
180 2049
180 2057
180 2089
180 2130
180 2162
180 2164
180 2166
180 2167
180 2174
180 2185
180 2209
180 2212
180 2225
180 2252
180 2268
180 2299
180 2303
180 2307
181 2274
182 243
182 340
182 371
182 393
182 420
182 424
182 448
182 489
182 506
182 552
182 595
182 622
182 625
182 678
182 679
182 740
182 741
182 790
182 874
182 929
182 946
182 962
182 1052
182 1099
182 1141
182 1195
182 1197
182 1226
182 1278
182 1316
182 1349
182 1351
182 1374
182 1417
182 1532
182 1536
182 1543
182 1589
182 1665
182 1666
182 1694
182 1711
182 1736
182 1741
182 1875
182 1898
182 1938
182 1947
182 2013
182 2044
182 2064
182 2099
182 2178
182 2188
182 2256
182 2287
182 2294
183 226
183 247
183 254
183 265
183 280
183 320
183 323
183 330
183 332
183 335
183 345
183 351
183 354
183 406
183 443
183 529
183 531
183 533
183 534
183 553
183 557
183 633
183 672
183 707
183 807
183 830
183 839
183 871
183 873
183 900
183 952
183 971
183 983
183 1058
183 1069
183 1073
183 1077
183 1078
183 1084
183 1138
183 1145
183 1171
183 1184
183 1204
183 1220
183 1236
183 1258
183 1281
183 1329
183 1495
183 1509
183 1515
183 1567
183 1576
183 1581
183 1590
183 1669
183 1724
183 1727
183 1755
183 1786
183 1803
183 1808
183 1825
183 1839
183 1845
183 1848
183 1849
183 1857
183 1888
183 1893
183 1984
183 2068
183 2072
183 2097
183 2103
183 2113
183 2128
183 2203
183 2215
183 2219
183 2242
183 2245
183 2252
183 2254
183 2264
183 2265
183 2276
184 190
184 194
184 203
184 208
184 221
184 256
184 290
184 293
184 294
184 412
184 416
184 469
184 497
184 503
184 515
184 522
184 527
184 539
184 566
184 572
184 581
184 594
184 601
184 629
184 635
184 636
184 659
184 666
184 709
184 735
184 753
184 756
184 809
184 812
184 861
184 865
184 866
184 910
184 912
184 916
184 917
184 927
184 956
184 961
184 971
184 982
184 994
184 1043
184 1048
184 1072
184 1089
184 1093
184 1097
184 1102
184 1135
184 1148
184 1149
184 1153
184 1162
184 1189
184 1191
184 1244
184 1270
184 1277
184 1279
184 1322
184 1326
184 1384
184 1394
184 1451
184 1459
184 1462
184 1465
184 1502
184 1503
184 1529
184 1538
184 1549
184 1554
184 1577
184 1601
184 1643
184 1663
184 1668
184 1680
184 1687
184 1688
184 1738
184 1740
184 1748
184 1760
184 1775
184 1777
184 1831
184 1885
184 1968
184 1990
184 2016
184 2017
184 2027
184 2033
184 2046
184 2057
184 2067
184 2069
184 2079
184 2095
184 2109
184 2127
184 2135
184 2146
184 2170
184 2179
184 2189
184 2201
184 2222
184 2257
184 2260
184 2262
184 2266
184 2270
184 2271
184 2286
184 2288
184 2289
184 2299
185 201
185 252
185 267
185 292
185 347
185 357
185 377
185 392
185 394
185 489
185 493
185 541
185 598
185 634
185 646
185 678
185 727
185 771
185 817
185 854
185 856
185 876
185 914
185 940
185 946
185 967
185 974
185 989
185 1052
185 1080
185 1109
185 1126
185 1140
185 1202
185 1239
185 1269
185 1278
185 1281
185 1287
185 1290
185 1292
185 1307
185 1316
185 1320
185 1342
185 1364
185 1391
185 1394
185 1417
185 1452
185 1472
185 1536
185 1574
185 1591
185 1602
185 1604
185 1610
185 1625
185 1651
185 1656
185 1722
185 1725
185 1791
185 1801
185 1816
185 1952
185 2001
185 2061
185 2077
185 2164
185 2167
185 2199
185 2230
185 2294
186 265
186 728
186 787
186 909
186 945
186 947
186 986
186 1039
186 1493
186 1799
186 1878
186 1924
186 2068
186 2094
186 2112
186 2148
186 2171
187 196
187 251
187 252
187 317
187 335
187 423
187 437
187 441
187 453
187 639
187 714
187 753
187 848
187 878
187 1095
187 1152
187 1238
187 1292
187 1358
187 1409
187 1517
187 1809
187 1909
187 1996
187 2151
187 2167
187 2214
188 247
188 283
188 332
188 344
188 506
188 557
188 616
188 649
188 651
188 724
188 755
188 836
188 873
188 876
188 894
188 939
188 947
188 955
188 997
188 1032
188 1058
188 1066
188 1074
188 1171
188 1200
188 1276
188 1345
188 1366
188 1375
188 1433
188 1528
188 1576
188 1587
188 1727
188 1779
188 1793
188 1825
188 1827
188 1848
188 1918
188 1924
188 1939
188 1949
188 1982
188 1984
188 2037
188 2068
188 2141
188 2171
188 2176
188 2197
188 2215
188 2234
188 2242
188 2263
188 2265
189 192
189 213
189 229
189 274
189 287
189 331
189 343
189 359
189 369
189 383
189 392
189 415
189 433
189 441
189 446
189 450
189 455
189 461
189 479
189 484
189 492
189 498
189 502
189 511
189 513
189 521
189 523
189 532
189 538
189 595
189 630
189 688
189 691
189 714
189 741
189 766
189 781
189 787
189 909
189 923
189 959
189 978
189 999
189 1008
189 1010
189 1013
189 1020
189 1056
189 1090
189 1094
189 1103
189 1139
189 1174
189 1185
189 1194
189 1203
189 1205
189 1251
189 1259
189 1262
189 1275
189 1281
189 1332
189 1334
189 1354
189 1371
189 1405
189 1420
189 1424
189 1429
189 1469
189 1521
189 1542
189 1546
189 1550
189 1566
189 1570
189 1575
189 1579
189 1580
189 1670
189 1685
189 1702
189 1705
189 1763
189 1769
189 1822
189 1824
189 1828
189 1832
189 1841
189 1873
189 1880
189 1883
189 1884
189 1886
189 1896
189 1910
189 1920
189 1928
189 1958
189 1963
189 1972
189 1974
189 1986
189 1988
189 2019
189 2021
189 2029
189 2058
189 2062
189 2073
189 2082
189 2112
189 2116
189 2202
189 2210
189 2273
189 2307
190 196
190 197
190 216
190 217
190 247
190 269
190 271
190 274
190 275
190 277
190 287
190 288
190 294
190 305
190 319
190 335
190 346
190 354
190 373
190 376
190 382
190 388
190 392
190 406
190 413
190 422
190 426
190 439
190 443
190 461
190 465
190 467
190 472
190 483
190 487
190 493
190 497
190 506
190 513
190 515
190 520
190 522
190 529
190 534
190 540
190 545
190 563
190 567
190 579
190 593
190 601
190 605
190 607
190 610
190 613
190 616
190 619
190 638
190 641
190 645
190 654
190 662
190 668
190 672
190 694
190 707
190 709
190 715
190 723
190 724
190 735
190 736
190 737
190 741
190 746
190 756
190 759
190 764
190 778
190 781
190 787
190 803
190 805
190 807
190 808
190 810
190 819
190 824
190 835
190 839
190 847
190 848
190 861
190 864
190 866
190 880
190 893
190 898
190 908
190 917
190 919
190 926
190 930
190 934
190 935
190 937
190 939
190 944
190 945
190 956
190 960
190 961
190 969
190 971
190 978
190 982
190 986
190 988
190 991
190 998
190 1004
190 1013
190 1020
190 1036
190 1037
190 1038
190 1048
190 1049
190 1062
190 1074
190 1078
190 1085
190 1089
190 1092
190 1104
190 1105
190 1116
190 1120
190 1125
190 1128
190 1139
190 1148
190 1151
190 1156
190 1158
190 1171
190 1184
190 1186
190 1188
190 1189
190 1201
190 1204
190 1205
190 1208
190 1214
190 1218
190 1223
190 1225
190 1233
190 1234
190 1244
190 1245
190 1256
190 1267
190 1268
190 1279
190 1280
190 1282
190 1302
190 1305
190 1318
190 1334
190 1336
190 1337
190 1339
190 1340
190 1348
190 1354
190 1355
190 1358
190 1364
190 1373
190 1384
190 1387
190 1389
190 1392
190 1401
190 1411
190 1415
190 1416
190 1428
190 1429
190 1434
190 1451
190 1459
190 1463
190 1464
190 1465
190 1481
190 1482
190 1485
190 1496
190 1500
190 1503
190 1520
190 1521
190 1535
190 1538
190 1539
190 1540
190 1542
190 1546
190 1554
190 1564
190 1567
190 1578
190 1598
190 1601
190 1620
190 1626
190 1629
190 1630
190 1634
190 1637
190 1658
190 1660
190 1663
190 1690
190 1713
190 1732
190 1738
190 1740
190 1742
190 1746
190 1748
190 1750
190 1760
190 1770
190 1772
190 1774
190 1775
190 1779
190 1780
190 1784
190 1796
190 1799
190 1812
190 1829
190 1834
190 1841
190 1843
190 1846
190 1853
190 1854
190 1870
190 1873
190 1874
190 1882
190 1885
190 1891
190 1894
190 1904
190 1910
190 1911
190 1916
190 1918
190 1924
190 1926
190 1927
190 1931
190 1949
190 1951
190 1968
190 1971
190 1973
190 1974
190 1982
190 1984
190 1987
190 1992
190 1994
190 2007
190 2008
190 2012
190 2015
190 2017
190 2022
190 2024
190 2025
190 2029
190 2039
190 2043
190 2045
190 2048
190 2054
190 2055
190 2067
190 2071
190 2088
190 2097
190 2118
190 2122
190 2140
190 2144
190 2157
190 2161
190 2175
190 2177
190 2182
190 2185
190 2190
190 2211
190 2236
190 2242
190 2251
190 2266
190 2270
190 2289
190 2298
191 200
191 201
191 213
191 219
191 240
191 252
191 274
191 287
191 318
191 325
191 342
191 343
191 372
191 392
191 423
191 433
191 437
191 441
191 446
191 450
191 452
191 472
191 484
191 493
191 494
191 504
191 511
191 535
191 538
191 564
191 570
191 578
191 585
191 588
191 592
191 630
191 643
191 658
191 661
191 687
191 698
191 703
191 742
191 758
191 761
191 792
191 824
191 848
191 863
191 883
191 890
191 904
191 923
191 924
191 931
191 959
191 993
191 996
191 1010
191 1064
191 1071
191 1094
191 1108
191 1140
191 1149
191 1172
191 1177
191 1180
191 1194
191 1246
191 1252
191 1254
191 1259
191 1275
191 1281
191 1310
191 1332
191 1362
191 1364
191 1405
191 1411
191 1485
191 1559
191 1564
191 1570
191 1576
191 1579
191 1580
191 1584
191 1612
191 1615
191 1619
191 1621
191 1623
191 1680
191 1685
191 1719
191 1751
191 1767
191 1816
191 1828
191 1870
191 1886
191 1890
191 1896
191 1963
191 2005
191 2051
191 2062
191 2123
191 2143
191 2166
191 2210
191 2214
191 2225
191 2312
192 196
192 201
192 220
192 251
192 252
192 253
192 392
192 394
192 423
192 437
192 439
192 441
192 442
192 445
192 446
192 453
192 472
192 493
192 494
192 504
192 511
192 523
192 528
192 538
192 550
192 570
192 576
192 578
192 585
192 588
192 598
192 601
192 631
192 632
192 639
192 642
192 658
192 702
192 703
192 742
192 753
192 756
192 758
192 792
192 813
192 824
192 833
192 848
192 863
192 876
192 878
192 883
192 894
192 924
192 931
192 940
192 941
192 946
192 950
192 998
192 1010
192 1051
192 1064
192 1071
192 1092
192 1095
192 1103
192 1122
192 1149
192 1152
192 1153
192 1169
192 1177
192 1194
192 1219
192 1238
192 1262
192 1281
192 1288
192 1297
192 1325
192 1335
192 1358
192 1364
192 1372
192 1377
192 1380
192 1405
192 1411
192 1417
192 1485
192 1521
192 1540
192 1556
192 1574
192 1579
192 1615
192 1621
192 1623
192 1625
192 1663
192 1664
192 1676
192 1679
192 1741
192 1751
192 1767
192 1801
192 1809
192 1813
192 1816
192 1870
192 1873
192 1874
192 1886
192 1909
192 1961
192 1963
192 1974
192 1994
192 2040
192 2077
192 2082
192 2089
192 2095
192 2098
192 2130
192 2151
192 2164
192 2166
192 2167
192 2196
192 2202
192 2210
192 2225
192 2240
192 2252
192 2303
193 210
193 212
193 254
193 265
193 283
193 313
193 320
193 354
193 399
193 439
193 453
193 476
193 480
193 536
193 537
193 633
193 647
193 659
193 665
193 694
193 709
193 756
193 764
193 776
193 792
193 835
193 837
193 871
193 879
193 881
193 894
193 898
193 906
193 928
193 932
193 934
193 938
193 948
193 996
193 1003
193 1019
193 1050
193 1062
193 1082
193 1117
193 1120
193 1125
193 1142
193 1145
193 1150
193 1196
193 1201
193 1244
193 1265
193 1281
193 1289
193 1304
193 1308
193 1335
193 1355
193 1364
193 1401
193 1404
193 1448
193 1475
193 1493
193 1504
193 1533
193 1538
193 1626
193 1633
193 1648
193 1700
193 1706
193 1723
193 1755
193 1760
193 1790
193 1795
193 1796
193 1803
193 1806
193 1829
193 1857
193 1864
193 1893
193 1894
193 1953
193 2008
193 2049
193 2055
193 2076
193 2101
193 2111
193 2115
193 2128
193 2156
193 2213
193 2225
193 2252
193 2295
193 2304
194 203
194 269
194 290
194 294
194 296
194 316
194 350
194 368
194 466
194 496
194 503
194 543
194 563
194 568
194 610
194 668
194 778
194 784
194 805
194 861
194 915
194 932
194 945
194 956
194 961
194 986
194 998
194 1048
194 1089
194 1106
194 1148
194 1189
194 1232
194 1245
194 1265
194 1282
194 1300
194 1322
194 1354
194 1425
194 1465
194 1482
194 1485
194 1578
194 1634
194 1643
194 1730
194 1740
194 1748
194 1784
194 1831
194 1878
194 1885
194 1904
194 1927
194 1931
194 1964
194 1984
194 1992
194 2007
194 2031
194 2054
194 2070
194 2084
194 2092
194 2121
194 2135
194 2170
194 2179
194 2180
194 2189
194 2219
194 2232
194 2257
194 2260
194 2262
194 2266
194 2288
195 340
195 696
195 740
195 867
195 870
195 962
195 1083
195 1183
195 1274
195 1534
195 1720
195 1736
195 1838
195 2044
195 2052
195 2064
195 2195
195 2230
195 2243
195 2283
195 2287
196 227
196 240
196 251
196 252
196 303
196 319
196 348
196 383
196 392
196 395
196 423
196 431
196 432
196 437
196 440
196 442
196 443
196 446
196 453
196 472
196 493
196 494
196 524
196 528
196 549
196 550
196 563
196 564
196 570
196 575
196 578
196 601
196 602
196 603
196 639
196 702
196 705
196 753
196 759
196 761
196 776
196 823
196 848
196 854
196 861
196 863
196 864
196 866
196 878
196 894
196 898
196 920
196 941
196 950
196 998
196 1064
196 1071
196 1095
196 1096
196 1121
196 1122
196 1124
196 1149
196 1152
196 1172
196 1177
196 1188
196 1216
196 1234
196 1238
196 1292
196 1356
196 1358
196 1364
196 1377
196 1423
196 1485
196 1502
196 1556
196 1558
196 1564
196 1592
196 1619
196 1629
196 1663
196 1717
196 1738
196 1751
196 1765
196 1767
196 1776
196 1793
196 1801
196 1809
196 1816
196 1846
196 1870
196 1909
196 1957
196 1966
196 1996
196 2027
196 2047
196 2049
196 2089
196 2095
196 2100
196 2103
196 2127
196 2135
196 2151
196 2164
196 2167
196 2193
196 2196
196 2270
196 2271
197 212
197 228
197 284
197 290
197 368
197 416
197 527
197 550
197 563
197 607
197 636
197 676
197 681
197 702
197 711
197 723
197 737
197 750
197 793
197 808
197 815
197 831
197 861
197 908
197 915
197 916
197 934
197 935
197 969
197 986
197 988
197 1039
197 1043
197 1104
197 1105
197 1120
197 1128
197 1176
197 1221
197 1232
197 1265
197 1268
197 1279
197 1308
197 1318
197 1383
197 1385
197 1388
197 1400
197 1401
197 1438
197 1444
197 1500
197 1502
197 1519
197 1521
197 1535
197 1540
197 1549
197 1626
197 1677
197 1724
197 1755
197 1776
197 1799
197 1809
197 1825
197 1836
197 1891
197 1925
197 1926
197 2025
197 2094
197 2117
197 2138
197 2151
197 2245
198 222
198 229
198 262
198 340
198 552
198 595
198 600
198 625
198 657
198 660
198 678
198 680
198 696
198 714
198 761
198 806
198 838
198 891
198 899
198 914
198 925
198 929
198 943
198 962
198 997
198 1018
198 1050
198 1052
198 1126
198 1182
198 1223
198 1230
198 1239
198 1240
198 1287
198 1350
198 1374
198 1391
198 1412
198 1507
198 1534
198 1592
198 1610
198 1666
198 1672
198 1736
198 1756
198 1757
198 1771
198 1791
198 1810
198 1816
198 1889
198 1930
198 2018
198 2137
198 2151
198 2152
198 2158
198 2188
198 2199
198 2230
198 2283
199 2081
199 2220
200 201
200 204
200 258
200 274
200 287
200 331
200 364
200 372
200 401
200 433
200 468
200 504
200 513
200 546
200 630
200 658
200 689
200 691
200 692
200 826
200 893
200 901
200 954
200 993
200 1059
200 1085
200 1103
200 1136
200 1223
200 1252
200 1281
200 1298
200 1330
200 1332
200 1355
200 1392
200 1405
200 1411
200 1486
200 1489
200 1513
200 1559
200 1565
200 1599
200 1638
200 1699
200 1769
200 1781
200 1873
200 1999
200 2005
200 2036
200 2062
200 2078
200 2123
200 2132
200 2143
200 2251
201 213
201 228
201 234
201 251
201 252
201 266
201 268
201 271
201 274
201 275
201 303
201 308
201 325
201 331
201 332
201 338
201 342
201 343
201 351
201 354
201 369
201 370
201 383
201 392
201 401
201 408
201 415
201 423
201 429
201 431
201 433
201 437
201 441
201 442
201 446
201 452
201 453
201 458
201 462
201 465
201 472
201 478
201 484
201 491
201 492
201 493
201 494
201 498
201 504
201 506
201 511
201 512
201 520
201 523
201 528
201 535
201 538
201 549
201 562
201 592
201 601
201 633
201 642
201 677
201 679
201 689
201 690
201 693
201 698
201 702
201 703
201 714
201 727
201 742
201 753
201 756
201 759
201 762
201 776
201 786
201 792
201 802
201 822
201 824
201 825
201 833
201 848
201 854
201 860
201 863
201 865
201 874
201 875
201 876
201 878
201 883
201 886
201 894
201 898
201 904
201 923
201 924
201 950
201 951
201 953
201 967
201 970
201 993
201 998
201 1008
201 1038
201 1042
201 1045
201 1051
201 1064
201 1068
201 1070
201 1071
201 1082
201 1090
201 1092
201 1094
201 1095
201 1096
201 1122
201 1140
201 1143
201 1149
201 1151
201 1152
201 1169
201 1177
201 1180
201 1181
201 1193
201 1210
201 1216
201 1229
201 1238
201 1246
201 1251
201 1252
201 1259
201 1262
201 1268
201 1269
201 1274
201 1275
201 1281
201 1282
201 1287
201 1288
201 1292
201 1297
201 1298
201 1310
201 1324
201 1330
201 1332
201 1358
201 1362
201 1364
201 1371
201 1380
201 1392
201 1398
201 1405
201 1409
201 1411
201 1424
201 1443
201 1449
201 1469
201 1480
201 1485
201 1487
201 1501
201 1511
201 1513
201 1520
201 1523
201 1550
201 1556
201 1558
201 1559
201 1562
201 1566
201 1578
201 1579
201 1602
201 1606
201 1612
201 1615
201 1618
201 1621
201 1623
201 1655
201 1672
201 1679
201 1680
201 1685
201 1697
201 1716
201 1723
201 1741
201 1754
201 1763
201 1774
201 1778
201 1786
201 1793
201 1806
201 1809
201 1812
201 1813
201 1824
201 1828
201 1833
201 1845
201 1846
201 1849
201 1867
201 1872
201 1873
201 1896
201 1908
201 1909
201 1915
201 1924
201 1957
201 1958
201 1959
201 1963
201 1974
201 1977
201 1979
201 1983
201 2012
201 2014
201 2022
201 2027
201 2030
201 2045
201 2051
201 2058
201 2060
201 2062
201 2073
201 2078
201 2082
201 2095
201 2104
201 2130
201 2147
201 2163
201 2164
201 2166
201 2167
201 2182
201 2186
201 2192
201 2198
201 2202
201 2210
201 2212
201 2214
201 2220
201 2224
201 2225
201 2229
201 2233
201 2240
201 2268
201 2284
201 2289
201 2295
201 2306
201 2312
202 239
202 266
202 287
202 311
202 315
202 356
202 370
202 404
202 417
202 439
202 455
202 465
202 472
202 501
202 509
202 511
202 535
202 538
202 570
202 630
202 643
202 648
202 679
202 683
202 704
202 722
202 752
202 786
202 791
202 792
202 802
202 807
202 928
202 937
202 938
202 966
202 983
202 1020
202 1102
202 1110
202 1120
202 1130
202 1133
202 1182
202 1205
202 1206
202 1222
202 1241
202 1253
202 1271
202 1281
202 1308
202 1348
202 1352
202 1355
202 1388
202 1406
202 1434
202 1457
202 1466
202 1469
202 1487
202 1489
202 1513
202 1576
202 1606
202 1610
202 1645
202 1670
202 1685
202 1690
202 1693
202 1769
202 1780
202 1790
202 1802
202 1834
202 1852
202 1868
202 1869
202 1907
202 1910
202 1956
202 1963
202 1977
202 1995
202 2013
202 2048
202 2060
202 2062
202 2073
202 2116
202 2123
202 2143
202 2147
202 2163
202 2187
202 2195
202 2246
202 2272
202 2295
202 2296
203 350
203 415
203 443
203 453
203 496
203 503
203 543
203 563
203 566
203 568
203 756
203 778
203 912
203 932
203 998
203 1048
203 1089
203 1148
203 1177
203 1189
203 1238
203 1245
203 1300
203 1485
203 1513
203 1556
203 1625
203 1631
203 1654
203 1723
203 1741
203 1870
203 1927
203 1964
203 1990
203 2007
203 2062
203 2070
203 2088
203 2095
203 2098
203 2121
203 2140
203 2151
203 2189
203 2225
203 2257
203 2266
204 287
204 325
204 331
204 372
204 408
204 446
204 450
204 452
204 492
204 535
204 630
204 758
204 792
204 826
204 883
204 904
204 937
204 1015
204 1030
204 1094
204 1101
204 1252
204 1259
204 1275
204 1373
204 1570
204 1599
204 1618
204 1685
204 1890
204 1948
204 2005
204 2051
204 2078
204 2143
204 2147
204 2241
205 328
205 895
205 1985
205 2239
206 527
207 1908
208 293
208 568
208 1089
208 1117
208 1643
208 1648
208 1831
208 2109
208 2260
209 215
209 226
209 232
209 263
209 269
209 280
209 462
209 534
209 645
209 662
209 676
209 805
209 903
209 915
209 945
209 981
209 986
209 1220
209 1232
209 1280
209 1281
209 1361
209 1413
209 1416
209 1442
209 1497
209 1504
209 1515
209 1537
209 1541
209 1561
209 1724
209 1755
209 1772
209 1786
209 1885
209 1904
209 1911
209 1984
209 1992
209 2037
209 2149
209 2179
209 2203
209 2232
209 2267
209 2288
210 212
210 223
210 225
210 239
210 259
210 265
210 269
210 271
210 282
210 289
210 294
210 315
210 320
210 332
210 354
210 366
210 374
210 379
210 389
210 398
210 406
210 410
210 413
210 416
210 417
210 425
210 438
210 439
210 447
210 455
210 459
210 463
210 473
210 480
210 482
210 487
210 497
210 517
210 519
210 537
210 548
210 550
210 567
210 570
210 579
210 582
210 590
210 592
210 593
210 599
210 610
210 613
210 614
210 623
210 633
210 642
210 650
210 677
210 681
210 683
210 685
210 725
210 743
210 759
210 772
210 791
210 792
210 808
210 816
210 819
210 825
210 826
210 831
210 844
210 850
210 861
210 862
210 864
210 866
210 877
210 881
210 884
210 894
210 914
210 922
210 928
210 934
210 944
210 945
210 947
210 960
210 965
210 977
210 981
210 986
210 1009
210 1020
210 1029
210 1036
210 1066
210 1068
210 1075
210 1082
210 1087
210 1101
210 1109
210 1117
210 1142
210 1143
210 1144
210 1155
210 1161
210 1179
210 1194
210 1196
210 1198
210 1200
210 1211
210 1218
210 1220
210 1225
210 1232
210 1233
210 1250
210 1251
210 1252
210 1254
210 1265
210 1279
210 1283
210 1289
210 1303
210 1304
210 1308
210 1315
210 1331
210 1332
210 1334
210 1352
210 1354
210 1363
210 1378
210 1393
210 1424
210 1427
210 1430
210 1433
210 1439
210 1448
210 1458
210 1469
210 1482
210 1493
210 1495
210 1508
210 1511
210 1514
210 1520
210 1521
210 1537
210 1538
210 1563
210 1569
210 1583
210 1586
210 1589
210 1590
210 1595
210 1598
210 1606
210 1643
210 1648
210 1650
210 1658
210 1676
210 1708
210 1713
210 1717
210 1738
210 1740
210 1741
210 1746
210 1748
210 1755
210 1760
210 1765
210 1771
210 1790
210 1792
210 1798
210 1810
210 1813
210 1825
210 1845
210 1849
210 1853
210 1854
210 1862
210 1873
210 1874
210 1878
210 1882
210 1883
210 1885
210 1893
210 1903
210 1931
210 1948
210 1950
210 1951
210 1954
210 1956
210 1957
210 1963
210 1969
210 1983
210 1986
210 1992
210 1995
210 1999
210 2003
210 2004
210 2037
210 2039
210 2048
210 2055
210 2056
210 2067
210 2079
210 2094
210 2104
210 2111
210 2115
210 2117
210 2120
210 2149
210 2156
210 2177
210 2185
210 2200
210 2206
210 2211
210 2220
210 2223
210 2232
210 2242
210 2246
210 2255
210 2259
210 2261
210 2265
210 2277
210 2295
210 2303
210 2304
210 2306
210 2311
211 399
211 412
211 453
211 572
211 584
211 588
211 645
211 647
211 665
211 695
211 760
211 768
211 782
211 831
211 934
211 961
211 1035
211 1120
211 1256
211 1268
211 1308
211 1335
211 1390
211 1503
211 1512
211 1578
211 1643
211 1677
211 1751
211 1760
211 1785
211 1789
211 1859
211 1876
211 1885
211 2015
211 2151
211 2190
211 2204
212 215
212 254
212 282
212 313
212 332
212 350
212 354
212 397
212 438
212 476
212 482
212 550
212 552
212 599
212 647
212 674
212 676
212 695
212 704
212 711
212 712
212 725
212 738
212 760
212 782
212 798
212 815
212 830
212 850
212 871
212 873
212 881
212 900
212 906
212 909
212 980
212 997
212 1029
212 1031
212 1039
212 1074
212 1075
212 1111
212 1130
212 1137
212 1142
212 1145
212 1168
212 1176
212 1184
212 1197
212 1208
212 1220
212 1237
212 1265
212 1279
212 1280
212 1281
212 1337
212 1361
212 1385
212 1398
212 1416
212 1421
212 1433
212 1440
212 1444
212 1469
212 1499
212 1514
212 1561
212 1563
212 1576
212 1611
212 1650
212 1669
212 1676
212 1677
212 1700
212 1708
212 1709
212 1713
212 1734
212 1755
212 1771
212 1774
212 1782
212 1786
212 1790
212 1825
212 1845
212 1847
212 1848
212 1850
212 1874
212 1888
212 1911
212 1921
212 1931
212 1949
212 1953
212 1974
212 1982
212 1984
212 2007
212 2023
212 2037
212 2043
212 2049
212 2055
212 2056
212 2076
212 2079
212 2111
212 2120
212 2146
212 2150
212 2151
212 2156
212 2177
212 2234
212 2254
212 2288
212 2304
212 2311
213 235
213 241
213 247
213 258
213 274
213 287
213 303
213 312
213 325
213 331
213 342
213 343
213 348
213 356
213 359
213 375
213 401
213 423
213 433
213 437
213 445
213 446
213 458
213 460
213 465
213 472
213 479
213 484
213 491
213 494
213 496
213 504
213 506
213 510
213 523
213 535
213 538
213 544
213 550
213 559
213 562
213 564
213 578
213 588
213 613
213 620
213 630
213 643
213 658
213 670
213 679
213 683
213 687
213 689
213 690
213 691
213 692
213 698
213 703
213 721
213 729
213 730
213 758
213 792
213 802
213 824
213 848
213 860
213 875
213 883
213 890
213 901
213 904
213 930
213 942
213 953
213 1010
213 1011
213 1056
213 1059
213 1071
213 1079
213 1094
213 1113
213 1140
213 1149
213 1151
213 1164
213 1172
213 1174
213 1177
213 1188
213 1194
213 1238
213 1246
213 1252
213 1259
213 1262
213 1275
213 1281
213 1296
213 1321
213 1330
213 1332
213 1341
213 1347
213 1356
213 1358
213 1362
213 1364
213 1383
213 1394
213 1409
213 1424
213 1449
213 1494
213 1501
213 1511
213 1565
213 1566
213 1570
213 1576
213 1580
213 1584
213 1594
213 1599
213 1612
213 1623
213 1646
213 1655
213 1680
213 1683
213 1685
213 1767
213 1781
213 1817
213 1821
213 1828
213 1869
213 1884
213 1886
213 1890
213 1896
213 1924
213 1963
213 1987
213 2005
213 2030
213 2051
213 2062
213 2078
213 2082
213 2106
213 2110
213 2132
213 2143
213 2145
213 2192
213 2196
213 2205
213 2209
213 2210
213 2212
213 2233
213 2268
213 2284
214 247
214 274
214 330
214 370
214 410
214 419
214 506
214 525
214 531
214 559
214 567
214 599
214 616
214 623
214 633
214 755
214 787
214 798
214 803
214 829
214 839
214 877
214 892
214 900
214 983
214 1046
214 1074
214 1101
214 1159
214 1185
214 1254
214 1281
214 1312
214 1333
214 1340
214 1348
214 1355
214 1371
214 1433
214 1437
214 1442
214 1450
214 1511
214 1540
214 1563
214 1566
214 1576
214 1593
214 1650
214 1702
214 1709
214 1730
214 1779
214 1786
214 1787
214 1802
214 1812
214 1825
214 1834
214 1840
214 1844
214 1845
214 1852
214 1869
214 1874
214 1918
214 1924
214 1949
214 1982
214 1998
214 2024
214 2066
214 2097
214 2104
214 2168
214 2177
214 2191
214 2215
214 2232
214 2251
214 2265
215 269
215 296
215 332
215 397
215 406
215 417
215 421
215 466
215 497
215 504
215 534
215 563
215 567
215 610
215 611
215 623
215 629
215 633
215 640
215 652
215 665
215 672
215 673
215 676
215 705
215 708
215 709
215 711
215 712
215 738
215 746
215 782
215 805
215 815
215 833
215 841
215 850
215 910
215 961
215 980
215 1062
215 1077
215 1093
215 1111
215 1168
215 1184
215 1189
215 1225
215 1232
215 1244
215 1337
215 1340
215 1361
215 1384
215 1394
215 1413
215 1416
215 1433
215 1444
215 1451
215 1495
215 1502
215 1515
215 1538
215 1540
215 1558
215 1561
215 1590
215 1611
215 1669
215 1708
215 1738
215 1746
215 1748
215 1755
215 1784
215 1788
215 1795
215 1825
215 1844
215 1848
215 1888
215 1913
215 1921
215 1927
215 1931
215 1936
215 1949
215 1982
215 1984
215 2016
215 2017
215 2046
215 2049
215 2060
215 2067
215 2089
215 2150
215 2156
215 2160
215 2177
215 2206
215 2225
215 2242
215 2245
215 2261
215 2265
215 2267
215 2280
215 2311
216 319
216 331
216 334
216 429
216 460
216 469
216 504
216 505
216 511
216 514
216 585
216 594
216 631
216 642
216 670
216 741
216 743
216 753
216 756
216 818
216 868
216 879
216 893
216 932
216 944
216 954
216 972
216 984
216 1062
216 1191
216 1274
216 1283
216 1334
216 1485
216 1491
216 1520
216 1521
216 1530
216 1538
216 1564
216 1620
216 1625
216 1679
216 1742
216 1746
216 1752
216 1803
216 1843
216 1928
216 1957
216 2008
216 2046
216 2089
216 2122
216 2139
216 2174
216 2192
216 2292
216 2298
216 2309
217 220
217 305
217 310
217 389
217 392
217 406
217 409
217 437
217 467
217 472
217 511
217 513
217 522
217 565
217 588
217 613
217 641
217 643
217 659
217 685
217 694
217 735
217 737
217 741
217 748
217 756
217 759
217 764
217 792
217 809
217 812
217 825
217 835
217 843
217 853
217 861
217 868
217 879
217 893
217 954
217 969
217 1036
217 1049
217 1062
217 1094
217 1110
217 1116
217 1125
217 1158
217 1174
217 1225
217 1245
217 1268
217 1300
217 1305
217 1326
217 1334
217 1399
217 1411
217 1424
217 1446
217 1491
217 1500
217 1521
217 1540
217 1562
217 1564
217 1580
217 1598
217 1626
217 1640
217 1713
217 1760
217 1775
217 1853
217 1854
217 1882
217 1894
217 1974
217 1988
217 2007
217 2027
217 2055
217 2071
217 2177
217 2183
217 2185
217 2206
217 2307
218 1534
218 1985
219 246
219 267
219 371
219 451
219 483
219 495
219 511
219 541
219 550
219 552
219 595
219 625
219 626
219 696
219 783
219 790
219 867
219 914
219 957
219 1052
219 1107
219 1197
219 1235
219 1262
219 1263
219 1278
219 1306
219 1351
219 1365
219 1374
219 1486
219 1589
219 1592
219 1610
219 1711
219 1736
219 1756
219 1898
219 1952
219 1978
219 1981
219 2001
219 2002
219 2038
219 2044
219 2137
219 2164
219 2199
219 2217
219 2287
219 2302
220 293
220 317
220 423
220 431
220 453
220 522
220 670
220 685
220 698
220 702
220 815
220 902
220 941
220 950
220 988
220 1011
220 1149
220 1152
220 1186
220 1188
220 1193
220 1219
220 1268
220 1288
220 1339
220 1364
220 1369
220 1377
220 1380
220 1409
220 1485
220 1501
220 1512
220 1517
220 1520
220 1676
220 1680
220 1751
220 1767
220 1870
220 2106
220 2118
220 2193
220 2225
220 2312
221 284
221 304
221 341
221 416
221 435
221 487
221 550
221 624
221 636
221 681
221 961
221 1043
221 1089
221 1093
221 1305
221 1368
221 1438
221 1502
221 1590
221 1643
221 1775
221 1776
221 1866
221 1913
221 1945
221 1965
221 2245
221 2260
222 340
222 377
222 874
222 1197
222 1506
222 1873
222 1981
222 2123
223 239
223 252
223 263
223 268
223 270
223 289
223 304
223 306
223 315
223 320
223 346
223 373
223 387
223 404
223 435
223 440
223 443
223 447
223 497
223 515
223 532
223 553
223 554
223 558
223 587
223 603
223 607
223 668
223 672
223 673
223 710
223 743
223 752
223 754
223 759
223 770
223 800
223 814
223 819
223 825
223 838
223 871
223 908
223 917
223 921
223 928
223 960
223 983
223 998
223 1008
223 1063
223 1117
223 1133
223 1139
223 1150
223 1170
223 1181
223 1280
223 1304
223 1332
223 1337
223 1344
223 1393
223 1448
223 1482
223 1518
223 1569
223 1583
223 1590
223 1648
223 1657
223 1667
223 1703
223 1738
223 1743
223 1799
223 1845
223 1849
223 1851
223 1853
223 1857
223 1860
223 1868
223 1878
223 1885
223 1895
223 1945
223 1966
223 1991
223 2015
223 2023
223 2056
223 2151
223 2185
223 2187
223 2219
223 2261
223 2265
223 2274
223 2296
224 293
224 365
224 403
224 414
224 437
224 472
224 639
224 677
224 759
224 776
224 792
224 823
224 898
224 956
224 970
224 1121
224 1124
224 1325
224 1411
224 1520
224 1723
224 1751
224 1881
224 2175
225 567
225 1505
225 1650
225 1812
225 1825
226 230
226 277
226 280
226 315
226 466
226 487
226 529
226 533
226 551
226 553
226 610
226 645
226 651
226 652
226 676
226 724
226 743
226 761
226 782
226 813
226 836
226 858
226 915
226 939
226 960
226 961
226 986
226 1031
226 1039
226 1068
226 1073
226 1077
226 1104
226 1171
226 1175
226 1184
226 1220
226 1236
226 1281
226 1352
226 1361
226 1375
226 1401
226 1413
226 1416
226 1428
226 1463
226 1478
226 1504
226 1508
226 1515
226 1539
226 1587
226 1724
226 1786
226 1789
226 1799
226 1825
226 1839
226 1848
226 1878
226 1888
226 1904
226 1953
226 1954
226 1982
226 1984
226 2097
226 2101
226 2149
226 2156
226 2171
226 2184
226 2203
226 2215
226 2234
226 2254
226 2277
226 2304
227 250
227 259
227 277
227 287
227 315
227 319
227 331
227 343
227 346
227 361
227 383
227 385
227 389
227 390
227 392
227 417
227 418
227 421
227 432
227 446
227 459
227 461
227 468
227 473
227 482
227 487
227 494
227 497
227 504
227 513
227 517
227 519
227 545
227 550
227 563
227 572
227 575
227 579
227 584
227 589
227 591
227 593
227 609
227 610
227 611
227 629
227 631
227 643
227 665
227 701
227 705
227 712
227 714
227 754
227 785
227 791
227 792
227 800
227 812
227 836
227 848
227 853
227 872
227 884
227 912
227 923
227 930
227 932
227 958
227 961
227 968
227 982
227 998
227 1010
227 1038
227 1050
227 1062
227 1063
227 1091
227 1096
227 1098
227 1102
227 1103
227 1111
227 1122
227 1133
227 1136
227 1143
227 1156
227 1163
227 1166
227 1167
227 1175
227 1176
227 1203
227 1204
227 1218
227 1233
227 1249
227 1270
227 1277
227 1281
227 1282
227 1308
227 1310
227 1334
227 1343
227 1352
227 1377
227 1384
227 1387
227 1425
227 1458
227 1460
227 1485
227 1500
227 1513
227 1514
227 1539
227 1554
227 1557
227 1558
227 1564
227 1667
227 1671
227 1674
227 1706
227 1708
227 1715
227 1717
227 1726
227 1738
227 1741
227 1743
227 1746
227 1774
227 1782
227 1790
227 1798
227 1802
227 1828
227 1831
227 1864
227 1873
227 1901
227 1903
227 1908
227 1909
227 1927
227 1951
227 1957
227 1964
227 1994
227 2023
227 2027
227 2049
227 2062
227 2065
227 2066
227 2100
227 2115
227 2120
227 2129
227 2147
227 2151
227 2174
227 2212
227 2237
227 2260
227 2264
227 2270
227 2271
227 2274
227 2277
227 2280
227 2298
227 2304
228 247
228 264
228 304
228 311
228 332
228 346
228 356
228 368
228 370
228 381
228 419
228 425
228 435
228 455
228 472
228 498
228 511
228 516
228 538
228 559
228 567
228 607
228 624
228 636
228 679
228 681
228 683
228 711
228 723
228 728
228 770
228 787
228 815
228 824
228 863
228 909
228 916
228 924
228 928
228 935
228 937
228 986
228 1021
228 1104
228 1137
228 1160
228 1176
228 1177
228 1198
228 1221
228 1222
228 1281
228 1331
228 1333
228 1385
228 1398
228 1416
228 1438
228 1444
228 1487
228 1489
228 1502
228 1563
228 1581
228 1583
228 1615
228 1634
228 1645
228 1716
228 1803
228 1825
228 1848
228 1866
228 1869
228 1873
228 1904
228 1913
228 1919
228 1924
228 1945
228 1958
228 2013
228 2025
228 2043
228 2104
228 2133
228 2154
228 2187
228 2206
228 2237
228 2242
228 2260
228 2265
229 267
229 331
229 337
229 420
229 451
229 483
229 552
229 595
229 646
229 647
229 657
229 696
229 740
229 783
229 790
229 838
229 857
229 896
229 914
229 946
229 957
229 999
229 1052
229 1114
229 1192
229 1202
229 1230
229 1334
229 1338
229 1365
229 1374
229 1402
229 1408
229 1417
229 1452
229 1592
229 1593
229 1604
229 1665
229 1666
229 1711
229 1736
229 1756
229 1758
229 1819
229 1898
229 1902
229 2001
229 2006
229 2011
229 2038
229 2044
229 2099
229 2217
229 2253
230 244
230 254
230 265
230 277
230 283
230 313
230 315
230 320
230 332
230 344
230 397
230 459
230 487
230 509
230 517
230 535
230 536
230 553
230 559
230 614
230 623
230 633
230 645
230 714
230 724
230 755
230 760
230 772
230 792
230 836
230 850
230 871
230 881
230 906
230 907
230 909
230 915
230 945
230 947
230 980
230 981
230 986
230 997
230 1029
230 1039
230 1050
230 1068
230 1073
230 1074
230 1136
230 1142
230 1145
230 1150
230 1160
230 1161
230 1220
230 1258
230 1276
230 1301
230 1366
230 1375
230 1413
230 1428
230 1440
230 1463
230 1483
230 1493
230 1504
230 1508
230 1561
230 1563
230 1600
230 1650
230 1734
230 1771
230 1779
230 1789
230 1799
230 1810
230 1825
230 1874
230 1878
230 1895
230 1919
230 1924
230 1932
230 1953
230 1954
230 1969
230 1974
230 1989
230 2013
230 2024
230 2037
230 2068
230 2076
230 2090
230 2094
230 2101
230 2109
230 2111
230 2112
230 2113
230 2120
230 2128
230 2148
230 2156
230 2168
230 2171
230 2177
230 2223
230 2227
230 2232
230 2234
230 2244
230 2252
230 2265
230 2269
230 2277
230 2304
231 402
231 448
231 485
231 486
231 582
231 595
231 657
231 757
231 806
231 863
231 925
231 964
231 973
231 979
231 1026
231 1027
231 1134
231 1183
231 1272
231 1374
231 1461
231 1476
231 1498
231 1589
231 1622
231 1661
231 1662
231 1711
231 1791
231 1847
231 1933
231 2020
231 2044
231 2053
231 2178
232 269
232 645
232 836
232 903
232 915
232 1073
232 1171
232 1220
232 1258
232 1413
232 1416
232 1504
232 1541
232 1643
232 1885
232 1953
232 1961
232 1963
232 1984
232 2068
232 2156
232 2277
233 247
233 311
233 332
233 370
233 419
233 446
233 455
233 482
233 535
233 550
233 555
233 616
233 648
233 704
233 741
233 758
233 790
233 798
233 815
233 829
233 833
233 855
233 924
233 1008
233 1020
233 1092
233 1159
233 1200
233 1265
233 1309
233 1337
233 1348
233 1385
233 1398
233 1416
233 1417
233 1434
233 1437
233 1444
233 1483
233 1520
233 1563
233 1576
233 1702
233 1754
233 1755
233 1778
233 1786
233 1812
233 1835
233 1840
233 1848
233 1906
233 1921
233 1924
233 1949
233 1956
233 1963
233 1977
233 1982
233 2003
233 2020
233 2024
233 2043
233 2044
233 2062
233 2065
233 2104
233 2120
233 2123
233 2147
233 2156
233 2171
233 2210
233 2265
233 2273
233 2295
233 2304
233 2306
234 251
234 252
234 260
234 319
234 401
234 423
234 431
234 442
234 472
234 494
234 511
234 512
234 528
234 550
234 588
234 639
234 702
234 729
234 776
234 814
234 824
234 848
234 854
234 865
234 883
234 941
234 950
234 967
234 1038
234 1064
234 1071
234 1095
234 1096
234 1143
234 1149
234 1152
234 1180
234 1193
234 1287
234 1292
234 1364
234 1372
234 1377
234 1380
234 1387
234 1424
234 1485
234 1517
234 1538
234 1556
234 1559
234 1664
234 1680
234 1716
234 1767
234 1793
234 1846
234 1870
234 1908
234 1938
234 1959
234 1994
234 1996
234 2027
234 2098
234 2196
234 2202
234 2225
235 274
235 287
235 325
235 331
235 343
235 372
235 434
235 446
235 450
235 472
235 484
235 493
235 504
235 630
235 661
235 683
235 901
235 904
235 1054
235 1091
235 1094
235 1246
235 1259
235 1275
235 1281
235 1282
235 1388
235 1570
235 1594
235 1828
235 1873
235 1890
235 1963
235 1999
235 2005
235 2078
235 2093
236 259
236 281
236 299
236 315
236 346
236 361
236 365
236 380
236 405
236 472
236 475
236 511
236 525
236 549
236 594
236 602
236 687
236 753
236 762
236 782
236 792
236 821
236 852
236 863
236 898
236 913
236 918
236 926
236 941
236 942
236 968
236 977
236 1038
236 1054
236 1070
236 1121
236 1136
236 1164
236 1186
236 1233
236 1244
236 1249
236 1270
236 1283
236 1344
236 1368
236 1401
236 1457
236 1485
236 1523
236 1530
236 1539
236 1583
236 1639
236 1669
236 1706
236 1741
236 1743
236 1746
236 1762
236 1783
236 1806
236 1828
236 1831
236 1860
236 1927
236 1948
236 1962
236 1968
236 1986
236 1999
236 2003
236 2046
236 2049
236 2103
236 2225
236 2237
236 2244
236 2249
236 2271
237 280
237 1478
237 2179
237 2277
238 260
238 1061
238 1186
238 1680
239 247
239 273
239 315
239 320
239 356
239 370
239 399
239 404
239 430
239 433
239 434
239 438
239 439
239 455
239 472
239 498
239 516
239 517
239 535
239 555
239 596
239 616
239 643
239 648
239 674
239 685
239 686
239 704
239 728
239 736
239 775
239 782
239 786
239 787
239 792
239 798
239 806
239 850
239 862
239 909
239 923
239 924
239 928
239 937
239 938
239 960
239 1019
239 1027
239 1039
239 1051
239 1101
239 1103
239 1110
239 1133
239 1139
239 1142
239 1151
239 1194
239 1200
239 1222
239 1254
239 1275
239 1309
239 1312
239 1331
239 1348
239 1352
239 1363
239 1378
239 1385
239 1388
239 1398
239 1410
239 1424
239 1437
239 1455
239 1493
239 1508
239 1511
239 1513
239 1538
239 1563
239 1569
239 1576
239 1650
239 1676
239 1684
239 1709
239 1755
239 1780
239 1790
239 1802
239 1804
239 1810
239 1834
239 1852
239 1869
239 1883
239 1919
239 1924
239 1949
239 1954
239 1956
239 1966
239 1974
239 1977
239 1980
239 1999
239 2013
239 2019
239 2045
239 2059
239 2060
239 2062
239 2073
239 2074
239 2082
239 2086
239 2093
239 2104
239 2117
239 2120
239 2134
239 2144
239 2156
239 2187
239 2195
239 2198
239 2259
239 2272
239 2273
239 2295
239 2304
239 2306
240 472
240 883
240 996
240 1149
240 1259
240 1281
240 1485
240 1621
240 1767
240 1870
240 2089
240 2106
241 419
241 446
241 472
241 648
241 923
241 1563
241 1817
241 1963
241 2003
241 2062
241 2123
241 2163
241 2202
241 2214
241 2295
242 273
242 311
242 433
242 446
242 472
242 511
242 565
242 570
242 624
242 722
242 741
242 746
242 756
242 759
242 853
242 883
242 924
242 928
242 938
242 978
242 1008
242 1036
242 1045
242 1110
242 1133
242 1160
242 1253
242 1268
242 1271
242 1281
242 1318
242 1348
242 1371
242 1373
242 1388
242 1398
242 1405
242 1411
242 1424
242 1457
242 1466
242 1489
242 1521
242 1540
242 1583
242 1775
242 1780
242 1802
242 1804
242 1834
242 1863
242 1907
242 1910
242 1911
242 1963
242 1974
242 1984
242 1995
242 2003
242 2011
242 2049
242 2062
242 2272
242 2306
242 2312
243 309
243 336
243 420
243 428
243 505
243 626
243 740
243 790
243 842
243 867
243 999
243 1025
243 1033
243 1126
243 1131
243 1197
243 1225
243 1239
243 1290
243 1313
243 1316
243 1351
243 1374
243 1408
243 1417
243 1441
243 1508
243 1509
243 1536
243 1574
243 1591
243 1620
243 1647
243 1711
243 1721
243 1756
243 1801
243 1933
243 1943
243 1954
243 2013
243 2044
243 2077
243 2158
243 2199
243 2218
244 265
244 283
244 313
244 320
244 382
244 397
244 419
244 425
244 523
244 555
244 567
244 569
244 599
244 607
244 614
244 674
244 677
244 755
244 858
244 892
244 1060
244 1068
244 1077
244 1084
244 1137
244 1159
244 1233
244 1250
244 1253
244 1299
244 1361
244 1433
244 1440
244 1466
244 1489
244 1499
244 1539
244 1571
244 1621
244 1625
244 1676
244 1734
244 1755
244 1787
244 1803
244 1813
244 1818
244 1825
244 1844
244 1848
244 1874
244 1899
244 1907
244 1918
244 1921
244 1931
244 1935
244 1953
244 2068
244 2120
244 2206
244 2227
244 2234
244 2248
244 2252
244 2260
244 2276
244 2311
245 332
245 633
245 907
245 909
245 1039
245 1171
245 1220
245 1528
245 1878
245 1947
245 1963
245 1979
245 2076
245 2176
245 2227
245 2234
245 2252
246 315
246 487
246 535
246 588
246 633
246 743
246 750
246 799
246 881
246 915
246 1160
246 1201
246 1202
246 1233
246 1303
246 1352
246 1483
246 1493
246 1499
246 1508
246 1547
246 1563
246 1671
246 1676
246 1741
246 1743
246 1755
246 1790
246 1818
246 1953
246 1954
246 1964
246 2134
246 2220
246 2223
246 2277
247 271
247 274
247 280
247 283
247 311
247 330
247 332
247 356
247 364
247 370
247 410
247 419
247 438
247 441
247 457
247 481
247 482
247 498
247 506
247 509
247 553
247 559
247 567
247 599
247 616
247 623
247 633
247 640
247 643
247 704
247 714
247 722
247 736
247 755
247 786
247 787
247 788
247 792
247 798
247 803
247 807
247 829
247 830
247 836
247 839
247 860
247 877
247 883
247 892
247 894
247 900
247 937
247 951
247 960
247 961
247 971
247 983
247 991
247 997
247 1039
247 1046
247 1074
247 1075
247 1084
247 1101
247 1133
247 1138
247 1143
247 1159
247 1185
247 1200
247 1212
247 1236
247 1253
247 1254
247 1275
247 1281
247 1309
247 1312
247 1333
247 1340
247 1348
247 1392
247 1398
247 1411
247 1433
247 1437
247 1489
247 1511
247 1513
247 1520
247 1559
247 1563
247 1566
247 1571
247 1576
247 1590
247 1615
247 1650
247 1702
247 1709
247 1727
247 1729
247 1730
247 1755
247 1771
247 1774
247 1779
247 1786
247 1812
247 1813
247 1825
247 1834
247 1840
247 1844
247 1845
247 1852
247 1866
247 1869
247 1874
247 1907
247 1918
247 1924
247 1931
247 1939
247 1949
247 1950
247 1963
247 1974
247 1977
247 1998
247 1999
247 2024
247 2045
247 2059
247 2060
247 2066
247 2072
247 2073
247 2097
247 2104
247 2133
247 2156
247 2168
247 2177
247 2202
247 2206
247 2215
247 2221
247 2232
247 2234
247 2251
247 2265
247 2272
247 2304
248 275
248 280
248 282
248 288
248 320
248 338
248 366
248 397
248 399
248 403
248 404
248 413
248 439
248 445
248 446
248 458
248 494
248 548
248 570
248 592
248 637
248 642
248 709
248 741
248 762
248 764
248 837
248 884
248 893
248 894
248 906
248 1003
248 1016
248 1036
248 1067
248 1068
248 1091
248 1133
248 1142
248 1144
248 1181
248 1214
248 1242
248 1254
248 1275
248 1297
248 1348
248 1393
248 1430
248 1435
248 1440
248 1449
248 1571
248 1600
248 1606
248 1676
248 1697
248 1732
248 1743
248 1756
248 1771
248 1779
248 1796
248 1803
248 1806
248 1829
248 1874
248 1899
248 1913
248 1951
248 1953
248 1969
248 1974
248 2022
248 2063
248 2101
248 2111
248 2225
248 2248
248 2252
249 427
249 572
249 617
249 753
249 985
249 1165
249 2017
249 2057
249 2161
250 281
250 315
250 409
250 413
250 425
250 426
250 440
250 459
250 473
250 487
250 587
250 592
250 665
250 743
250 786
250 977
250 1031
250 1037
250 1044
250 1050
250 1078
250 1092
250 1136
250 1204
250 1205
250 1238
250 1267
250 1308
250 1337
250 1439
250 1455
250 1514
250 1537
250 1581
250 1583
250 1637
250 1728
250 1745
250 1765
250 1776
250 1792
250 1932
250 2066
250 2069
250 2089
250 2133
250 2172
250 2260
250 2269
250 2274
250 2277
250 2306
251 252
251 253
251 319
251 344
251 392
251 423
251 431
251 437
251 441
251 493
251 504
251 512
251 523
251 550
251 563
251 601
251 629
251 633
251 639
251 693
251 735
251 761
251 793
251 848
251 865
251 876
251 878
251 883
251 894
251 941
251 946
251 998
251 1064
251 1095
251 1122
251 1149
251 1180
251 1244
251 1268
251 1287
251 1288
251 1292
251 1297
251 1358
251 1364
251 1485
251 1503
251 1517
251 1556
251 1564
251 1579
251 1615
251 1621
251 1625
251 1746
251 1793
251 1801
251 1809
251 1816
251 1870
251 1908
251 1957
251 1966
251 1996
251 2027
251 2089
251 2098
251 2125
251 2151
251 2164
251 2167
251 2202
251 2225
251 2240
251 2289
252 293
252 303
252 312
252 315
252 317
252 318
252 327
252 392
252 394
252 406
252 408
252 421
252 423
252 431
252 437
252 440
252 441
252 442
252 453
252 472
252 489
252 493
252 497
252 500
252 522
252 523
252 524
252 528
252 549
252 550
252 576
252 585
252 601
252 631
252 652
252 673
252 693
252 702
252 705
252 711
252 712
252 714
252 734
252 738
252 742
252 743
252 753
252 761
252 765
252 822
252 824
252 825
252 831
252 848
252 860
252 861
252 863
252 865
252 875
252 876
252 878
252 894
252 920
252 924
252 931
252 932
252 949
252 950
252 955
252 998
252 1011
252 1031
252 1038
252 1061
252 1062
252 1063
252 1064
252 1071
252 1086
252 1095
252 1104
252 1111
252 1117
252 1121
252 1136
252 1149
252 1152
252 1171
252 1176
252 1180
252 1186
252 1198
252 1210
252 1216
252 1217
252 1238
252 1262
252 1268
252 1269
252 1288
252 1292
252 1297
252 1299
252 1307
252 1308
252 1355
252 1358
252 1364
252 1400
252 1401
252 1411
252 1417
252 1423
252 1425
252 1485
252 1517
252 1556
252 1562
252 1573
252 1578
252 1579
252 1602
252 1615
252 1619
252 1621
252 1625
252 1650
252 1654
252 1671
252 1676
252 1679
252 1689
252 1708
252 1715
252 1717
252 1718
252 1725
252 1746
252 1751
252 1787
252 1791
252 1792
252 1793
252 1802
252 1809
252 1839
252 1844
252 1849
252 1859
252 1870
252 1909
252 1940
252 1957
252 1959
252 1991
252 1996
252 2027
252 2040
252 2047
252 2066
252 2095
252 2098
252 2103
252 2127
252 2133
252 2135
252 2151
252 2159
252 2164
252 2166
252 2167
252 2177
252 2210
252 2214
252 2225
252 2240
252 2257
252 2260
252 2269
252 2270
252 2271
252 2295
253 259
253 305
253 315
253 380
253 385
253 391
253 404
253 406
253 413
253 439
253 442
253 443
253 454
253 482
253 515
253 519
253 530
253 557
253 567
253 623
253 629
253 665
253 707
253 709
253 743
253 753
253 762
253 792
253 812
253 831
253 861
253 865
253 910
253 941
253 971
253 1058
253 1062
253 1072
253 1093
253 1102
253 1124
253 1166
253 1176
253 1219
253 1224
253 1244
253 1262
253 1265
253 1273
253 1276
253 1282
253 1283
253 1308
253 1340
253 1358
253 1394
253 1503
253 1554
253 1584
253 1671
253 1717
253 1723
253 1741
253 1776
253 1792
253 1806
253 1821
253 1839
253 1844
253 1864
253 1866
253 1962
253 1983
253 2016
253 2027
253 2066
253 2067
253 2069
253 2108
253 2133
253 2135
253 2177
253 2196
253 2229
253 2242
253 2260
253 2269
254 265
254 283
254 320
254 330
254 332
254 345
254 354
254 476
254 529
254 533
254 552
254 553
254 599
254 605
254 633
254 788
254 807
254 830
254 836
254 841
254 871
254 896
254 900
254 906
254 915
254 947
254 952
254 983
254 1003
254 1029
254 1046
254 1073
254 1074
254 1075
254 1077
254 1084
254 1130
254 1138
254 1145
254 1150
254 1168
254 1171
254 1184
254 1197
254 1236
254 1237
254 1258
254 1280
254 1301
254 1333
254 1366
254 1433
254 1440
254 1457
254 1469
254 1563
254 1634
254 1690
254 1706
254 1724
254 1727
254 1755
254 1786
254 1803
254 1839
254 1847
254 1848
254 1849
254 1874
254 1893
254 1969
254 2007
254 2037
254 2045
254 2072
254 2076
254 2093
254 2097
254 2101
254 2111
254 2120
254 2128
254 2203
254 2204
254 2215
254 2227
254 2234
254 2242
254 2254
254 2265
255 258
255 375
255 387
255 415
255 446
255 585
255 642
255 643
255 683
255 794
255 802
255 923
255 924
255 983
255 1008
255 1085
255 1092
255 1101
255 1139
255 1177
255 1252
255 1254
255 1281
255 1392
255 1469
255 1495
255 1511
255 1513
255 1566
255 1576
255 1580
255 1603
255 1674
255 1819
255 1828
255 1834
255 1900
255 1915
255 1999
255 2082
255 2195
255 2275
255 2296
255 2309
256 315
256 319
256 365
256 413
256 472
256 513
256 522
256 545
256 609
256 672
256 701
256 760
256 773
256 779
256 784
256 853
256 912
256 956
256 1037
256 1143
256 1158
256 1223
256 1252
256 1318
256 1327
256 1354
256 1358
256 1411
256 1415
256 1451
256 1459
256 1475
256 1496
256 1520
256 1521
256 1540
256 1637
256 1668
256 1775
256 1799
256 1843
256 1854
256 1871
256 1903
256 1931
256 1982
256 2014
256 2046
256 2067
256 2161
256 2219
256 2271
256 2276
256 2292
257 427
257 568
257 572
257 593
257 847
257 864
257 1013
257 1048
257 1205
257 1539
257 1697
257 1750
257 1774
257 1974
257 2057
257 2190
257 2257
257 2266
257 2289
258 359
258 364
258 445
258 446
258 449
258 472
258 479
258 481
258 484
258 499
258 511
258 518
258 532
258 643
258 658
258 698
258 736
258 797
258 802
258 863
258 883
258 923
258 928
258 993
258 1008
258 1071
258 1090
258 1101
258 1103
258 1143
258 1156
258 1223
258 1251
258 1252
258 1254
258 1298
258 1330
258 1332
258 1362
258 1373
258 1405
258 1511
258 1542
258 1554
258 1565
258 1566
258 1580
258 1612
258 1638
258 1646
258 1672
258 1674
258 1699
258 1769
258 1824
258 1828
258 1963
258 1999
258 2003
258 2062
258 2093
258 2132
258 2143
258 2147
258 2187
258 2198
258 2275
258 2296
258 2306
259 264
259 268
259 290
259 304
259 320
259 346
259 361
259 368
259 379
259 385
259 389
259 390
259 406
259 417
259 421
259 435
259 443
259 472
259 473
259 482
259 487
259 496
259 497
259 550
259 575
259 591
259 610
259 611
259 623
259 635
259 652
259 705
259 712
259 738
259 754
259 756
259 759
259 785
259 792
259 800
259 810
259 812
259 831
259 861
259 918
259 919
259 932
259 992
259 998
259 1011
259 1038
259 1062
259 1063
259 1070
259 1086
259 1106
259 1111
259 1117
259 1118
259 1189
259 1201
259 1205
259 1218
259 1232
259 1234
259 1249
259 1265
259 1281
259 1283
259 1299
259 1304
259 1308
259 1337
259 1343
259 1363
259 1368
259 1385
259 1394
259 1439
259 1485
259 1520
259 1521
259 1546
259 1557
259 1558
259 1576
259 1583
259 1590
259 1667
259 1671
259 1700
259 1706
259 1715
259 1717
259 1723
259 1745
259 1776
259 1782
259 1792
259 1798
259 1825
259 1844
259 1864
259 1866
259 1870
259 1874
259 1879
259 1882
259 1908
259 1931
259 1945
259 1951
259 1974
259 2008
259 2013
259 2015
259 2023
259 2037
259 2043
259 2049
259 2066
259 2094
259 2100
259 2110
259 2117
259 2120
259 2124
259 2160
259 2185
259 2222
259 2237
259 2244
259 2245
259 2252
259 2260
259 2264
259 2269
259 2274
259 2280
260 268
260 270
260 285
260 331
260 361
260 365
260 374
260 380
260 409
260 416
260 429
260 440
260 445
260 452
260 504
260 512
260 519
260 540
260 550
260 584
260 613
260 619
260 623
260 639
260 642
260 655
260 708
260 724
260 732
260 735
260 756
260 792
260 800
260 811
260 813
260 846
260 848
260 930
260 971
260 972
260 984
260 1006
260 1024
260 1058
260 1061
260 1078
260 1079
260 1086
260 1094
260 1103
260 1115
260 1118
260 1124
260 1144
260 1170
260 1186
260 1238
260 1244
260 1262
260 1265
260 1315
260 1368
260 1405
260 1411
260 1416
260 1449
260 1460
260 1467
260 1544
260 1568
260 1586
260 1649
260 1680
260 1683
260 1744
260 1782
260 1783
260 1815
260 1870
260 1879
260 1927
260 1928
260 1940
260 1986
260 2000
260 2012
260 2014
260 2032
260 2084
260 2089
260 2105
260 2113
260 2162
260 2175
260 2182
260 2213
260 2221
260 2223
260 2242
260 2258
260 2274
260 2309
261 731
261 2161
262 328
262 508
262 552
262 595
262 657
262 713
262 740
262 749
262 799
262 895
262 943
262 1351
262 1395
262 1399
262 1402
262 1477
262 1534
262 1550
262 1739
262 1757
262 1791
262 2001
262 2044
262 2053
262 2137
262 2309
263 269
263 280
263 289
263 306
263 320
263 345
263 387
263 425
263 447
263 534
263 567
263 587
263 605
263 668
263 685
263 710
263 759
263 819
263 917
263 928
263 945
263 951
263 952
263 986
263 1008
263 1037
263 1039
263 1069
263 1073
263 1077
263 1117
263 1125
263 1138
263 1171
263 1181
263 1258
263 1280
263 1329
263 1337
263 1390
263 1393
263 1416
263 1439
263 1448
263 1451
263 1482
263 1515
263 1518
263 1643
263 1648
263 1669
263 1701
263 1703
263 1724
263 1825
263 1831
263 1845
263 1851
263 1857
263 1868
263 1895
263 1904
263 1921
263 2045
263 2187
263 2219
263 2254
263 2296
264 284
264 304
264 346
264 368
264 390
264 416
264 425
264 435
264 445
264 482
264 550
264 567
264 575
264 607
264 624
264 636
264 681
264 701
264 737
264 770
264 808
264 840
264 888
264 916
264 954
264 961
264 969
264 977
264 1011
264 1093
264 1170
264 1220
264 1225
264 1265
264 1305
264 1337
264 1368
264 1385
264 1415
264 1425
264 1502
264 1519
264 1581
264 1583
264 1586
264 1590
264 1667
264 1774
264 1831
264 1866
264 1925
264 1945
264 1984
264 2025
264 2066
264 2081
264 2133
264 2189
264 2260
264 2262
264 2274
265 277
265 283
265 313
265 315
265 320
265 362
265 381
265 397
265 410
265 476
265 506
265 553
265 559
265 584
265 645
265 674
265 718
265 760
265 768
265 782
265 798
265 836
265 841
265 850
265 871
265 907
265 909
265 915
265 947
265 961
265 970
265 980
265 981
265 986
265 991
265 1003
265 1015
265 1029
265 1039
265 1050
265 1053
265 1066
265 1068
265 1074
265 1075
265 1129
265 1136
265 1145
265 1150
265 1220
265 1256
265 1270
265 1299
265 1327
265 1361
265 1366
265 1375
265 1390
265 1440
265 1493
265 1504
265 1508
265 1548
265 1561
265 1563
265 1578
265 1588
265 1677
265 1679
265 1734
265 1754
265 1755
265 1760
265 1763
265 1786
265 1789
265 1799
265 1803
265 1810
265 1845
265 1848
265 1874
265 1878
265 1924
265 1931
265 1953
265 1954
265 1969
265 1980
265 1998
265 2008
265 2013
265 2024
265 2037
265 2068
265 2076
265 2094
265 2109
265 2111
265 2112
265 2120
265 2147
265 2148
265 2149
265 2151
265 2190
265 2191
265 2204
265 2220
265 2232
265 2234
265 2240
265 2244
265 2252
265 2277
265 2304
266 347
266 433
266 437
266 455
266 465
266 516
266 523
266 532
266 538
266 604
266 613
266 630
266 654
266 679
266 686
266 691
266 714
266 741
266 765
266 788
266 792
266 802
266 818
266 850
266 860
266 883
266 920
266 930
266 993
266 996
266 1016
266 1020
266 1027
266 1036
266 1042
266 1085
266 1092
266 1110
266 1130
266 1133
266 1203
266 1234
266 1241
266 1252
266 1271
266 1281
266 1330
266 1332
266 1348
266 1368
266 1388
266 1392
266 1421
266 1429
266 1434
266 1471
266 1489
266 1492
266 1563
266 1615
266 1690
266 1697
266 1700
266 1706
266 1716
266 1771
266 1774
266 1806
266 1853
266 1864
266 1872
266 1896
266 1906
266 1915
266 1919
266 1963
266 1974
266 2030
266 2045
266 2123
266 2185
266 2272
266 2284
266 2295
267 307
267 309
267 336
267 357
267 371
267 377
267 384
267 393
267 398
267 400
267 402
267 420
267 428
267 436
267 448
267 451
267 457
267 474
267 483
267 485
267 488
267 489
267 495
267 552
267 560
267 561
267 573
267 574
267 582
267 595
267 598
267 600
267 621
267 622
267 634
267 646
267 653
267 657
267 664
267 678
267 680
267 717
267 740
267 749
267 757
267 771
267 783
267 790
267 799
267 817
267 854
267 856
267 857
267 867
267 891
267 895
267 914
267 925
267 929
267 943
267 962
267 967
267 979
267 989
267 995
267 999
267 1025
267 1047
267 1052
267 1087
267 1100
267 1107
267 1114
267 1123
267 1126
267 1131
267 1134
267 1146
267 1178
267 1183
267 1187
267 1190
267 1197
267 1202
267 1226
267 1230
267 1239
267 1243
267 1248
267 1252
267 1255
267 1266
267 1287
267 1290
267 1293
267 1295
267 1306
267 1314
267 1320
267 1338
267 1351
267 1365
267 1374
267 1391
267 1402
267 1408
267 1412
267 1414
267 1417
267 1452
267 1453
267 1468
267 1477
267 1486
267 1527
267 1532
267 1534
267 1543
267 1551
267 1582
267 1585
267 1589
267 1591
267 1592
267 1610
267 1613
267 1661
267 1665
267 1678
267 1682
267 1691
267 1696
267 1711
267 1721
267 1729
267 1733
267 1736
267 1757
267 1758
267 1759
267 1791
267 1797
267 1819
267 1846
267 1847
267 1855
267 1861
267 1862
267 1865
267 1889
267 1898
267 1938
267 1947
267 1952
267 1978
267 1981
267 2001
267 2002
267 2011
267 2041
267 2044
267 2052
267 2053
267 2061
267 2077
267 2099
267 2107
267 2137
267 2152
267 2155
267 2173
267 2178
267 2199
267 2218
267 2230
267 2239
267 2243
267 2256
267 2293
267 2302
268 270
268 271
268 281
268 350
268 385
268 405
268 412
268 424
268 425
268 441
268 443
268 455
268 466
268 472
268 482
268 509
268 513
268 519
268 550
268 552
268 558
268 584
268 606
268 673
268 695
268 714
268 732
268 751
268 760
268 782
268 800
268 813
268 814
268 841
268 858
268 864
268 876
268 888
268 892
268 912
268 932
268 977
268 980
268 1020
268 1038
268 1070
268 1078
268 1089
268 1104
268 1117
268 1161
268 1170
268 1204
268 1226
268 1233
268 1265
268 1268
268 1281
268 1283
268 1290
268 1308
268 1334
268 1364
268 1372
268 1379
268 1412
268 1421
268 1479
268 1518
268 1520
268 1521
268 1533
268 1578
268 1590
268 1667
268 1677
268 1679
268 1782
268 1804
268 1818
268 1825
268 1849
268 1866
268 1867
268 1873
268 1895
268 1906
268 1908
268 1931
268 1951
268 1961
268 1963
268 1974
268 1980
268 1986
268 2023
268 2042
268 2055
268 2080
268 2094
268 2134
268 2136
268 2146
268 2171
268 2202
268 2217
268 2237
268 2274
268 2311
269 280
269 294
269 315
269 354
269 438
269 453
269 462
269 497
269 534
269 567
269 571
269 579
269 592
269 614
269 623
269 636
269 640
269 645
269 668
269 676
269 685
269 706
269 725
269 746
269 768
269 772
269 819
269 861
269 866
269 877
269 903
269 912
269 945
269 968
269 986
269 988
269 1003
269 1021
269 1039
269 1075
269 1137
269 1142
269 1220
269 1225
269 1232
269 1268
269 1318
269 1333
269 1352
269 1411
269 1413
269 1416
269 1430
269 1439
269 1442
269 1482
269 1485
269 1500
269 1504
269 1515
269 1535
269 1537
269 1578
269 1598
269 1620
269 1634
269 1643
269 1650
269 1676
269 1677
269 1703
269 1713
269 1738
269 1740
269 1748
269 1789
269 1818
269 1825
269 1851
269 1878
269 1909
269 1931
269 1951
269 1956
269 1982
269 1984
269 1992
269 2017
269 2025
269 2037
269 2055
269 2067
269 2101
269 2211
269 2227
269 2260
269 2277
269 2304
269 2306
270 281
270 289
270 308
270 383
270 406
270 412
270 413
270 439
270 443
270 466
270 501
270 519
270 558
270 565
270 587
270 665
270 685
270 759
270 760
270 767
270 813
270 814
270 816
270 861
270 864
270 876
270 888
270 922
270 932
270 944
270 975
270 1038
270 1044
270 1051
270 1070
270 1094
270 1095
270 1143
270 1155
270 1170
270 1191
270 1204
270 1251
270 1281
270 1283
270 1372
270 1424
270 1459
270 1467
270 1520
270 1558
270 1590
270 1625
270 1637
270 1667
270 1668
270 1738
270 1753
270 1765
270 1776
270 1798
270 1825
270 1864
270 1908
270 1951
270 1962
270 2008
270 2046
270 2100
270 2124
270 2182
270 2237
270 2249
270 2255
270 2260
270 2271
270 2274
271 294
271 354
271 399
271 405
271 421
271 472
271 497
271 567
271 579
271 592
271 601
271 607
271 610
271 616
271 647
271 665
271 677
271 705
271 712
271 714
271 753
271 761
271 782
271 808
271 841
271 858
271 866
271 876
271 894
271 934
271 954
271 956
271 960
271 986
271 1004
271 1011
271 1023
271 1038
271 1039
271 1057
271 1058
271 1062
271 1063
271 1070
271 1120
271 1128
271 1137
271 1158
271 1159
271 1177
271 1225
271 1232
271 1268
271 1308
271 1354
271 1364
271 1404
271 1411
271 1439
271 1444
271 1451
271 1508
271 1510
271 1520
271 1521
271 1535
271 1537
271 1544
271 1558
271 1590
271 1598
271 1630
271 1638
271 1646
271 1650
271 1658
271 1660
271 1663
271 1668
271 1676
271 1677
271 1687
271 1703
271 1713
271 1723
271 1738
271 1740
271 1748
271 1751
271 1755
271 1785
271 1804
271 1805
271 1825
271 1844
271 1857
271 1873
271 1874
271 1878
271 1883
271 1908
271 1931
271 1951
271 1961
271 1963
271 1974
271 1987
271 1992
271 2017
271 2021
271 2037
271 2043
271 2049
271 2055
271 2067
271 2073
271 2089
271 2094
271 2120
271 2148
271 2195
271 2211
271 2224
271 2237
271 2260
271 2277
271 2280
271 2305
271 2311
271 2312
272 333
272 393
272 678
272 679
272 874
272 896
272 1731
272 2002
273 311
273 331
273 341
273 399
273 404
273 419
273 434
273 441
273 465
273 472
273 509
273 620
273 624
273 674
273 704
273 722
273 755
273 798
273 862
273 877
273 924
273 928
273 937
273 938
273 960
273 983
273 1110
273 1130
273 1133
273 1139
273 1160
273 1200
273 1253
273 1254
273 1271
273 1281
273 1309
273 1348
273 1371
273 1385
273 1388
273 1398
273 1405
273 1434
273 1437
273 1466
273 1487
273 1489
273 1563
273 1650
273 1676
273 1709
273 1771
273 1786
273 1804
273 1844
273 1852
273 1907
273 1908
273 1911
273 1918
273 1949
273 1963
273 1977
273 1984
273 1995
273 2049
273 2058
273 2062
273 2104
273 2144
273 2195
273 2272
273 2305
273 2312
274 312
274 343
274 359
274 362
274 369
274 370
274 401
274 433
274 446
274 461
274 472
274 478
274 479
274 502
274 506
274 509
274 511
274 520
274 523
274 565
274 569
274 585
274 587
274 592
274 596
274 630
274 633
274 658
274 661
274 689
274 710
274 714
274 741
274 759
274 761
274 781
274 786
274 787
274 797
274 802
274 808
274 863
274 877
274 882
274 883
274 909
274 917
274 923
274 950
274 951
274 971
274 991
274 1046
274 1054
274 1092
274 1096
274 1101
274 1115
274 1116
274 1117
274 1143
274 1180
274 1211
274 1212
274 1246
274 1251
274 1252
274 1253
274 1254
274 1262
274 1271
274 1296
274 1310
274 1356
274 1371
274 1393
274 1411
274 1420
274 1427
274 1433
274 1455
274 1485
274 1511
274 1513
274 1531
274 1559
274 1571
274 1575
274 1579
274 1580
274 1645
274 1672
274 1697
274 1699
274 1716
274 1741
274 1763
274 1781
274 1812
274 1821
274 1822
274 1824
274 1828
274 1833
274 1834
274 1841
274 1845
274 1846
274 1867
274 1873
274 1884
274 1886
274 1915
274 1919
274 1922
274 1928
274 1958
274 1974
274 2029
274 2043
274 2060
274 2062
274 2065
274 2082
274 2112
274 2132
274 2187
274 2202
274 2210
274 2289
274 2306
275 288
275 304
275 338
275 368
275 399
275 435
275 439
275 493
275 570
275 593
275 624
275 647
275 654
275 709
275 721
275 770
275 792
275 808
275 836
275 837
275 861
275 884
275 1020
275 1082
275 1091
275 1102
275 1203
275 1214
275 1289
275 1297
275 1329
275 1335
275 1406
275 1435
275 1485
275 1583
275 1606
275 1676
275 1732
275 1741
275 1744
275 1771
275 1793
275 1796
275 1829
275 1854
275 1874
275 1913
275 1945
275 1953
275 1963
275 1995
275 2056
275 2063
275 2079
275 2197
275 2213
275 2260
275 2271
276 847
276 1750
276 2135
277 315
277 330
277 443
277 459
277 487
277 534
277 535
277 610
277 743
277 754
277 760
277 836
277 907
277 915
277 981
277 1038
277 1050
277 1058
277 1069
277 1129
277 1161
277 1171
277 1204
277 1303
277 1329
277 1337
277 1345
277 1375
277 1416
277 1418
277 1425
277 1428
277 1463
277 1493
277 1499
277 1504
277 1505
277 1508
277 1541
277 1567
277 1634
277 1669
277 1755
277 1827
277 1849
277 1885
277 1932
277 1953
277 1954
277 1984
277 2013
277 2097
277 2103
277 2134
277 2149
277 2150
277 2156
277 2179
277 2223
277 2227
277 2242
277 2245
277 2254
277 2261
277 2269
277 2277
277 2295
277 2304
278 400
278 451
278 600
278 634
278 650
278 671
278 680
278 817
278 995
278 1109
278 1226
278 1365
278 1477
278 1506
278 1543
278 1582
278 1651
278 1666
278 1686
278 1862
278 1869
278 1889
278 1970
278 2099
278 2230
279 701
279 735
279 872
279 1334
279 1368
279 2172
279 2301
280 296
280 305
280 311
280 323
280 330
280 332
280 335
280 345
280 352
280 410
280 413
280 417
280 462
280 471
280 501
280 531
280 533
280 534
280 584
280 593
280 605
280 623
280 633
280 640
280 645
280 651
280 662
280 672
280 676
280 685
280 704
280 706
280 707
280 711
280 724
280 738
280 755
280 772
280 782
280 798
280 805
280 819
280 839
280 850
280 858
280 873
280 892
280 903
280 939
280 945
280 971
280 986
280 1039
280 1044
280 1058
280 1060
280 1069
280 1073
280 1077
280 1111
280 1137
280 1138
280 1161
280 1208
280 1214
280 1219
280 1220
280 1236
280 1258
280 1276
280 1280
280 1281
280 1309
280 1329
280 1337
280 1354
280 1358
280 1361
280 1413
280 1416
280 1442
280 1444
280 1478
280 1495
280 1497
280 1505
280 1515
280 1541
280 1561
280 1576
280 1611
280 1634
280 1724
280 1755
280 1772
280 1786
280 1787
280 1789
280 1818
280 1825
280 1839
280 1844
280 1848
280 1878
280 1888
280 1904
280 1911
280 1921
280 1931
280 1936
280 1982
280 1984
280 1989
280 2046
280 2084
280 2094
280 2097
280 2104
280 2113
280 2141
280 2149
280 2150
280 2156
280 2171
280 2177
280 2203
280 2215
280 2223
280 2226
280 2232
280 2242
280 2255
280 2265
280 2267
280 2276
280 2277
281 320
281 346
281 380
281 409
281 421
281 453
281 487
281 497
281 519
281 570
281 590
281 629
281 639
281 701
281 712
281 767
281 782
281 804
281 813
281 831
281 848
281 874
281 888
281 919
281 932
281 972
281 977
281 1024
281 1038
281 1062
281 1063
281 1070
281 1104
281 1120
281 1147
281 1164
281 1170
281 1224
281 1249
281 1283
281 1372
281 1471
281 1520
281 1523
281 1531
281 1584
281 1630
281 1675
281 1745
281 1751
281 1752
281 1776
281 1792
281 1798
281 1995
281 2089
281 2094
281 2117
281 2237
281 2274
282 379
282 383
282 458
282 493
282 537
282 592
282 643
282 694
282 768
282 850
282 960
282 1092
282 1110
282 1143
282 1177
282 1211
282 1228
282 1252
282 1253
282 1270
282 1373
282 1466
282 1489
282 1499
282 1571
282 1600
282 1713
282 1755
282 1802
282 1880
282 1893
282 1935
282 1950
282 1974
282 1979
282 2013
282 2022
282 2055
282 2063
282 2101
282 2111
282 2147
282 2304
283 313
283 320
283 399
283 439
283 476
283 506
283 536
283 553
283 559
283 595
283 616
283 633
283 674
283 724
283 755
283 787
283 829
283 836
283 850
283 871
283 881
283 909
283 934
283 939
283 947
283 970
283 981
283 983
283 1029
283 1039
283 1066
283 1074
283 1075
283 1110
283 1126
283 1129
283 1145
283 1150
283 1200
283 1220
283 1222
283 1276
283 1301
283 1308
283 1327
283 1361
283 1366
283 1413
283 1440
283 1493
283 1504
283 1587
283 1589
283 1670
283 1676
283 1721
283 1734
283 1746
283 1755
283 1779
283 1796
283 1799
283 1803
283 1810
283 1825
283 1848
283 1874
283 1878
283 1918
283 1924
283 1935
283 1939
283 1953
283 1969
283 2008
283 2013
283 2037
283 2056
283 2068
283 2094
283 2101
283 2109
283 2113
283 2120
283 2128
283 2148
283 2156
283 2171
283 2176
283 2204
283 2234
283 2242
283 2244
283 2308
284 304
284 416
284 425
284 435
284 497
284 593
284 624
284 636
284 681
284 711
284 723
284 750
284 770
284 809
284 815
284 898
284 908
284 916
284 934
284 935
284 961
284 1011
284 1043
284 1060
284 1089
284 1176
284 1221
284 1281
284 1305
284 1318
284 1368
284 1385
284 1388
284 1400
284 1438
284 1444
284 1465
284 1500
284 1502
284 1519
284 1535
284 1563
284 1581
284 1583
284 1590
284 1643
284 1740
284 1775
284 1831
284 1866
284 1871
284 1903
284 1911
284 1926
284 1931
284 1945
284 1984
284 1989
284 2025
284 2138
284 2146
284 2260
285 293
285 380
285 445
285 732
285 954
285 1024
285 1244
285 1377
285 1471
285 2000
285 2082
285 2162
286 438
286 480
286 567
286 607
286 665
286 825
286 894
286 934
286 1057
286 1066
286 1120
286 1308
286 1401
286 1650
286 1805
286 2037
286 2237
287 315
287 325
287 331
287 335
287 343
287 351
287 353
287 359
287 370
287 372
287 388
287 415
287 422
287 433
287 446
287 450
287 452
287 458
287 465
287 472
287 484
287 492
287 501
287 511
287 538
287 550
287 562
287 623
287 630
287 641
287 655
287 658
287 679
287 703
287 715
287 718
287 756
287 758
287 792
287 803
287 846
287 864
287 874
287 883
287 904
287 909
287 923
287 951
287 957
287 959
287 978
287 993
287 1009
287 1010
287 1013
287 1015
287 1020
287 1042
287 1067
287 1071
287 1079
287 1090
287 1094
287 1103
287 1110
287 1133
287 1174
287 1177
287 1203
287 1205
287 1244
287 1252
287 1254
287 1259
287 1275
287 1281
287 1282
287 1283
287 1298
287 1330
287 1331
287 1347
287 1348
287 1373
287 1392
287 1396
287 1405
287 1411
287 1424
287 1429
287 1434
287 1437
287 1443
287 1489
287 1491
287 1492
287 1521
287 1539
287 1546
287 1559
287 1563
287 1566
287 1570
287 1576
287 1580
287 1598
287 1612
287 1638
287 1685
287 1699
287 1716
287 1719
287 1763
287 1769
287 1778
287 1802
287 1828
287 1829
287 1834
287 1852
287 1854
287 1869
287 1873
287 1884
287 1890
287 1891
287 1918
287 1920
287 1963
287 1974
287 1988
287 2029
287 2034
287 2043
287 2051
287 2062
287 2073
287 2104
287 2132
287 2163
287 2174
287 2190
287 2192
287 2195
287 2198
287 2212
287 2232
287 2233
287 2246
287 2251
287 2275
287 2295
287 2307
287 2309
288 301
288 338
288 343
288 359
288 366
288 376
288 383
288 499
288 567
288 570
288 575
288 613
288 616
288 642
288 709
288 767
288 792
288 816
288 837
288 883
288 894
288 1082
288 1156
288 1181
288 1223
288 1254
288 1297
288 1315
288 1334
288 1336
288 1355
288 1364
288 1387
288 1521
288 1531
288 1568
288 1570
288 1571
288 1586
288 1606
288 1612
288 1620
288 1676
288 1684
288 1697
288 1713
288 1806
288 1823
288 1843
288 1899
288 1913
288 1971
288 1974
288 1986
288 1994
288 1995
288 2036
288 2120
288 2213
288 2225
288 2252
288 2289
288 2303
289 320
289 416
289 457
289 487
289 558
289 567
289 587
289 646
289 668
289 685
289 705
289 710
289 735
289 741
289 743
289 749
289 759
289 798
289 819
289 882
289 917
289 928
289 952
289 977
289 999
289 1069
289 1104
289 1117
289 1138
289 1155
289 1168
289 1171
289 1181
289 1184
289 1202
289 1208
289 1280
289 1329
289 1337
289 1350
289 1354
289 1393
289 1425
289 1433
289 1439
289 1448
289 1469
289 1482
289 1495
289 1518
289 1590
289 1643
289 1648
289 1667
289 1669
289 1703
289 1715
289 1825
289 1845
289 1849
289 1857
289 1895
289 2001
289 2046
289 2066
289 2073
289 2103
289 2133
289 2150
289 2187
289 2245
289 2254
289 2261
289 2280
289 2295
290 293
290 412
290 461
290 466
290 580
290 601
290 635
290 809
290 874
290 912
290 935
290 936
290 1004
290 1048
290 1089
290 1153
290 1265
290 1322
290 1339
290 1462
290 1549
290 1688
290 1881
290 1885
290 1968
290 1984
290 2015
290 2108
290 2121
290 2135
290 2139
290 2189
290 2222
291 319
291 363
291 2292
292 349
292 392
292 394
292 436
292 489
292 504
292 541
292 598
292 727
292 856
292 914
292 925
292 940
292 974
292 989
292 1140
292 1290
292 1307
292 1320
292 1342
292 1364
292 1391
292 1394
292 1472
292 1534
292 1574
292 1656
292 1722
292 1725
292 1816
292 1832
292 1952
292 2044
292 2164
292 2199
293 308
293 310
293 376
293 380
293 412
293 421
293 427
293 437
293 453
293 462
293 466
293 472
293 475
293 493
293 503
293 513
293 522
293 527
293 539
293 556
293 566
293 572
293 580
293 594
293 598
293 601
293 610
293 670
293 685
293 715
293 732
293 750
293 751
293 753
293 759
293 784
293 809
293 812
293 822
293 823
293 837
293 848
293 861
293 888
293 894
293 908
293 912
293 958
293 972
293 982
293 988
293 990
293 1044
293 1048
293 1049
293 1051
293 1062
293 1072
293 1082
293 1097
293 1111
293 1117
293 1120
293 1121
293 1125
293 1152
293 1153
293 1167
293 1186
293 1280
293 1304
293 1358
293 1372
293 1383
293 1384
293 1394
293 1415
293 1462
293 1465
293 1496
293 1512
293 1520
293 1533
293 1540
293 1546
293 1556
293 1563
293 1568
293 1577
293 1586
293 1601
293 1609
293 1621
293 1625
293 1633
293 1688
293 1698
293 1718
293 1724
293 1751
293 1760
293 1775
293 1809
293 1815
293 1831
293 1885
293 1888
293 1904
293 1909
293 1968
293 1971
293 1976
293 1979
293 1984
293 1986
293 2014
293 2015
293 2031
293 2033
293 2042
293 2057
293 2108
293 2121
293 2135
293 2151
293 2162
293 2182
293 2189
293 2222
293 2226
293 2258
293 2266
293 2270
293 2271
293 2274
293 2288
294 335
294 388
294 497
294 527
294 550
294 563
294 568
294 579
294 593
294 613
294 731
294 864
294 866
294 912
294 956
294 1004
294 1038
294 1049
294 1089
294 1120
294 1148
294 1188
294 1225
294 1232
294 1358
294 1415
294 1430
294 1459
294 1481
294 1485
294 1537
294 1539
294 1546
294 1598
294 1650
294 1658
294 1713
294 1717
294 1738
294 1740
294 1748
294 1774
294 1799
294 1815
294 1854
294 1876
294 1885
294 1908
294 1931
294 1974
294 1992
294 2015
294 2017
294 2037
294 2055
294 2067
294 2146
294 2157
294 2161
294 2211
294 2245
294 2274
295 325
295 356
295 369
295 415
295 419
295 441
295 455
295 472
295 532
295 683
295 693
295 703
295 752
295 786
295 863
295 923
295 924
295 937
295 983
295 1046
295 1074
295 1090
295 1133
295 1222
295 1275
295 1341
295 1371
295 1645
295 1845
295 1873
295 1883
295 1919
295 1977
295 1988
295 2104
295 2144
295 2233
296 332
296 466
296 652
296 915
296 1003
296 1048
296 1561
296 1755
296 1788
296 1831
296 1885
296 1911
296 1931
296 1984
296 2057
296 2127
296 2226
296 2267
296 2288
297 857
297 896
297 1076
297 2119
298 347
298 453
298 523
298 577
298 590
298 675
298 714
298 753
298 819
298 858
298 876
298 915
298 920
298 1003
298 1004
298 1086
298 1175
298 1196
298 1206
298 1358
298 1421
298 1425
298 1547
298 1578
298 1689
298 1835
298 1836
298 1872
298 1896
298 1940
298 1961
298 2023
298 2030
298 2066
298 2081
298 2160
298 2220
299 380
299 514
299 762
299 972
299 1164
299 1186
299 1377
299 1435
299 1595
299 1650
299 1762
299 1928
299 1962
299 1986
299 2106
299 2292
300 374
300 449
300 470
300 694
300 762
300 898
300 1247
300 1485
300 1806
300 1858
300 1873
300 2213
300 2225
300 2252
300 2259
301 304
301 305
301 316
301 326
301 376
301 380
301 383
301 389
301 435
301 468
301 470
301 472
301 490
301 499
301 504
301 511
301 570
301 589
301 594
301 617
301 681
301 701
301 721
301 764
301 767
301 791
301 863
301 884
301 893
301 942
301 958
301 965
301 984
301 998
301 1023
301 1071
301 1091
301 1156
301 1158
301 1175
301 1177
301 1203
301 1223
301 1270
301 1277
301 1281
301 1334
301 1336
301 1353
301 1355
301 1410
301 1424
301 1435
301 1460
301 1499
301 1566
301 1612
301 1637
301 1640
301 1645
301 1657
301 1668
301 1723
301 1741
301 1742
301 1820
301 1843
301 1873
301 1894
301 1916
301 1964
301 1971
301 1994
301 1995
301 2037
301 2073
301 2122
301 2147
301 2187
301 2303
302 433
302 1985
303 325
303 401
303 404
303 408
303 437
303 441
303 446
303 452
303 453
303 472
303 538
303 585
303 596
303 633
303 690
303 693
303 727
303 758
303 824
303 894
303 904
303 937
303 959
303 1010
303 1049
303 1092
303 1169
303 1180
303 1210
303 1216
303 1252
303 1259
303 1281
303 1347
303 1358
303 1362
303 1489
303 1579
303 1615
303 1778
303 1793
303 1809
303 1870
303 1896
303 1909
303 1956
303 2078
303 2095
303 2164
303 2202
303 2210
303 2214
303 2233
303 2240
304 311
304 320
304 330
304 346
304 368
304 399
304 416
304 425
304 435
304 501
304 527
304 570
304 607
304 610
304 624
304 636
304 647
304 681
304 704
304 709
304 711
304 759
304 770
304 778
304 818
304 837
304 877
304 881
304 916
304 961
304 965
304 977
304 1016
304 1022
304 1036
304 1046
304 1073
304 1082
304 1085
304 1091
304 1093
304 1102
304 1176
304 1188
304 1211
304 1214
304 1220
304 1264
304 1281
304 1297
304 1304
304 1305
304 1318
304 1348
304 1368
304 1385
304 1388
304 1432
304 1438
304 1439
304 1455
304 1459
304 1485
304 1502
304 1513
304 1519
304 1581
304 1583
304 1590
304 1645
304 1657
304 1702
304 1732
304 1744
304 1790
304 1796
304 1829
304 1866
304 1913
304 1945
304 1989
304 2025
304 2037
304 2056
304 2092
304 2101
304 2109
304 2156
304 2197
304 2220
304 2223
304 2240
304 2260
304 2303
304 2304
305 319
305 338
305 376
305 437
305 461
305 472
305 490
305 513
305 521
305 522
305 570
305 588
305 607
305 641
305 643
305 654
305 721
305 735
305 741
305 746
305 750
305 756
305 776
305 809
305 812
305 835
305 843
305 853
305 879
305 884
305 912
305 923
305 956
305 958
305 965
305 984
305 986
305 988
305 1004
305 1016
305 1036
305 1038
305 1049
305 1070
305 1091
305 1093
305 1105
305 1125
305 1156
305 1158
305 1177
305 1189
305 1223
305 1245
305 1281
305 1296
305 1305
305 1318
305 1326
305 1334
305 1348
305 1364
305 1380
305 1387
305 1405
305 1411
305 1415
305 1435
305 1442
305 1473
305 1500
305 1513
305 1520
305 1521
305 1546
305 1568
305 1598
305 1612
305 1618
305 1626
305 1632
305 1638
305 1640
305 1675
305 1713
305 1741
305 1742
305 1750
305 1775
305 1802
305 1815
305 1835
305 1843
305 1873
305 1891
305 1927
305 1931
305 1950
305 1974
305 1994
305 2007
305 2034
305 2037
305 2073
305 2081
305 2089
305 2122
305 2236
306 312
306 320
306 387
306 481
306 532
306 554
306 587
306 648
306 658
306 668
306 679
306 755
306 759
306 819
306 928
306 959
306 1008
306 1117
306 1181
306 1275
306 1280
306 1332
306 1348
306 1371
306 1373
306 1380
306 1405
306 1429
306 1437
306 1482
306 1489
306 1511
306 1550
306 1566
306 1645
306 1648
306 1670
306 1674
306 1709
306 1802
306 1868
306 1918
306 1949
306 1963
306 1999
306 2043
306 2059
306 2073
306 2284
306 2296
307 680
307 783
307 929
307 1033
307 1047
307 1240
307 1334
307 1391
307 1412
307 1551
307 1553
307 1592
307 1771
307 1819
307 1861
307 1898
307 1905
307 2006
307 2044
307 2052
307 2053
307 2061
307 2152
307 2253
308 350
308 412
308 421
308 425
308 431
308 437
308 519
308 550
308 613
308 698
308 729
308 776
308 813
308 814
308 819
308 822
308 824
308 826
308 827
308 835
308 888
308 908
308 913
308 956
308 990
308 1010
308 1118
308 1121
308 1158
308 1170
308 1177
308 1193
308 1201
308 1268
308 1274
308 1281
308 1315
308 1324
308 1358
308 1372
308 1387
308 1409
308 1415
308 1496
308 1615
308 1663
308 1751
308 1809
308 1860
308 1957
308 1999
308 2012
308 2087
308 2125
308 2135
308 2182
308 2190
308 2237
308 2249
308 2301
309 336
309 337
309 371
309 420
309 428
309 451
309 552
309 600
309 621
309 626
309 664
309 680
309 740
309 757
309 771
309 867
309 870
309 914
309 930
309 999
309 1052
309 1107
309 1183
309 1197
309 1230
309 1239
309 1306
309 1313
309 1351
309 1408
309 1417
309 1441
309 1452
309 1477
309 1509
309 1527
309 1551
309 1582
309 1589
309 1592
309 1610
309 1696
309 1711
309 1720
309 1721
309 1736
309 1756
309 1846
309 1861
309 1889
309 1898
309 1933
309 1947
309 1981
309 2002
309 2038
309 2044
309 2052
309 2091
309 2199
309 2218
309 2253
309 2294
310 319
310 343
310 373
310 380
310 427
310 475
310 481
310 513
310 515
310 522
310 585
310 603
310 610
310 684
310 691
310 732
310 761
310 767
310 825
310 835
310 836
310 837
310 849
310 853
310 861
310 864
310 874
310 883
310 884
310 908
310 926
310 932
310 954
310 972
310 1049
310 1051
310 1082
310 1090
310 1097
310 1125
310 1137
310 1144
310 1156
310 1158
310 1167
310 1186
310 1211
310 1244
310 1280
310 1304
310 1308
310 1318
310 1326
310 1334
310 1358
310 1364
310 1368
310 1371
310 1384
310 1387
310 1392
310 1394
310 1415
310 1432
310 1451
310 1465
310 1473
310 1500
310 1520
310 1521
310 1533
310 1538
310 1540
310 1546
310 1554
310 1562
310 1564
310 1566
310 1568
310 1612
310 1620
310 1629
310 1633
310 1634
310 1644
310 1732
310 1778
310 1799
310 1809
310 1815
310 1831
310 1873
310 1885
310 1963
310 1974
310 1986
310 2008
310 2015
310 2016
310 2057
310 2087
310 2089
310 2140
310 2162
310 2182
310 2190
310 2264
310 2271
311 341
311 346
311 370
311 419
311 435
311 567
311 624
311 676
311 681
311 722
311 728
311 755
311 787
311 798
311 808
311 909
311 916
311 924
311 937
311 938
311 1110
311 1133
311 1139
311 1159
311 1160
311 1200
311 1253
311 1271
311 1274
311 1281
311 1299
311 1318
311 1348
311 1385
311 1388
311 1398
311 1437
311 1466
311 1499
311 1502
311 1519
311 1563
311 1566
311 1583
311 1676
311 1734
311 1799
311 1804
311 1812
311 1822
311 1825
311 1840
311 1844
311 1845
311 1852
311 1866
311 1907
311 1908
311 1911
311 1918
311 1945
311 1949
311 1984
311 2019
311 2021
311 2063
311 2104
311 2112
311 2113
311 2187
311 2195
311 2215
311 2260
311 2265
311 2272
311 2274
311 2302
311 2310
311 2312
312 348
312 364
312 365
312 387
312 401
312 431
312 437
312 440
312 441
312 481
312 494
312 511
312 538
312 540
312 550
312 554
312 562
312 588
312 723
312 729
312 730
312 738
312 824
312 875
312 904
312 924
312 1010
312 1023
312 1092
312 1095
312 1103
312 1188
312 1238
312 1253
312 1262
312 1274
312 1287
312 1290
312 1321
312 1355
312 1364
312 1371
312 1415
312 1466
312 1579
312 1594
312 1656
312 1674
312 1680
312 1828
312 1963
312 2003
312 2059
312 2062
312 2095
312 2145
312 2167
312 2212
312 2225
312 2228
312 2240
312 2296
312 2299
313 320
313 332
313 350
313 397
313 438
313 444
313 553
313 587
313 633
313 642
313 647
313 674
313 679
313 755
313 762
313 836
313 837
313 881
313 906
313 918
313 928
313 948
313 965
313 1068
313 1084
313 1117
313 1120
313 1142
313 1150
313 1160
313 1198
313 1281
313 1304
313 1308
313 1440
313 1448
313 1475
313 1504
313 1540
313 1561
313 1633
313 1648
313 1679
313 1771
313 1790
313 1796
313 1803
313 1848
313 1873
313 1874
313 1893
313 1895
313 1931
313 1953
313 1969
313 2037
313 2055
313 2076
313 2101
313 2111
313 2154
313 2252
313 2259
313 2265
314 472
314 557
314 559
314 593
314 676
314 759
314 835
314 853
314 947
314 1058
314 1066
314 1200
314 1515
314 1521
314 1539
314 1540
314 1587
314 1643
314 1677
314 1751
314 1760
314 1775
314 1799
314 1827
314 1848
314 1974
314 1982
314 2068
314 2156
314 2176
314 2195
314 2234
314 2242
315 335
315 338
315 347
315 362
315 368
315 374
315 379
315 405
315 406
315 410
315 413
315 416
315 417
315 444
315 445
315 446
315 459
315 461
315 462
315 473
315 482
315 487
315 509
315 517
315 525
315 527
315 535
315 541
315 545
315 550
315 567
315 575
315 584
315 591
315 603
315 609
315 610
315 614
315 623
315 640
315 645
315 648
315 662
315 665
315 673
315 675
315 694
315 695
315 701
315 704
315 705
315 706
315 712
315 714
315 715
315 743
315 747
315 748
315 753
315 760
315 768
315 772
315 775
315 779
315 782
315 785
315 787
315 791
315 792
315 802
315 807
315 836
315 841
315 846
315 858
315 860
315 861
315 862
315 872
315 876
315 881
315 887
315 892
315 893
315 894
315 904
315 907
315 914
315 915
315 919
315 920
315 930
315 939
315 944
315 949
315 960
315 961
315 965
315 972
315 977
315 980
315 981
315 986
315 998
315 1010
315 1023
315 1029
315 1035
315 1043
315 1050
315 1053
315 1060
315 1075
315 1086
315 1102
315 1111
315 1117
315 1136
315 1137
315 1156
315 1158
315 1160
315 1161
315 1168
315 1171
315 1175
315 1184
315 1185
315 1196
315 1198
315 1203
315 1212
315 1233
315 1241
315 1256
315 1260
315 1265
315 1270
315 1273
315 1276
315 1279
315 1281
315 1282
315 1283
315 1293
315 1299
315 1303
315 1308
315 1335
315 1352
315 1354
315 1388
315 1390
315 1392
315 1396
315 1406
315 1413
315 1415
315 1421
315 1422
315 1423
315 1425
315 1428
315 1439
315 1446
315 1460
315 1469
315 1475
315 1483
315 1490
315 1493
315 1502
315 1504
315 1505
315 1508
315 1514
315 1519
315 1528
315 1537
315 1540
315 1547
315 1554
315 1563
315 1564
315 1567
315 1573
315 1583
315 1595
315 1606
315 1610
315 1645
315 1655
315 1668
315 1669
315 1671
315 1675
315 1677
315 1679
315 1693
315 1708
315 1717
315 1723
315 1726
315 1734
315 1743
315 1751
315 1753
315 1771
315 1776
315 1787
315 1789
315 1790
315 1792
315 1799
315 1801
315 1803
315 1810
315 1813
315 1816
315 1818
315 1825
315 1836
315 1840
315 1844
315 1852
315 1854
315 1859
315 1860
315 1866
315 1872
315 1874
315 1878
315 1893
315 1903
315 1915
315 1921
315 1927
315 1931
315 1932
315 1947
315 1953
315 1954
315 1961
315 1962
315 1981
315 1991
315 2013
315 2022
315 2023
315 2030
315 2046
315 2048
315 2055
315 2056
315 2066
315 2068
315 2086
315 2089
315 2090
315 2101
315 2104
315 2113
315 2116
315 2126
315 2127
315 2129
315 2132
315 2133
315 2134
315 2135
315 2144
315 2146
315 2149
315 2163
315 2174
315 2177
315 2186
315 2191
315 2203
315 2220
315 2223
315 2225
315 2227
315 2232
315 2240
315 2255
315 2258
315 2259
315 2269
315 2277
315 2280
315 2295
315 2298
315 2304
316 326
316 343
316 350
316 380
316 383
316 393
316 403
316 415
316 437
316 454
316 472
316 496
316 503
316 532
316 543
316 545
316 563
316 568
316 570
316 579
316 580
316 589
316 594
316 617
316 655
316 656
316 701
316 746
316 756
316 778
316 791
316 872
316 884
316 923
316 932
316 958
316 970
316 972
316 998
316 1004
316 1019
316 1034
316 1048
316 1085
316 1091
316 1096
316 1103
316 1148
316 1177
316 1186
316 1189
316 1193
316 1245
316 1277
316 1300
316 1310
316 1325
316 1355
316 1386
316 1435
316 1460
316 1485
316 1513
316 1521
316 1544
316 1598
316 1640
316 1657
316 1741
316 1873
316 1927
316 1964
316 1990
316 1995
316 2007
316 2037
316 2057
316 2062
316 2070
316 2088
316 2115
316 2121
316 2140
316 2154
316 2175
316 2192
316 2251
316 2266
316 2289
317 318
317 394
317 423
317 437
317 441
317 446
317 453
317 742
317 924
317 931
317 946
317 949
317 1149
317 1269
317 1281
317 1292
317 1364
317 1556
317 1574
317 1579
317 1650
317 1873
317 2151
317 2225
318 394
318 423
318 437
318 598
318 687
318 753
318 890
318 931
318 940
318 1064
318 1149
318 1281
318 1307
318 1364
318 1417
318 1880
318 2151
318 2166
318 2175
318 2196
318 2225
319 363
319 380
319 403
319 454
319 456
319 468
319 496
319 501
319 521
319 545
319 563
319 575
319 601
319 607
319 610
319 619
319 631
319 670
319 679
319 701
319 711
319 750
319 756
319 792
319 793
319 822
319 827
319 846
319 848
319 849
319 872
319 884
319 908
319 915
319 919
319 923
319 930
319 944
319 961
319 969
319 975
319 982
319 988
319 998
319 1049
319 1095
319 1125
319 1175
319 1189
319 1233
319 1318
319 1334
319 1339
319 1358
319 1380
319 1387
319 1415
319 1424
319 1451
319 1460
319 1462
319 1464
319 1473
319 1485
319 1503
319 1517
319 1520
319 1535
319 1564
319 1566
319 1620
319 1625
319 1663
319 1668
319 1750
319 1761
319 1777
319 1809
319 1835
319 1873
319 1885
319 1891
319 1897
319 1926
319 1946
319 1957
319 2008
319 2012
319 2017
319 2027
319 2036
319 2057
319 2089
319 2135
319 2157
319 2161
319 2172
319 2237
319 2270
319 2281
319 2292
319 2298
319 2308
320 330
320 332
320 338
320 352
320 354
320 366
320 373
320 374
320 385
320 397
320 404
320 419
320 438
320 443
320 447
320 468
320 476
320 479
320 481
320 494
320 497
320 515
320 537
320 553
320 554
320 558
320 570
320 587
320 593
320 603
320 605
320 613
320 623
320 633
320 639
320 668
320 674
320 676
320 685
320 710
320 712
320 725
320 729
320 752
320 754
320 755
320 756
320 759
320 767
320 770
320 792
320 808
320 819
320 830
320 836
320 837
320 841
320 850
320 871
320 877
320 881
320 884
320 892
320 894
320 906
320 917
320 928
320 932
320 947
320 965
320 980
320 983
320 996
320 997
320 1008
320 1020
320 1029
320 1038
320 1039
320 1063
320 1068
320 1075
320 1082
320 1084
320 1104
320 1111
320 1117
320 1133
320 1138
320 1139
320 1142
320 1145
320 1150
320 1168
320 1181
320 1200
320 1211
320 1220
320 1228
320 1253
320 1256
320 1265
320 1270
320 1280
320 1299
320 1301
320 1304
320 1335
320 1344
320 1355
320 1361
320 1366
320 1393
320 1401
320 1425
320 1427
320 1430
320 1437
320 1439
320 1440
320 1448
320 1482
320 1493
320 1499
320 1504
320 1514
320 1518
320 1550
320 1561
320 1569
320 1571
320 1576
320 1581
320 1586
320 1600
320 1634
320 1648
320 1650
320 1669
320 1671
320 1672
320 1676
320 1703
320 1718
320 1724
320 1727
320 1734
320 1743
320 1755
320 1779
320 1781
320 1786
320 1796
320 1803
320 1806
320 1813
320 1825
320 1844
320 1845
320 1848
320 1849
320 1851
320 1857
320 1868
320 1874
320 1895
320 1898
320 1899
320 1935
320 1945
320 1953
320 1966
320 1969
320 1974
320 1989
320 1995
320 2037
320 2055
320 2056
320 2063
320 2065
320 2068
320 2076
320 2079
320 2089
320 2097
320 2101
320 2111
320 2120
320 2128
320 2156
320 2187
320 2204
320 2219
320 2220
320 2245
320 2248
320 2252
320 2261
320 2265
320 2296
320 2298
321 412
321 432
321 684
321 711
321 792
321 815
321 849
321 1038
321 1070
321 1339
321 1372
321 1512
321 1520
321 1535
321 1537
321 1703
321 1799
321 1806
321 1891
321 1926
321 2081
321 2094
321 2135
321 2161
321 2237
321 2277
321 2298
322 442
322 743
322 1497
322 1503
322 1723
322 1746
322 1870
322 2046
322 2113
323 330
323 345
323 482
323 533
323 557
323 724
323 743
323 952
323 1073
323 1077
323 1138
323 1168
323 1171
323 1184
323 1225
323 1236
323 1329
323 1340
323 1567
323 1590
323 1724
323 1808
323 1825
323 1839
323 1849
323 1888
323 2091
323 2097
323 2113
323 2128
323 2203
323 2215
323 2223
323 2234
323 2242
323 2245
323 2254
324 398
324 799
324 867
324 889
324 1347
324 1543
324 1555
324 1592
324 1791
324 2004
325 331
325 342
325 343
325 361
325 372
325 408
325 415
325 446
325 450
325 452
325 472
325 484
325 492
325 535
325 555
325 562
325 588
325 630
325 643
325 655
325 658
325 661
325 690
325 693
325 703
325 758
325 792
325 833
325 883
325 901
325 904
325 924
325 937
325 959
325 1009
325 1015
325 1042
325 1051
325 1067
325 1092
325 1094
325 1174
325 1194
325 1251
325 1252
325 1259
325 1275
325 1341
325 1485
325 1565
325 1570
325 1580
325 1590
325 1612
325 1618
325 1646
325 1655
325 1685
325 1778
325 1828
325 1890
325 1948
325 1988
325 2005
325 2051
325 2078
325 2198
325 2210
325 2241
326 380
326 383
326 430
326 460
326 468
326 472
326 504
326 545
326 581
326 589
326 594
326 617
326 643
326 665
326 677
326 701
326 729
326 735
326 791
326 831
326 852
326 872
326 884
326 930
326 958
326 965
326 970
326 1023
326 1165
326 1169
326 1175
326 1203
326 1277
326 1281
326 1308
326 1325
326 1355
326 1377
326 1435
326 1460
326 1467
326 1485
326 1512
326 1640
326 1668
326 1726
326 1743
326 1814
326 1873
326 1922
326 1971
326 1974
326 1995
326 2116
326 2129
326 2175
326 2307
326 2308
327 405
327 446
327 606
327 649
327 667
327 679
327 686
327 714
327 722
327 752
327 782
327 858
327 860
327 876
327 907
327 924
327 983
327 1088
327 1177
327 1189
327 1281
327 1309
327 1371
327 1421
327 1457
327 1490
327 1771
327 1804
327 1947
327 1961
327 2059
327 2240
327 2272
327 2311
328 789
328 895
328 943
328 1306
328 1395
328 1534
328 1553
328 1905
328 2044
328 2239
329 433
329 479
329 494
329 585
329 643
329 687
329 806
329 1056
329 1094
329 1281
329 1364
329 1368
329 1469
329 1623
329 1699
329 1719
329 1842
329 1910
329 1963
329 2062
329 2143
329 2210
330 332
330 344
330 345
330 418
330 504
330 529
330 531
330 533
330 557
330 567
330 605
330 616
330 623
330 633
330 651
330 662
330 668
330 707
330 724
330 830
330 836
330 839
330 871
330 876
330 892
330 900
330 939
330 947
330 952
330 983
330 1039
330 1073
330 1077
330 1084
330 1138
330 1145
330 1161
330 1171
330 1184
330 1198
330 1220
330 1236
330 1258
330 1265
330 1276
330 1281
330 1301
330 1329
330 1433
330 1497
330 1528
330 1533
330 1567
330 1576
330 1669
330 1724
330 1727
330 1787
330 1808
330 1810
330 1825
330 1839
330 1840
330 1845
330 1848
330 1849
330 1866
330 1878
330 1888
330 1904
330 1936
330 1969
330 1998
330 2024
330 2068
330 2072
330 2094
330 2097
330 2113
330 2128
330 2168
330 2176
330 2203
330 2215
330 2223
330 2232
330 2234
330 2237
330 2242
330 2245
330 2254
330 2260
330 2261
331 343
331 359
331 372
331 399
331 408
331 415
331 429
331 441
331 446
331 450
331 452
331 478
331 484
331 491
331 492
331 504
331 532
331 535
331 538
331 544
331 562
331 564
331 578
331 588
331 624
331 630
331 655
331 661
331 670
331 693
331 703
331 756
331 758
331 792
331 793
331 821
331 825
331 833
331 846
331 853
331 874
331 879
331 883
331 893
331 900
331 901
331 904
331 923
331 924
331 930
331 936
331 946
331 954
331 959
331 993
331 1015
331 1024
331 1030
331 1079
331 1086
331 1090
331 1094
331 1103
331 1110
331 1133
331 1151
331 1194
331 1203
331 1251
331 1253
331 1259
331 1260
331 1271
331 1275
331 1330
331 1341
331 1347
331 1411
331 1424
331 1466
331 1467
331 1487
331 1489
331 1491
331 1492
331 1507
331 1570
331 1580
331 1605
331 1618
331 1626
331 1646
331 1655
331 1685
331 1719
331 1744
331 1778
331 1817
331 1828
331 1890
331 1894
331 1928
331 1948
331 1988
331 2003
331 2005
331 2006
331 2016
331 2034
331 2051
331 2062
331 2073
331 2082
331 2132
331 2143
331 2167
331 2174
331 2198
331 2202
331 2210
331 2214
331 2241
331 2309
332 344
332 370
332 397
332 419
332 425
332 438
332 453
332 462
332 471
332 476
332 487
332 531
332 533
332 534
332 550
332 553
332 599
332 605
332 614
332 616
332 623
332 633
332 640
332 649
332 652
332 674
332 676
332 704
332 708
332 709
332 711
332 722
332 738
332 748
332 755
332 782
332 798
332 800
332 805
332 808
332 815
332 836
332 850
332 861
332 871
332 876
332 880
332 881
332 894
332 900
332 906
332 924
332 939
332 942
332 947
332 955
332 961
332 981
332 997
332 1012
332 1032
332 1039
332 1058
332 1066
332 1068
332 1074
332 1075
332 1077
332 1084
332 1095
332 1111
332 1145
332 1150
332 1159
332 1200
332 1208
332 1250
332 1276
332 1280
332 1299
332 1301
332 1309
332 1333
332 1337
332 1340
332 1361
332 1366
332 1375
332 1398
332 1404
332 1416
332 1433
332 1440
332 1444
332 1448
332 1450
332 1451
332 1493
332 1497
332 1504
332 1508
332 1510
332 1513
332 1515
332 1528
332 1561
332 1563
332 1576
332 1633
332 1708
332 1727
332 1755
332 1772
332 1784
332 1786
332 1788
332 1793
332 1798
332 1803
332 1810
332 1812
332 1813
332 1825
332 1831
332 1844
332 1848
332 1852
332 1874
332 1888
332 1895
332 1904
332 1911
332 1918
332 1921
332 1924
332 1931
332 1935
332 1939
332 1949
332 1954
332 1969
332 1977
332 1982
332 1984
332 1989
332 2021
332 2024
332 2051
332 2060
332 2066
332 2068
332 2076
332 2084
332 2094
332 2097
332 2101
332 2104
332 2120
332 2128
332 2133
332 2149
332 2150
332 2156
332 2160
332 2167
332 2168
332 2177
332 2189
332 2200
332 2226
332 2227
332 2234
332 2242
332 2252
332 2260
332 2263
332 2265
332 2267
332 2288
332 2302
332 2306
333 356
333 621
333 715
333 870
333 979
333 1088
333 1154
333 1248
333 1263
333 1365
333 1493
333 1525
333 1662
333 2297
333 2302
333 2304
334 359
334 453
334 469
334 490
334 499
334 514
334 530
334 572
334 574
334 613
334 713
334 721
334 735
334 743
334 756
334 827
334 852
334 853
334 861
334 984
334 1153
334 1156
334 1157
334 1165
334 1223
334 1244
334 1315
334 1334
334 1380
334 1387
334 1520
334 1521
334 1530
334 1738
334 1742
334 1746
334 1752
334 1843
334 1885
334 1968
334 1988
334 1994
334 2046
334 2105
334 2122
334 2174
334 2186
334 2249
334 2264
335 358
335 373
335 388
335 422
335 431
335 461
335 499
335 515
335 527
335 534
335 543
335 568
335 579
335 593
335 613
335 623
335 640
335 641
335 707
335 715
335 753
335 761
335 778
335 824
335 831
335 840
335 848
335 864
335 866
335 883
335 931
335 956
335 978
335 1004
335 1013
335 1020
335 1040
335 1048
335 1049
335 1089
335 1120
335 1127
335 1158
335 1205
335 1225
335 1256
335 1267
335 1348
335 1372
335 1373
335 1387
335 1415
335 1444
335 1465
335 1495
335 1539
335 1546
335 1554
335 1578
335 1598
335 1663
335 1730
335 1748
335 1750
335 1799
335 1809
335 1812
335 1815
335 1834
335 1844
335 1853
335 1854
335 1874
335 1885
335 1891
335 1903
335 1974
335 2017
335 2043
335 2067
335 2146
335 2161
335 2185
335 2190
335 2203
335 2219
335 2236
335 2251
335 2257
335 2266
335 2295
336 349
336 371
336 377
336 420
336 428
336 483
336 532
336 595
336 622
336 680
336 691
336 740
336 771
336 790
336 891
336 896
336 914
336 925
336 946
336 957
336 962
336 979
336 1052
336 1065
336 1099
336 1107
336 1131
336 1199
336 1202
336 1226
336 1227
336 1230
336 1239
336 1243
336 1278
336 1306
336 1351
336 1365
336 1374
336 1402
336 1408
336 1414
336 1436
336 1452
336 1486
336 1527
336 1551
336 1574
336 1579
336 1616
336 1666
336 1721
336 1725
336 1735
336 1736
336 1756
336 1819
336 1846
336 1862
336 1898
336 1938
336 1970
336 1981
336 2011
336 2044
336 2052
336 2099
336 2144
336 2158
336 2199
336 2218
336 2273
336 2294
337 349
337 393
337 420
337 457
337 489
337 552
337 657
337 740
337 757
337 799
337 857
337 867
337 891
337 943
337 979
337 1099
337 1107
337 1146
337 1157
337 1183
337 1202
337 1226
337 1338
337 1346
337 1374
337 1382
337 1402
337 1408
337 1486
337 1522
337 1536
337 1543
337 1610
337 1617
337 1651
337 1739
337 1819
337 1826
337 1830
337 1889
337 1892
337 1952
337 1981
337 2001
337 2006
337 2044
337 2053
337 2080
337 2091
337 2099
337 2152
337 2218
337 2253
338 359
338 366
338 369
338 383
338 472
338 511
338 553
338 570
338 642
338 654
338 677
338 698
338 741
338 746
338 756
338 759
338 765
338 776
338 816
338 818
338 898
338 923
338 924
338 937
338 949
338 965
338 1008
338 1013
338 1016
338 1036
338 1045
338 1068
338 1071
338 1085
338 1116
338 1117
338 1127
338 1151
338 1181
338 1205
338 1206
338 1244
338 1251
338 1253
338 1256
338 1270
338 1271
338 1275
338 1296
338 1298
338 1336
338 1348
338 1352
338 1355
338 1405
338 1411
338 1440
338 1466
338 1471
338 1485
338 1508
338 1513
338 1521
338 1539
338 1564
338 1570
338 1571
338 1583
338 1598
338 1600
338 1606
338 1670
338 1675
338 1697
338 1716
338 1749
338 1769
338 1823
338 1834
338 1835
338 1853
338 1873
338 1899
338 1911
338 1913
338 1916
338 1956
338 1958
338 1969
338 1974
338 1995
338 2000
338 2022
338 2043
338 2073
338 2084
338 2174
338 2192
338 2225
338 2227
338 2237
338 2248
338 2260
338 2268
338 2289
339 378
339 384
339 451
339 483
339 867
339 973
339 1123
339 1126
339 1290
339 1306
339 1374
339 1445
339 1543
339 1613
339 1648
339 1731
339 1759
339 1791
339 1797
339 1934
339 2053
340 349
340 600
340 612
340 679
340 899
340 1052
340 1107
340 1182
340 1183
340 1226
340 1284
340 1589
340 1666
340 1736
340 1838
340 2026
340 2137
340 2188
340 2230
340 2255
340 2283
340 2294
341 368
341 416
341 425
341 453
341 579
341 593
341 607
341 623
341 636
341 640
341 652
341 676
341 681
341 685
341 711
341 734
341 738
341 750
341 801
341 805
341 861
341 908
341 915
341 986
341 988
341 1004
341 1021
341 1039
341 1060
341 1105
341 1120
341 1128
341 1220
341 1268
341 1308
341 1318
341 1337
341 1444
341 1451
341 1482
341 1502
341 1503
341 1505
341 1535
341 1539
341 1540
341 1558
341 1624
341 1634
341 1799
341 1825
341 1903
341 1911
341 1925
341 1931
341 1984
341 2025
341 2138
341 2148
341 2232
341 2235
341 2236
341 2242
341 2260
342 348
342 361
342 395
342 418
342 423
342 429
342 437
342 440
342 446
342 468
342 472
342 491
342 493
342 494
342 504
342 512
342 549
342 550
342 562
342 580
342 588
342 632
342 633
342 639
342 643
342 670
342 690
342 691
342 694
342 698
342 730
342 744
342 759
342 776
342 807
342 824
342 827
342 848
342 863
342 879
342 883
342 893
342 941
342 942
342 950
342 996
342 1011
342 1064
342 1067
342 1071
342 1115
342 1124
342 1134
342 1140
342 1174
342 1177
342 1194
342 1219
342 1251
342 1252
342 1262
342 1274
342 1275
342 1281
342 1355
342 1362
342 1364
342 1394
342 1399
342 1409
342 1485
342 1491
342 1501
342 1584
342 1621
342 1680
342 1683
342 1697
342 1795
342 1806
342 1870
342 1937
342 2089
342 2106
342 2130
342 2209
342 2210
342 2212
342 2233
342 2268
343 359
343 364
343 375
343 380
343 383
343 392
343 403
343 437
343 446
343 450
343 452
343 465
343 471
343 472
343 484
343 492
343 499
343 511
343 575
343 604
343 630
343 637
343 642
343 658
343 661
343 693
343 703
343 833
343 837
343 843
343 863
343 883
343 884
343 898
343 901
343 904
343 923
343 924
343 937
343 949
343 991
343 996
343 1023
343 1047
343 1056
343 1059
343 1071
343 1090
343 1094
343 1103
343 1174
343 1177
343 1186
343 1194
343 1246
343 1251
343 1254
343 1259
343 1275
343 1281
343 1285
343 1290
343 1298
343 1310
343 1341
343 1370
343 1371
343 1377
343 1384
343 1387
343 1424
343 1434
343 1460
343 1485
343 1491
343 1496
343 1513
343 1542
343 1568
343 1570
343 1576
343 1586
343 1612
343 1633
343 1638
343 1674
343 1679
343 1685
343 1769
343 1815
343 1824
343 1828
343 1852
343 1869
343 1873
343 1890
343 1963
343 1986
343 2016
343 2034
343 2036
343 2051
343 2062
343 2073
343 2078
343 2140
343 2198
343 2212
343 2246
343 2289
343 2307
344 399
344 425
344 505
344 531
344 559
344 605
344 616
344 633
344 724
344 755
344 798
344 839
344 873
344 876
344 907
344 909
344 939
344 947
344 955
344 960
344 961
344 997
344 1029
344 1032
344 1039
344 1058
344 1066
344 1068
344 1171
344 1200
344 1329
344 1345
344 1366
344 1375
344 1433
344 1440
344 1528
344 1587
344 1650
344 1664
344 1727
344 1793
344 1799
344 1848
344 1878
344 1918
344 1953
344 1982
344 2013
344 2037
344 2094
344 2097
344 2112
344 2141
344 2148
344 2167
344 2171
344 2215
344 2234
344 2242
344 2244
344 2263
344 2265
345 410
345 425
345 429
345 476
345 529
345 533
345 534
345 593
345 605
345 662
345 668
345 685
345 722
345 819
345 830
345 858
345 871
345 892
345 900
345 903
345 915
345 945
345 951
345 952
345 983
345 986
345 997
345 1039
345 1060
345 1073
345 1077
345 1138
345 1145
345 1171
345 1181
345 1184
345 1236
345 1258
345 1279
345 1333
345 1448
345 1451
345 1457
345 1482
345 1630
345 1634
345 1701
345 1703
345 1724
345 1784
345 1787
345 1839
345 1845
345 1849
345 1851
345 1895
345 1911
345 1921
345 2045
345 2072
345 2097
345 2128
345 2171
345 2203
345 2215
345 2232
345 2242
345 2254
346 347
346 358
346 368
346 388
346 405
346 406
346 407
346 409
346 419
346 435
346 442
346 465
346 467
346 482
346 509
346 512
346 525
346 532
346 550
346 567
346 588
346 594
346 607
346 624
346 665
346 673
346 693
346 695
346 708
346 712
346 718
346 728
346 737
346 754
346 759
346 782
346 800
346 808
346 825
346 829
346 831
346 908
346 918
346 972
346 977
346 1001
346 1036
346 1039
346 1050
346 1051
346 1063
346 1078
346 1104
346 1117
346 1136
346 1147
346 1175
346 1186
346 1189
346 1200
346 1225
346 1249
346 1251
346 1265
346 1268
346 1276
346 1283
346 1299
346 1303
346 1323
346 1327
346 1368
346 1385
346 1425
346 1434
346 1437
346 1489
346 1499
346 1502
346 1539
346 1563
346 1573
346 1581
346 1583
346 1590
346 1667
346 1668
346 1679
346 1684
346 1689
346 1745
346 1783
346 1804
346 1820
346 1824
346 1825
346 1835
346 1844
346 1849
346 1852
346 1860
346 1866
346 1945
346 1991
346 2003
346 2043
346 2049
346 2065
346 2066
346 2068
346 2089
346 2094
346 2113
346 2120
346 2125
346 2133
346 2177
346 2185
346 2208
346 2237
346 2242
346 2244
346 2251
346 2260
346 2261
346 2295
347 356
347 357
347 407
347 408
347 465
347 472
347 493
347 509
347 523
347 526
347 532
347 538
347 675
347 686
347 714
347 718
347 788
347 797
347 802
347 829
347 833
347 860
347 883
347 920
347 924
347 928
347 1001
347 1042
347 1086
347 1103
347 1130
347 1177
347 1189
347 1196
347 1202
347 1241
347 1251
347 1281
347 1323
347 1335
347 1358
347 1385
347 1434
347 1437
347 1489
347 1513
347 1547
347 1563
347 1566
347 1597
347 1605
347 1638
347 1672
347 1676
347 1679
347 1769
347 1771
347 1801
347 1802
347 1804
347 1816
347 1824
347 1836
347 1852
347 1869
347 1872
347 1896
347 1915
347 1924
347 1956
347 1963
347 1977
347 2030
347 2045
347 2059
347 2065
347 2123
347 2151
347 2202
347 2220
347 2295
348 365
348 392
348 401
348 423
348 429
348 431
348 437
348 440
348 472
348 493
348 494
348 496
348 504
348 512
348 540
348 550
348 562
348 564
348 588
348 729
348 730
348 738
348 744
348 769
348 782
348 824
348 846
348 848
348 865
348 875
348 883
348 884
348 941
348 942
348 990
348 1050
348 1095
348 1096
348 1113
348 1172
348 1188
348 1193
348 1238
348 1270
348 1274
348 1296
348 1300
348 1310
348 1321
348 1356
348 1364
348 1368
348 1400
348 1409
348 1424
348 1456
348 1491
348 1562
348 1621
348 1676
348 1680
348 1683
348 1795
348 1829
348 1870
348 2027
348 2079
348 2145
348 2156
348 2196
348 2202
348 2209
348 2212
348 2268
348 2304
349 393
349 402
349 428
349 436
349 483
349 488
349 489
349 538
349 561
349 574
349 595
349 634
349 657
349 678
349 680
349 740
349 857
349 891
349 946
349 962
349 973
349 1033
349 1047
349 1052
349 1114
349 1123
349 1131
349 1146
349 1179
349 1183
349 1192
349 1223
349 1226
349 1239
349 1281
349 1320
349 1365
349 1374
349 1402
349 1405
349 1445
349 1452
349 1486
349 1527
349 1534
349 1589
349 1591
349 1592
349 1610
349 1613
349 1678
349 1721
349 1736
349 1756
349 1758
349 1791
349 1819
349 1820
349 1846
349 1875
349 1885
349 1889
349 2011
349 2077
349 2199
349 2230
349 2253
349 2302
350 415
350 425
350 472
350 496
350 503
350 519
350 543
350 550
350 563
350 568
350 607
350 647
350 655
350 737
350 778
350 800
350 813
350 888
350 923
350 924
350 932
350 947
350 965
350 969
350 970
350 978
350 998
350 1016
350 1020
350 1038
350 1048
350 1054
350 1091
350 1170
350 1177
350 1189
350 1212
350 1228
350 1245
350 1256
350 1265
350 1270
350 1281
350 1300
350 1310
350 1355
350 1435
350 1448
350 1485
350 1511
350 1513
350 1533
350 1657
350 1676
350 1741
350 1782
350 1874
350 1882
350 1907
350 1927
350 1964
350 1969
350 1973
350 1979
350 1990
350 2007
350 2037
350 2056
350 2062
350 2070
350 2081
350 2088
350 2108
350 2111
350 2120
350 2121
350 2140
350 2181
350 2189
350 2202
350 2237
350 2257
350 2266
350 2274
350 2304
350 2306
351 362
351 381
351 441
351 453
351 472
351 489
351 511
351 523
351 538
351 549
351 585
351 667
351 672
351 714
351 727
351 756
351 775
351 782
351 824
351 833
351 860
351 876
351 894
351 924
351 991
351 1015
351 1029
351 1053
351 1071
351 1092
351 1110
351 1140
351 1180
351 1210
351 1212
351 1256
351 1268
351 1281
351 1288
351 1345
351 1420
351 1425
351 1512
351 1559
351 1574
351 1579
351 1588
351 1615
351 1621
351 1679
351 1697
351 1716
351 1754
351 1760
351 1763
351 1793
351 1809
351 1816
351 1867
351 1896
351 1909
351 1957
351 1963
351 2060
351 2130
351 2147
351 2151
351 2154
351 2164
351 2191
351 2202
351 2204
351 2225
351 2240
351 2289
352 623
352 748
352 1058
352 1069
352 1236
352 1329
352 1340
352 1505
352 1611
352 1779
352 1839
352 1844
352 1874
352 1888
352 2060
352 2150
352 2206
352 2215
352 2227
352 2242
352 2245
352 2254
353 444
353 494
353 498
353 532
353 843
353 909
353 924
353 1298
353 1362
353 1366
353 1396
353 1487
353 1493
353 1513
353 1587
353 1633
353 1670
353 1741
353 1763
353 1878
353 1920
353 1924
353 1963
353 2062
353 2163
353 2244
353 2272
353 2304
354 399
354 411
354 438
354 468
354 476
354 493
354 494
354 497
354 513
354 530
354 553
354 579
354 590
354 592
354 647
354 709
354 725
354 741
354 743
354 746
354 755
354 759
354 763
354 788
354 807
354 816
354 830
354 836
354 850
354 861
354 862
354 866
354 871
354 877
354 881
354 906
354 910
354 926
354 937
354 945
354 960
354 971
354 972
354 1003
354 1004
354 1009
354 1037
354 1062
354 1063
354 1116
354 1130
354 1142
354 1143
354 1145
354 1156
354 1168
354 1184
354 1225
354 1232
354 1254
354 1281
354 1289
354 1334
354 1352
354 1430
354 1435
354 1439
354 1448
354 1469
354 1475
354 1485
354 1514
354 1521
354 1537
354 1538
354 1540
354 1575
354 1598
354 1650
354 1658
354 1676
354 1713
354 1738
354 1740
354 1748
354 1755
354 1760
354 1765
354 1790
354 1796
354 1799
354 1803
354 1854
354 1869
354 1893
354 1894
354 1899
354 1911
354 1913
354 1951
354 1956
354 1958
354 1969
354 1974
354 1992
354 2007
354 2024
354 2037
354 2045
354 2046
354 2055
354 2056
354 2067
354 2093
354 2101
354 2110
354 2111
354 2115
354 2144
354 2156
354 2220
354 2227
354 2236
354 2254
354 2259
354 2295
354 2304
354 2306
355 426
355 723
355 976
355 1166
355 1267
355 1459
355 1496
355 1746
355 1903
355 1931
355 2081
356 370
356 419
356 455
356 457
356 458
356 465
356 504
356 509
356 511
356 516
356 532
356 538
356 546
356 555
356 559
356 679
356 683
356 691
356 693
356 722
356 728
356 787
356 788
356 802
356 807
356 863
356 883
356 928
356 960
356 983
356 993
356 1085
356 1139
356 1143
356 1176
356 1200
356 1203
356 1222
356 1241
356 1253
356 1281
356 1308
356 1385
356 1398
356 1405
356 1457
356 1489
356 1563
356 1566
356 1583
356 1645
356 1702
356 1716
356 1723
356 1802
356 1804
356 1868
356 1906
356 1915
356 1949
356 1963
356 1977
356 2013
356 2104
356 2187
356 2199
356 2209
356 2244
356 2246
356 2265
356 2272
356 2284
356 2296
356 2302
356 2305
357 457
357 561
357 582
357 595
357 598
357 678
357 834
357 914
357 960
357 1033
357 1190
357 1291
357 1374
357 1543
357 1589
357 1592
357 1597
357 1662
357 1791
357 1797
357 1847
357 2044
357 2178
357 2232
358 388
358 391
358 422
358 472
358 527
358 593
358 640
358 685
358 746
358 756
358 778
358 819
358 861
358 930
358 956
358 1004
358 1423
358 1535
358 1539
358 1598
358 1606
358 1630
358 1634
358 1668
358 1774
358 1799
358 1825
358 1844
358 1899
358 2012
358 2054
358 2066
358 2081
358 2089
358 2129
358 2138
358 2236
358 2255
358 2264
358 2304
359 369
359 446
359 461
359 472
359 484
359 499
359 511
359 562
359 564
359 765
359 786
359 787
359 883
359 901
359 922
359 923
359 959
359 1024
359 1079
359 1094
359 1103
359 1156
359 1174
359 1223
359 1246
359 1251
359 1252
359 1262
359 1275
359 1330
359 1332
359 1334
359 1341
359 1355
359 1387
359 1410
359 1424
359 1469
359 1580
359 1605
359 1675
359 1763
359 1781
359 1812
359 1822
359 1828
359 1841
359 1843
359 1873
359 1883
359 1928
359 1966
359 1967
359 1974
359 1988
359 1994
359 2036
359 2082
359 2110
359 2122
359 2129
359 2175
359 2198
359 2237
359 2284
360 763
360 801
360 968
360 1204
360 1332
360 2110
361 374
361 389
361 391
361 409
361 454
361 568
361 594
361 607
361 609
361 610
361 613
361 617
361 643
361 654
361 701
361 759
361 762
361 767
361 776
361 791
361 801
361 804
361 811
361 852
361 874
361 884
361 888
361 919
361 923
361 926
361 930
361 932
361 954
361 972
361 984
361 1027
361 1051
361 1118
361 1165
361 1166
361 1175
361 1186
361 1251
361 1315
361 1343
361 1384
361 1406
361 1411
361 1435
361 1485
361 1546
361 1586
361 1595
361 1649
361 1717
361 1726
361 1746
361 1752
361 1835
361 1842
361 1858
361 1870
361 1879
361 1908
361 1928
361 2008
361 2016
361 2049
361 2089
361 2105
361 2115
361 2129
361 2174
361 2214
361 2221
361 2233
361 2271
362 370
362 415
362 419
362 437
362 446
362 455
362 489
362 511
362 535
362 538
362 559
362 592
362 645
362 703
362 715
362 782
362 790
362 798
362 836
362 841
362 883
362 904
362 907
362 909
362 924
362 928
362 937
362 957
362 980
362 991
362 1008
362 1015
362 1029
362 1053
362 1107
362 1123
362 1177
362 1246
362 1254
362 1256
362 1259
362 1262
362 1275
362 1312
362 1375
362 1398
362 1447
362 1563
362 1566
362 1576
362 1612
362 1646
362 1679
362 1697
362 1754
362 1760
362 1763
362 1778
362 1804
362 1840
362 1852
362 1859
362 1869
362 1918
362 1932
362 1950
362 1963
362 1977
362 1980
362 1998
362 2024
362 2060
362 2068
362 2086
362 2090
362 2104
362 2112
362 2147
362 2151
362 2190
362 2204
362 2228
362 2273
362 2295
362 2296
362 2304
363 374
363 512
363 572
363 607
363 641
363 684
363 731
363 849
363 1041
363 1193
363 1201
363 1205
363 1300
363 1339
363 1364
363 1368
363 1387
363 1415
363 1473
363 1520
363 1568
363 1633
363 1815
363 1835
363 2138
363 2190
363 2292
364 379
364 387
364 450
364 472
364 481
364 498
364 499
364 511
364 532
364 554
364 630
364 658
364 833
364 1015
364 1093
364 1103
364 1110
364 1244
364 1251
364 1252
364 1271
364 1281
364 1298
364 1330
364 1371
364 1373
364 1387
364 1405
364 1489
364 1538
364 1542
364 1550
364 1638
364 1672
364 1699
364 1769
364 1781
364 1824
364 1840
364 1858
364 1999
364 2058
364 2059
364 2062
364 2072
364 2093
364 2132
364 2198
364 2210
364 2296
365 418
365 431
365 437
365 440
365 443
365 445
365 468
365 494
365 504
365 511
365 522
365 540
365 544
365 550
365 564
365 578
365 607
365 687
365 730
365 735
365 738
365 792
365 821
365 832
365 852
365 863
365 883
365 893
365 941
365 942
365 970
365 1023
365 1054
365 1115
365 1121
365 1188
365 1203
365 1244
365 1274
365 1281
365 1285
365 1325
365 1335
365 1356
365 1364
365 1403
365 1404
365 1405
365 1435
365 1475
365 1525
365 1530
365 1544
365 1560
365 1580
365 1598
365 1628
365 1659
365 1762
365 1767
365 1798
365 1799
365 1806
365 1873
365 1896
365 1948
365 1986
365 1987
365 2062
365 2175
365 2202
365 2212
365 2221
365 2231
365 2255
365 2268
365 2307
366 397
366 418
366 449
366 468
366 494
366 548
366 637
366 642
366 694
366 762
366 1144
366 1181
366 1242
366 1399
366 1571
366 1600
366 1676
366 1697
366 1795
366 1806
366 1823
366 1899
366 1953
366 1974
366 2037
366 2130
366 2252
366 2275
367 402
367 573
367 582
367 657
367 1374
367 1662
367 1791
367 1914
367 2178
368 374
368 409
368 413
368 416
368 425
368 435
368 487
368 513
368 519
368 525
368 567
368 571
368 575
368 587
368 591
368 607
368 611
368 624
368 668
368 681
368 711
368 750
368 770
368 800
368 815
368 888
368 908
368 937
368 961
368 969
368 977
368 1037
368 1063
368 1093
368 1156
368 1170
368 1175
368 1204
368 1225
368 1264
368 1265
368 1297
368 1305
368 1308
368 1318
368 1337
368 1368
368 1388
368 1396
368 1425
368 1438
368 1459
368 1485
368 1500
368 1502
368 1510
368 1538
368 1581
368 1583
368 1590
368 1637
368 1645
368 1667
368 1717
368 1746
368 1774
368 1775
368 1803
368 1831
368 1853
368 1854
368 1857
368 1879
368 1913
368 1926
368 1945
368 1984
368 2046
368 2056
368 2066
368 2069
368 2081
368 2092
368 2156
368 2170
368 2185
368 2189
368 2242
368 2260
368 2262
368 2274
369 461
369 479
369 484
369 513
369 520
369 538
369 581
369 592
369 616
369 643
369 648
369 701
369 741
369 759
369 761
369 786
369 787
369 797
369 833
369 883
369 909
369 930
369 993
369 1054
369 1056
369 1067
369 1101
369 1119
369 1223
369 1246
369 1251
369 1254
369 1262
369 1281
369 1335
369 1347
369 1356
369 1385
369 1411
369 1469
369 1492
369 1511
369 1513
369 1580
369 1625
369 1672
369 1713
369 1763
369 1812
369 1822
369 1824
369 1828
369 1841
369 1843
369 1869
369 1880
369 1883
369 1886
369 1896
369 1956
369 1988
369 2003
369 2019
369 2021
369 2043
369 2060
369 2065
369 2082
369 2163
369 2198
369 2306
370 397
370 419
370 455
370 460
370 462
370 465
370 472
370 498
370 501
370 516
370 567
370 577
370 592
370 616
370 623
370 633
370 643
370 698
370 703
370 704
370 706
370 722
370 728
370 740
370 748
370 755
370 786
370 787
370 798
370 815
370 877
370 900
370 906
370 908
370 924
370 928
370 951
370 960
370 983
370 993
370 1008
370 1046
370 1075
370 1079
370 1092
370 1094
370 1101
370 1110
370 1133
370 1151
370 1200
370 1206
370 1250
370 1254
370 1308
370 1309
370 1312
370 1337
370 1385
370 1388
370 1392
370 1398
370 1424
370 1429
370 1433
370 1434
370 1437
370 1444
370 1466
370 1511
370 1520
370 1561
370 1563
370 1566
370 1576
370 1605
370 1606
370 1674
370 1679
370 1702
370 1709
370 1724
370 1729
370 1734
370 1755
370 1802
370 1804
370 1810
370 1812
370 1813
370 1825
370 1840
370 1844
370 1845
370 1848
370 1852
370 1869
370 1918
370 1919
370 1921
370 1924
370 1931
370 1935
370 1949
370 1963
370 1977
370 1982
370 1984
370 1989
370 1998
370 2003
370 2021
370 2024
370 2049
370 2060
370 2062
370 2065
370 2073
370 2074
370 2104
370 2120
370 2132
370 2143
370 2147
370 2177
370 2265
370 2272
370 2277
370 2306
371 377
371 394
371 420
371 424
371 428
371 451
371 457
371 489
371 495
371 541
371 552
371 560
371 595
371 621
371 622
371 625
371 634
371 646
371 680
371 704
371 724
371 740
371 783
371 790
371 798
371 799
371 867
371 882
371 891
371 895
371 896
371 914
371 925
371 929
371 957
371 979
371 987
371 1005
371 1050
371 1052
371 1065
371 1099
371 1107
371 1114
371 1123
371 1131
371 1157
371 1159
371 1197
371 1226
371 1230
371 1235
371 1239
371 1243
371 1250
371 1286
371 1287
371 1306
371 1309
371 1351
371 1361
371 1374
371 1382
371 1391
371 1398
371 1402
371 1417
371 1436
371 1452
371 1477
371 1488
371 1534
371 1536
371 1574
371 1579
371 1589
371 1592
371 1593
371 1610
371 1613
371 1640
371 1647
371 1665
371 1696
371 1711
371 1720
371 1721
371 1736
371 1739
371 1756
371 1759
371 1786
371 1791
371 1794
371 1819
371 1820
371 1830
371 1846
371 1847
371 1889
371 1898
371 1947
371 1980
371 1981
371 2001
371 2002
371 2009
371 2011
371 2013
371 2038
371 2044
371 2052
371 2053
371 2077
371 2119
371 2152
371 2188
371 2199
371 2218
371 2227
371 2239
371 2287
371 2302
372 446
372 450
372 452
372 472
372 630
372 826
372 883
372 1001
372 1151
372 1252
372 1259
372 1275
372 1424
372 1429
372 1489
372 1580
372 1618
372 1733
372 1890
372 1948
372 1963
372 1985
372 2005
372 2051
372 2078
373 385
373 388
373 404
373 431
373 447
373 513
373 515
373 529
373 553
373 554
373 593
373 603
373 676
373 714
373 737
373 752
373 754
373 810
373 871
373 921
373 983
373 986
373 988
373 1004
373 1063
373 1128
373 1133
373 1139
373 1150
373 1194
373 1243
373 1245
373 1256
373 1258
373 1267
373 1304
373 1339
373 1344
373 1416
373 1482
373 1516
373 1539
373 1561
373 1568
373 1578
373 1633
373 1653
373 1703
373 1718
373 1743
373 1781
373 1796
373 1799
373 1821
373 1849
373 1851
373 1854
373 1887
373 1966
373 2014
373 2017
373 2056
373 2087
373 2088
373 2097
373 2118
373 2236
373 2261
373 2265
373 2279
374 380
374 404
374 414
374 416
374 488
374 493
374 498
374 515
374 530
374 553
374 586
374 590
374 596
374 603
374 642
374 676
374 729
374 743
374 752
374 754
374 756
374 763
374 765
374 770
374 780
374 794
374 808
374 825
374 848
374 849
374 862
374 886
374 911
374 944
374 959
374 960
374 983
374 984
374 1024
374 1063
374 1082
374 1087
374 1102
374 1133
374 1150
374 1184
374 1186
374 1201
374 1252
374 1282
374 1289
374 1315
374 1325
374 1339
374 1344
374 1354
374 1364
374 1384
374 1387
374 1394
374 1405
374 1412
374 1424
374 1444
374 1446
374 1455
374 1469
374 1473
374 1531
374 1544
374 1586
374 1595
374 1659
374 1716
374 1738
374 1796
374 1798
374 1806
374 1815
374 1821
374 1851
374 1853
374 1854
374 1869
374 1928
374 1951
374 1962
374 1967
374 1988
374 1989
374 1999
374 2009
374 2016
374 2029
374 2056
374 2066
374 2089
374 2093
374 2115
374 2136
374 2185
374 2202
374 2232
374 2261
374 2304
375 387
375 446
375 465
375 555
375 616
375 648
375 736
375 788
375 802
375 807
375 817
375 928
375 960
375 1008
375 1074
375 1085
375 1092
375 1101
375 1103
375 1205
375 1252
375 1254
375 1275
375 1371
375 1392
375 1434
375 1511
375 1566
375 1576
375 1603
375 1674
375 1780
375 1915
375 1949
375 1974
375 2045
375 2082
375 2273
375 2275
375 2295
375 2296
376 475
376 484
376 642
376 694
376 721
376 762
376 837
376 884
376 923
376 926
376 972
376 996
376 1051
376 1082
376 1133
376 1167
376 1223
376 1252
376 1259
376 1271
376 1281
376 1334
376 1347
376 1364
376 1378
376 1392
376 1401
376 1406
376 1415
376 1440
376 1466
376 1489
376 1521
376 1633
376 1639
376 1640
376 1706
376 1718
376 1742
376 1767
376 1798
376 1829
376 1842
376 1843
376 1858
376 1873
376 1885
376 1913
376 2056
376 2174
376 2175
376 2259
376 2275
377 398
377 428
377 483
377 595
377 634
377 657
377 680
377 704
377 749
377 771
377 817
377 862
377 914
377 938
377 957
377 979
377 1047
377 1065
377 1109
377 1123
377 1183
377 1226
377 1295
377 1306
377 1374
377 1402
377 1536
377 1604
377 1651
377 1684
377 1721
377 1736
377 1819
377 1828
377 1847
377 1861
377 1883
377 1898
377 1972
377 1981
377 2004
377 2009
377 2044
377 2051
377 2077
377 2199
377 2230
378 678
378 973
378 1126
378 1370
378 1445
378 1592
378 1731
378 1797
378 1914
378 1934
378 1994
379 389
379 439
379 504
379 512
379 633
379 637
379 646
379 674
379 709
379 741
379 754
379 762
379 767
379 792
379 833
379 852
379 853
379 855
379 893
379 949
379 981
379 996
379 1091
379 1110
379 1144
379 1159
379 1168
379 1176
379 1203
379 1228
379 1281
379 1289
379 1308
379 1335
379 1337
379 1355
379 1361
379 1364
379 1387
379 1394
379 1406
379 1450
379 1488
379 1499
379 1513
379 1514
379 1538
379 1571
379 1648
379 1676
379 1717
379 1741
379 1743
379 1755
379 1786
379 1803
379 1829
379 1873
379 1874
379 1948
379 1950
379 1974
379 1979
379 1987
379 2013
379 2016
379 2063
379 2073
379 2093
379 2162
379 2204
379 2213
379 2225
379 2231
379 2248
379 2252
379 2261
379 2304
380 403
380 427
380 454
380 468
380 492
380 499
380 500
380 521
380 550
380 580
380 581
380 589
380 594
380 609
380 610
380 613
380 617
380 643
380 685
380 691
380 701
380 715
380 732
380 735
380 751
380 756
380 767
380 782
380 791
380 810
380 827
380 872
380 884
380 919
380 923
380 930
380 954
380 958
380 959
380 965
380 972
380 975
380 1024
380 1051
380 1094
380 1125
380 1156
380 1164
380 1165
380 1167
380 1169
380 1175
380 1186
380 1224
380 1244
380 1247
380 1260
380 1265
380 1277
380 1325
380 1355
380 1371
380 1377
380 1384
380 1387
380 1394
380 1415
380 1435
380 1460
380 1471
380 1485
380 1491
380 1520
380 1533
380 1546
380 1568
380 1586
380 1595
380 1623
380 1632
380 1640
380 1663
380 1668
380 1697
380 1717
380 1726
380 1738
380 1741
380 1762
380 1777
380 1778
380 1814
380 1815
380 1835
380 1873
380 1879
380 1885
380 1901
380 1928
380 1962
380 1964
380 1974
380 1986
380 1987
380 1988
380 2015
380 2036
380 2057
380 2070
380 2082
380 2089
380 2106
380 2129
380 2140
380 2154
380 2162
380 2172
380 2174
380 2190
380 2198
380 2264
381 458
381 460
381 506
381 509
381 555
381 559
381 565
381 584
381 616
381 645
381 667
381 728
381 782
381 836
381 841
381 907
381 960
381 980
381 981
381 991
381 1015
381 1029
381 1035
381 1053
381 1074
381 1129
381 1189
381 1198
381 1200
381 1345
381 1375
381 1405
381 1508
381 1512
381 1548
381 1588
381 1679
381 1754
381 1763
381 1789
381 1804
381 1869
381 1918
381 1924
381 1932
381 1949
381 1980
381 2024
381 2068
381 2086
381 2116
381 2147
381 2151
381 2204
381 2244
381 2272
381 2277
381 2304
382 614
382 647
382 674
382 864
382 961
382 1212
382 1433
382 1499
382 1521
382 1539
382 1734
382 1743
382 1803
382 1844
382 1874
382 1931
382 1935
382 1974
382 2227
383 419
383 432
383 439
383 446
383 449
383 472
383 479
383 499
383 504
383 512
383 579
383 581
383 589
383 592
383 594
383 601
383 609
383 617
383 642
383 643
383 644
383 677
383 701
383 709
383 735
383 767
383 791
383 813
383 823
383 825
383 868
383 872
383 873
383 876
383 884
383 894
383 898
383 902
383 923
383 924
383 930
383 954
383 958
383 965
383 1011
383 1023
383 1056
383 1072
383 1091
383 1094
383 1102
383 1144
383 1175
383 1177
383 1186
383 1211
383 1223
383 1234
383 1251
383 1252
383 1281
383 1297
383 1325
383 1364
383 1377
383 1415
383 1417
383 1435
383 1459
383 1460
383 1485
383 1508
383 1538
383 1564
383 1572
383 1621
383 1640
383 1657
383 1663
383 1668
383 1672
383 1697
383 1717
383 1726
383 1732
383 1760
383 1777
383 1824
383 1846
383 1853
383 1873
383 1886
383 1901
383 1958
383 2082
383 2115
383 2129
383 2174
383 2212
383 2225
383 2271
383 2289
383 2295
383 2303
384 420
384 483
384 595
384 600
384 657
384 783
384 914
384 962
384 999
384 1047
384 1052
384 1099
384 1146
384 1183
384 1204
384 1230
384 1286
384 1346
384 1374
384 1391
384 1402
384 1405
384 1459
384 1477
384 1543
384 1592
384 1610
384 1637
384 1666
384 1678
384 1714
384 1721
384 1736
384 1739
384 1773
384 1819
384 1879
384 1898
384 2044
384 2053
384 2142
384 2230
384 2243
385 390
385 404
385 447
385 511
385 515
385 519
385 530
385 553
385 554
385 575
385 752
385 754
385 756
385 765
385 810
385 871
385 972
385 983
385 1038
385 1051
385 1063
385 1070
385 1105
385 1133
385 1139
385 1150
385 1163
385 1164
385 1167
385 1194
385 1268
385 1304
385 1332
385 1339
385 1344
385 1425
385 1516
385 1518
385 1539
385 1561
385 1653
385 1703
385 1743
385 1781
385 1796
385 1806
385 1821
385 1849
385 1851
385 1864
385 1873
385 1879
385 1887
385 1951
385 1974
385 2056
385 2261
385 2264
385 2265
385 2279
385 2298
385 2308
386 701
386 855
386 893
386 949
386 1281
386 1458
386 1485
386 1514
386 1635
386 1950
386 2150
386 2220
386 2311
387 446
387 481
387 532
387 587
387 606
387 658
387 668
387 741
387 759
387 1008
387 1181
387 1182
387 1241
387 1348
387 1371
387 1373
387 1392
387 1405
387 1424
387 1469
387 1482
387 1550
387 1648
387 1674
387 1676
387 1709
387 1868
387 1963
387 2059
387 2073
387 2074
387 2228
387 2275
387 2296
388 422
388 515
388 543
388 568
388 593
388 613
388 638
388 641
388 715
388 746
388 753
388 814
388 864
388 910
388 932
388 956
388 961
388 970
388 1004
388 1013
388 1020
388 1040
388 1049
388 1089
388 1120
388 1127
388 1148
388 1176
388 1188
388 1205
388 1232
388 1245
388 1281
388 1348
388 1373
388 1496
388 1521
388 1539
388 1546
388 1554
388 1598
388 1658
388 1740
388 1748
388 1774
388 1799
388 1815
388 1854
388 1871
388 1885
388 1974
388 1992
388 2054
388 2067
388 2081
388 2088
388 2118
388 2146
388 2161
388 2190
388 2203
388 2236
389 404
389 421
389 439
389 468
389 470
389 480
389 494
389 533
389 568
389 570
389 589
389 631
389 687
389 688
389 694
389 712
389 725
389 741
389 764
389 791
389 792
389 800
389 807
389 808
389 835
389 855
389 874
389 884
389 893
389 898
389 926
389 928
389 932
389 947
389 949
389 950
389 958
389 965
389 996
389 1002
389 1009
389 1020
389 1023
389 1045
389 1046
389 1063
389 1092
389 1120
389 1125
389 1133
389 1172
389 1177
389 1201
389 1203
389 1228
389 1271
389 1296
389 1297
389 1325
389 1335
389 1458
389 1460
389 1560
389 1564
389 1605
389 1612
389 1625
389 1626
389 1640
389 1655
389 1659
389 1741
389 1743
389 1805
389 1806
389 1873
389 1886
389 1894
389 1908
389 1950
389 1979
389 1987
389 1995
389 2037
389 2055
389 2063
389 2072
389 2078
389 2088
389 2111
389 2130
389 2208
389 2237
389 2257
389 2273
389 2307
390 399
390 405
390 417
390 421
390 459
390 473
390 525
390 591
390 610
390 623
390 645
390 705
390 712
390 741
390 746
390 756
390 782
390 785
390 800
390 814
390 836
390 915
390 998
390 1058
390 1070
390 1118
390 1142
390 1155
390 1184
390 1191
390 1218
390 1234
390 1329
390 1332
390 1343
390 1497
390 1499
390 1508
390 1514
390 1520
390 1558
390 1575
390 1590
390 1667
390 1671
390 1693
390 1715
390 1717
390 1741
390 1782
390 1895
390 1897
390 1964
390 2046
390 2049
390 2066
390 2084
390 2120
390 2204
390 2260
390 2280
390 2295
390 2304
391 392
391 437
391 440
391 539
391 563
391 570
391 594
391 619
391 639
391 661
391 735
391 756
391 778
391 835
391 853
391 864
391 868
391 930
391 970
391 990
391 1048
391 1118
391 1144
391 1156
391 1186
391 1265
391 1270
391 1277
391 1326
391 1355
391 1372
391 1387
391 1465
391 1491
391 1540
391 1554
391 1564
391 1577
391 1583
391 1595
391 1663
391 1668
391 1688
391 1697
391 1723
391 1748
391 1837
391 1908
391 1990
391 2089
391 2098
391 2258
391 2274
392 394
392 408
392 423
392 431
392 432
392 437
392 440
392 441
392 446
392 450
392 453
392 462
392 468
392 472
392 489
392 493
392 494
392 496
392 504
392 507
392 512
392 521
392 522
392 523
392 528
392 540
392 541
392 549
392 550
392 560
392 562
392 563
392 570
392 579
392 583
392 585
392 588
392 597
392 598
392 601
392 608
392 631
392 633
392 637
392 639
392 641
392 642
392 643
392 659
392 670
392 694
392 701
392 702
392 714
392 727
392 730
392 735
392 742
392 746
392 756
392 791
392 792
392 795
392 808
392 812
392 822
392 824
392 835
392 843
392 848
392 853
392 856
392 863
392 864
392 865
392 875
392 878
392 879
392 884
392 886
392 893
392 894
392 901
392 904
392 914
392 920
392 923
392 924
392 930
392 931
392 940
392 942
392 944
392 946
392 953
392 974
392 984
392 989
392 996
392 998
392 1010
392 1048
392 1054
392 1062
392 1064
392 1080
392 1081
392 1094
392 1095
392 1096
392 1102
392 1103
392 1121
392 1122
392 1125
392 1140
392 1149
392 1152
392 1162
392 1174
392 1180
392 1181
392 1188
392 1210
392 1217
392 1219
392 1229
392 1238
392 1252
392 1262
392 1268
392 1274
392 1282
392 1290
392 1292
392 1297
392 1300
392 1307
392 1310
392 1320
392 1325
392 1326
392 1342
392 1358
392 1364
392 1372
392 1377
392 1378
392 1380
392 1386
392 1387
392 1391
392 1394
392 1399
392 1400
392 1411
392 1417
392 1424
392 1435
392 1472
392 1485
392 1491
392 1503
392 1513
392 1521
392 1538
392 1540
392 1543
392 1556
392 1562
392 1563
392 1564
392 1570
392 1574
392 1579
392 1602
392 1619
392 1620
392 1621
392 1623
392 1625
392 1654
392 1656
392 1663
392 1676
392 1680
392 1683
392 1697
392 1703
392 1717
392 1722
392 1725
392 1733
392 1751
392 1760
392 1767
392 1791
392 1793
392 1795
392 1801
392 1806
392 1809
392 1816
392 1821
392 1828
392 1837
392 1844
392 1870
392 1873
392 1874
392 1886
392 1890
392 1891
392 1894
392 1913
392 1952
392 1959
392 1963
392 1971
392 1993
392 1996
392 2027
392 2047
392 2060
392 2062
392 2069
392 2095
392 2096
392 2098
392 2125
392 2130
392 2151
392 2153
392 2155
392 2164
392 2166
392 2167
392 2174
392 2175
392 2193
392 2196
392 2199
392 2202
392 2210
392 2212
392 2214
392 2225
392 2233
392 2240
392 2252
392 2268
392 2271
392 2289
392 2298
393 398
393 450
393 472
393 474
393 489
393 495
393 535
393 574
393 577
393 595
393 621
393 634
393 680
393 696
393 714
393 771
393 799
393 828
393 854
393 861
393 867
393 891
393 930
393 940
393 999
393 1025
393 1028
393 1047
393 1050
393 1081
393 1099
393 1114
393 1123
393 1157
393 1183
393 1199
393 1222
393 1223
393 1231
393 1266
393 1306
393 1316
393 1350
393 1351
393 1386
393 1402
393 1414
393 1417
393 1424
393 1452
393 1485
393 1486
393 1527
393 1534
393 1536
393 1574
393 1585
393 1589
393 1592
393 1593
393 1604
393 1610
393 1655
393 1662
393 1665
393 1675
393 1736
393 1819
393 1820
393 1843
393 1846
393 1853
393 1934
393 1963
393 2001
393 2011
393 2020
393 2044
393 2080
393 2137
393 2199
393 2218
393 2230
393 2239
393 2287
394 436
394 541
394 598
394 714
394 717
394 727
394 795
394 856
394 876
394 914
394 931
394 940
394 946
394 967
394 974
394 989
394 1052
394 1080
394 1122
394 1140
394 1187
394 1257
394 1290
394 1292
394 1307
394 1316
394 1320
394 1342
394 1364
394 1370
394 1391
394 1394
394 1417
394 1472
394 1574
394 1602
394 1617
394 1621
394 1656
394 1725
394 1791
394 1793
394 1794
394 1801
394 1816
394 1914
394 1938
394 1952
394 1985
394 2061
394 2164
394 2199
395 406
395 409
395 418
395 437
395 440
395 443
395 468
395 487
395 494
395 504
395 507
395 512
395 540
395 550
395 580
395 639
395 682
395 941
395 956
395 1011
395 1121
395 1124
395 1134
395 1140
395 1238
395 1274
395 1356
395 1364
395 1501
395 1503
395 1583
395 1584
395 1613
395 1628
395 1676
395 1870
395 1937
395 2089
395 2125
395 2129
395 2221
395 2268
395 2299
396 433
396 532
396 538
396 580
396 735
396 776
396 801
396 849
396 913
396 953
396 968
396 996
396 1102
396 1118
396 1125
396 1332
396 1344
396 1404
396 1554
396 1777
396 1806
396 1906
396 2087
396 2127
396 2159
396 2271
396 2284
397 476
397 537
397 553
397 557
397 599
397 623
397 633
397 637
397 642
397 652
397 674
397 676
397 704
397 705
397 706
397 707
397 708
397 738
397 748
397 755
397 782
397 798
397 805
397 848
397 850
397 871
397 894
397 906
397 924
397 947
397 981
397 1068
397 1075
397 1084
397 1111
397 1137
397 1142
397 1145
397 1150
397 1159
397 1181
397 1280
397 1281
397 1299
397 1301
397 1337
397 1340
397 1361
397 1378
397 1398
397 1416
397 1433
397 1440
397 1442
397 1450
397 1493
397 1497
397 1505
397 1515
397 1561
397 1563
397 1571
397 1576
397 1650
397 1697
397 1708
397 1734
397 1755
397 1786
397 1796
397 1803
397 1825
397 1844
397 1848
397 1859
397 1874
397 1888
397 1899
397 1921
397 1931
397 1949
397 1969
397 1974
397 1982
397 1984
397 2037
397 2076
397 2101
397 2111
397 2113
397 2120
397 2128
397 2156
397 2177
397 2206
397 2225
397 2226
397 2232
397 2234
397 2248
397 2252
397 2260
397 2263
397 2265
397 2277
397 2304
398 451
398 457
398 483
398 582
398 595
398 600
398 634
398 650
398 653
398 657
398 680
398 749
398 757
398 799
398 854
398 856
398 867
398 895
398 914
398 924
398 943
398 962
398 1026
398 1047
398 1052
398 1054
398 1107
398 1109
398 1114
398 1146
398 1179
398 1183
398 1190
398 1192
398 1202
398 1223
398 1230
398 1239
398 1243
398 1346
398 1402
398 1412
398 1534
398 1543
398 1555
398 1582
398 1589
398 1592
398 1613
398 1652
398 1666
398 1678
398 1710
398 1721
398 1756
398 1791
398 1794
398 1819
398 1862
398 1898
398 1934
398 2001
398 2004
398 2011
398 2044
398 2052
398 2053
398 2115
398 2155
398 2156
398 2199
398 2294
398 2302
398 2304
399 421
399 434
399 435
399 453
399 472
399 480
399 493
399 510
399 555
399 567
399 610
399 633
399 647
399 654
399 665
399 668
399 674
399 705
399 709
399 712
399 755
399 781
399 792
399 808
399 831
399 835
399 841
399 868
399 876
399 884
399 919
399 934
399 948
399 970
399 981
399 1019
399 1020
399 1029
399 1051
399 1057
399 1062
399 1066
399 1091
399 1102
399 1120
399 1133
399 1142
399 1144
399 1189
399 1211
399 1214
399 1228
399 1256
399 1297
399 1308
399 1335
399 1341
399 1355
399 1375
399 1388
399 1406
399 1410
399 1419
399 1424
399 1435
399 1448
399 1485
399 1503
399 1512
399 1523
399 1535
399 1579
399 1606
399 1630
399 1633
399 1638
399 1646
399 1671
399 1715
399 1723
399 1732
399 1741
399 1744
399 1751
399 1755
399 1760
399 1774
399 1776
399 1782
399 1785
399 1804
399 1805
399 1829
399 1872
399 1874
399 1883
399 1893
399 1899
399 1907
399 1913
399 1950
399 1953
399 1963
399 1967
399 1975
399 1977
399 1979
399 1987
399 1993
399 2013
399 2021
399 2034
399 2037
399 2049
399 2073
399 2083
399 2093
399 2104
399 2111
399 2115
399 2116
399 2117
399 2127
399 2147
399 2154
399 2185
399 2195
399 2197
399 2236
399 2259
399 2298
399 2306
399 2308
399 2310
400 474
400 483
400 646
400 653
400 664
400 696
400 834
400 943
400 957
400 1065
400 1087
400 1178
400 1190
400 1202
400 1252
400 1338
400 1408
400 1453
400 1543
400 1608
400 1636
400 1665
400 1739
400 1759
400 1773
400 1819
400 1873
400 2099
400 2155
401 429
401 431
401 437
401 440
401 441
401 446
401 465
401 472
401 478
401 493
401 494
401 511
401 562
401 585
401 588
401 690
401 693
401 786
401 823
401 824
401 833
401 848
401 883
401 890
401 893
401 924
401 1010
401 1092
401 1140
401 1169
401 1180
401 1194
401 1210
401 1216
401 1262
401 1274
401 1281
401 1355
401 1362
401 1364
401 1371
401 1405
401 1480
401 1485
401 1494
401 1565
401 1579
401 1594
401 1615
401 1623
401 1680
401 1683
401 1828
401 1873
401 1886
401 1896
401 1900
401 1988
401 2005
401 2036
401 2062
401 2210
401 2212
401 2214
401 2233
401 2271
401 2312
402 420
402 582
402 589
402 600
402 657
402 680
402 870
402 914
402 943
402 979
402 1052
402 1079
402 1107
402 1197
402 1255
402 1374
402 1414
402 1477
402 1521
402 1522
402 1585
402 1592
402 1608
402 1616
402 1662
402 1694
402 1791
402 1847
402 1898
402 1938
402 2044
402 2178
402 2291
403 468
403 504
403 580
403 589
403 594
403 617
403 701
403 730
403 791
403 843
403 872
403 884
403 893
403 930
403 942
403 949
403 958
403 972
403 996
403 1186
403 1277
403 1325
403 1355
403 1387
403 1399
403 1424
403 1435
403 1460
403 1485
403 1491
403 1663
403 1795
403 1835
403 1873
403 1974
403 1995
403 2035
403 2057
403 2079
403 2129
403 2130
403 2198
403 2292
404 439
404 447
404 465
404 472
404 488
404 498
404 515
404 516
404 553
404 603
404 648
404 654
404 660
404 679
404 709
404 754
404 792
404 803
404 808
404 829
404 838
404 855
404 862
404 871
404 884
404 924
404 928
404 938
404 968
404 983
404 1020
404 1052
404 1063
404 1110
404 1133
404 1139
404 1150
404 1194
404 1243
404 1253
404 1271
404 1304
404 1344
404 1348
404 1357
404 1371
404 1378
404 1385
404 1398
404 1411
404 1420
404 1424
404 1429
404 1434
404 1466
404 1482
404 1513
404 1533
404 1538
404 1550
404 1561
404 1569
404 1655
404 1676
404 1697
404 1703
404 1743
404 1744
404 1763
404 1771
404 1796
404 1822
404 1829
404 1834
404 1849
404 1872
404 1901
404 1909
404 1919
404 1956
404 1963
404 1966
404 2056
404 2073
404 2074
404 2086
404 2144
404 2259
404 2271
404 2295
404 2312
405 453
405 463
405 466
405 519
405 577
405 584
405 594
405 599
405 613
405 665
405 669
405 673
405 675
405 679
405 695
405 712
405 714
405 743
405 747
405 753
405 754
405 759
405 760
405 768
405 776
405 782
405 813
405 814
405 831
405 841
405 858
405 860
405 876
405 892
405 915
405 919
405 920
405 924
405 932
405 980
405 991
405 1020
405 1029
405 1031
405 1035
405 1053
405 1078
405 1086
405 1089
405 1118
405 1170
405 1203
405 1215
405 1249
405 1256
405 1268
405 1281
405 1283
405 1299
405 1303
405 1390
405 1421
405 1425
405 1499
405 1539
405 1548
405 1573
405 1578
405 1588
405 1590
405 1625
405 1643
405 1677
405 1679
405 1715
405 1743
405 1760
405 1771
405 1782
405 1836
405 1844
405 1849
405 1859
405 1908
405 1921
405 1927
405 1961
405 1980
405 1991
405 1996
405 2023
405 2042
405 2046
405 2049
405 2089
405 2117
405 2151
405 2154
405 2156
405 2160
405 2167
405 2177
405 2191
405 2204
405 2221
405 2228
405 2242
405 2258
405 2274
405 2305
405 2311
406 419
406 437
406 472
406 482
406 487
406 493
406 499
406 509
406 522
406 525
406 531
406 550
406 567
406 588
406 591
406 610
406 611
406 623
406 631
406 640
406 643
406 665
406 676
406 681
406 693
406 701
406 711
406 718
406 723
406 728
406 735
406 737
406 755
406 759
406 787
406 788
406 800
406 804
406 809
406 815
406 825
406 829
406 835
406 848
406 853
406 861
406 874
406 879
406 888
406 892
406 932
406 960
406 969
406 977
406 1001
406 1048
406 1063
406 1070
406 1089
406 1103
406 1118
406 1125
406 1137
406 1159
406 1170
406 1177
406 1189
406 1200
406 1225
406 1233
406 1249
406 1250
406 1251
406 1265
406 1268
406 1273
406 1280
406 1296
406 1305
406 1312
406 1318
406 1323
406 1327
406 1329
406 1337
406 1340
406 1385
406 1411
406 1424
406 1433
406 1437
406 1442
406 1443
406 1491
406 1496
406 1505
406 1513
406 1520
406 1521
406 1554
406 1563
406 1576
406 1583
406 1611
406 1626
406 1650
406 1679
406 1684
406 1717
406 1748
406 1760
406 1775
406 1803
406 1812
406 1825
406 1835
406 1844
406 1852
406 1863
406 1873
406 1874
406 1878
406 1891
406 1918
406 1921
406 1925
406 1984
406 1992
406 2024
406 2037
406 2049
406 2060
406 2065
406 2066
406 2069
406 2089
406 2120
406 2245
406 2258
406 2295
407 419
407 509
407 526
407 546
407 718
407 736
407 788
407 797
407 803
407 833
407 923
407 1001
407 1042
407 1103
407 1133
407 1139
407 1251
407 1323
407 1373
407 1437
407 1563
407 1573
407 1605
407 1645
407 1679
407 1824
407 1852
407 1896
407 1980
407 1999
407 2062
407 2093
407 2123
407 2143
407 2187
408 423
408 437
408 441
408 446
408 452
408 472
408 493
408 497
408 535
408 562
408 585
408 661
408 753
408 758
408 776
408 824
408 833
408 848
408 865
408 883
408 904
408 924
408 946
408 992
408 998
408 1015
408 1064
408 1071
408 1149
408 1194
408 1259
408 1265
408 1268
408 1275
408 1281
408 1292
408 1332
408 1364
408 1380
408 1447
408 1460
408 1487
408 1563
408 1566
408 1570
408 1574
408 1618
408 1621
408 1655
408 1675
408 1676
408 1778
408 1804
408 1816
408 1828
408 1873
408 1886
408 1890
408 1988
408 2051
408 2062
408 2166
408 2198
408 2202
408 2210
408 2225
408 2241
408 2295
408 2309
408 2312
409 410
409 414
409 416
409 453
409 459
409 467
409 470
409 511
409 513
409 522
409 590
409 613
409 663
409 665
409 673
409 729
409 765
409 831
409 835
409 894
409 961
409 984
409 1044
409 1098
409 1189
409 1249
409 1265
409 1268
409 1283
409 1308
409 1315
409 1396
409 1446
409 1451
409 1539
409 1625
409 1718
409 1783
409 1785
409 1792
409 1799
409 1835
409 1842
409 1844
409 1854
409 1857
409 1866
409 1879
409 1967
409 2008
409 2046
409 2049
409 2105
409 2113
409 2117
410 412
410 529
410 533
410 645
410 676
410 805
410 894
410 903
410 907
410 915
410 930
410 947
410 986
410 1003
410 1010
410 1021
410 1039
410 1073
410 1077
410 1136
410 1171
410 1220
410 1236
410 1258
410 1270
410 1416
410 1493
410 1504
410 1505
410 1508
410 1515
410 1539
410 1561
410 1563
410 1564
410 1611
410 1703
410 1724
410 1774
410 1787
410 1799
410 1804
410 1840
410 1851
410 1874
410 1878
410 1885
410 1891
410 1911
410 1953
410 1977
410 1984
410 1989
410 2089
410 2104
410 2109
410 2148
410 2171
410 2177
410 2215
410 2232
410 2242
410 2254
410 2271
410 2277
410 2304
411 432
411 446
411 493
411 496
411 513
411 763
411 797
411 804
411 849
411 852
411 881
411 930
411 948
411 968
411 1063
411 1142
411 1168
411 1211
411 1281
411 1289
411 1297
411 1475
411 1485
411 1531
411 1560
411 1646
411 1657
411 1676
411 1713
411 1790
411 1796
411 1854
411 1860
411 1873
411 1913
411 1926
411 1974
411 2043
411 2055
411 2062
411 2066
411 2101
411 2175
411 2197
411 2220
411 2225
411 2231
411 2259
411 2304
412 461
412 466
412 469
412 519
412 524
412 539
412 601
412 635
412 716
412 746
412 753
412 760
412 813
412 814
412 826
412 888
412 930
412 932
412 961
412 1011
412 1048
412 1070
412 1117
412 1170
412 1311
412 1339
412 1360
412 1372
412 1462
412 1549
412 1601
412 1643
412 1750
412 1796
412 1876
412 1885
412 1908
412 1925
412 1965
412 2015
412 2017
412 2048
412 2103
412 2127
412 2135
412 2161
412 2179
412 2182
412 2222
412 2249
412 2274
412 2277
413 426
413 443
413 467
413 472
413 487
413 501
413 513
413 531
413 537
413 540
413 547
413 567
413 571
413 575
413 587
413 652
413 672
413 708
413 737
413 741
413 743
413 756
413 759
413 781
413 792
413 808
413 816
413 825
413 839
413 861
413 873
413 893
413 912
413 917
413 919
413 922
413 929
413 944
413 948
413 969
413 971
413 977
413 990
413 1036
413 1037
413 1044
413 1078
413 1104
413 1116
413 1143
413 1155
413 1166
413 1191
413 1204
413 1211
413 1218
413 1225
413 1234
413 1251
413 1265
413 1267
413 1337
413 1340
413 1427
413 1430
413 1439
413 1440
413 1459
413 1475
413 1495
413 1497
413 1502
413 1511
413 1571
413 1581
413 1583
413 1587
413 1600
413 1607
413 1625
413 1637
413 1676
413 1753
413 1765
413 1776
413 1792
413 1821
413 1854
413 1879
413 1882
413 1899
413 1909
413 1951
413 2039
413 2043
413 2046
413 2066
413 2075
413 2110
413 2133
413 2146
413 2156
413 2160
413 2184
413 2231
413 2248
413 2255
413 2260
413 2276
413 2303
414 494
414 540
414 586
414 765
414 863
414 972
414 996
414 1055
414 1121
414 1164
414 1446
414 1523
414 1564
414 1675
414 1752
414 2105
414 2281
414 2298
415 423
415 433
415 446
415 450
415 472
415 484
415 492
415 504
415 511
415 512
415 535
415 630
415 631
415 643
415 655
415 656
415 691
415 693
415 746
415 749
415 756
415 758
415 778
415 792
415 825
415 827
415 831
415 853
415 863
415 883
415 904
415 923
415 928
415 930
415 959
415 993
415 1004
415 1008
415 1015
415 1045
415 1071
415 1079
415 1090
415 1094
415 1103
415 1115
415 1151
415 1177
415 1189
415 1203
415 1244
415 1245
415 1259
415 1275
415 1281
415 1300
415 1325
415 1347
415 1355
415 1396
415 1405
415 1411
415 1424
415 1467
415 1485
415 1487
415 1491
415 1492
415 1513
415 1580
415 1598
415 1676
415 1716
415 1778
415 1873
415 1890
415 1900
415 1964
415 2062
415 2140
415 2143
415 2154
415 2163
415 2175
415 2192
415 2198
415 2210
415 2212
415 2251
415 2275
415 2295
415 2296
415 2307
415 2309
416 425
416 435
416 445
416 497
416 550
416 590
416 624
416 636
416 652
416 673
416 680
416 681
416 711
416 723
416 743
416 808
416 809
416 916
416 935
416 954
416 961
416 977
416 1016
416 1043
416 1063
416 1082
416 1089
416 1093
416 1176
416 1220
416 1221
416 1264
416 1265
416 1305
416 1318
416 1337
416 1354
416 1385
416 1438
416 1439
416 1495
416 1500
416 1502
416 1505
416 1519
416 1581
416 1583
416 1590
416 1643
416 1775
416 1825
416 1831
416 1866
416 1921
416 1945
416 2025
416 2046
416 2066
416 2109
416 2110
416 2150
416 2170
416 2202
416 2245
416 2260
416 2276
417 421
417 462
417 473
417 584
417 591
417 610
417 611
417 648
417 652
417 665
417 702
417 704
417 705
417 711
417 712
417 731
417 743
417 782
417 785
417 819
417 848
417 849
417 861
417 864
417 944
417 954
417 1039
417 1050
417 1062
417 1063
417 1102
417 1111
417 1168
417 1171
417 1208
417 1233
417 1258
417 1265
417 1268
417 1279
417 1308
417 1337
417 1343
417 1352
417 1396
417 1406
417 1421
417 1439
417 1469
417 1503
417 1554
417 1558
417 1590
417 1595
417 1669
417 1671
417 1715
417 1717
417 1746
417 1790
417 1792
417 1825
417 1844
417 1860
417 1864
417 1866
417 1888
417 1893
417 1903
417 1921
417 1926
417 1931
417 1936
417 1951
417 1974
417 2023
417 2048
417 2049
417 2066
417 2089
417 2100
417 2144
417 2146
417 2148
417 2151
417 2160
417 2163
417 2177
417 2203
417 2245
417 2260
417 2269
417 2280
417 2295
418 423
418 437
418 439
418 440
418 468
418 491
418 494
418 504
418 512
418 540
418 550
418 562
418 580
418 592
418 632
418 660
418 682
418 729
418 730
418 744
418 750
418 764
418 821
418 825
418 852
418 893
418 898
418 930
418 936
418 953
418 996
418 1023
418 1054
418 1115
418 1134
418 1140
418 1206
418 1238
418 1242
418 1274
418 1281
418 1325
418 1356
418 1364
418 1399
418 1456
418 1491
418 1501
418 1594
418 1625
418 1676
418 1760
418 1767
418 1771
418 1795
418 1806
418 1937
418 1983
418 2003
418 2035
418 2059
418 2125
418 2130
418 2154
418 2175
418 2221
418 2268
418 2299
418 2303
419 443
419 455
419 471
419 481
419 482
419 498
419 509
419 511
419 516
419 532
419 535
419 559
419 565
419 592
419 606
419 616
419 640
419 648
419 693
419 704
419 718
419 722
419 728
419 736
419 786
419 787
419 788
419 790
419 798
419 805
419 815
419 829
419 833
419 836
419 850
419 883
419 884
419 900
419 906
419 909
419 924
419 997
419 1013
419 1074
419 1103
419 1110
419 1130
419 1133
419 1136
419 1198
419 1200
419 1212
419 1251
419 1253
419 1271
419 1273
419 1276
419 1280
419 1281
419 1299
419 1309
419 1323
419 1337
419 1348
419 1385
419 1388
419 1398
419 1416
419 1433
419 1434
419 1437
419 1444
419 1457
419 1466
419 1483
419 1485
419 1487
419 1489
419 1493
419 1563
419 1576
419 1607
419 1645
419 1679
419 1702
419 1755
419 1763
419 1769
419 1779
419 1780
419 1802
419 1804
419 1812
419 1813
419 1822
419 1824
419 1825
419 1834
419 1840
419 1848
419 1869
419 1907
419 1918
419 1919
419 1921
419 1931
419 1949
419 1963
419 1977
419 1982
419 2003
419 2021
419 2024
419 2060
419 2062
419 2065
419 2068
419 2073
419 2074
419 2094
419 2104
419 2112
419 2120
419 2123
419 2156
419 2187
419 2198
419 2232
419 2255
419 2260
419 2272
419 2283
419 2295
419 2306
419 2310
420 424
420 451
420 457
420 483
420 567
420 582
420 595
420 600
420 646
420 657
420 664
420 678
420 680
420 696
420 749
420 771
420 783
420 790
420 817
420 838
420 896
420 914
420 929
420 943
420 957
420 962
420 973
420 979
420 1047
420 1052
420 1065
420 1099
420 1134
420 1141
420 1146
420 1154
420 1183
420 1190
420 1230
420 1237
420 1239
420 1243
420 1278
420 1293
420 1374
420 1452
420 1453
420 1470
420 1477
420 1486
420 1506
420 1522
420 1536
420 1543
420 1551
420 1589
420 1608
420 1613
420 1616
420 1636
420 1662
420 1666
420 1721
420 1736
420 1739
420 1846
420 1847
420 1862
420 1892
420 1898
420 1930
420 1947
420 1970
420 1981
420 2002
420 2020
420 2038
420 2044
420 2060
420 2077
420 2099
420 2110
420 2155
420 2178
420 2188
420 2199
420 2239
420 2287
421 437
421 442
421 453
421 473
421 482
421 497
421 519
421 533
421 568
421 591
421 610
421 611
421 639
421 652
421 673
421 712
421 768
421 782
421 785
421 800
421 814
421 822
421 825
421 831
421 848
421 874
421 876
421 888
421 926
421 932
421 998
421 1002
421 1038
421 1051
421 1062
421 1086
421 1095
421 1111
421 1265
421 1268
421 1281
421 1283
421 1308
421 1337
421 1343
421 1358
421 1390
421 1485
421 1558
421 1581
421 1590
421 1612
421 1625
421 1664
421 1671
421 1679
421 1708
421 1715
421 1717
421 1746
421 1776
421 1782
421 1809
421 1859
421 1908
421 1921
421 1987
421 2049
421 2088
421 2127
421 2133
421 2151
421 2182
421 2237
421 2257
421 2260
421 2261
421 2280
422 461
422 515
422 522
422 607
422 715
422 753
422 793
422 864
422 915
422 932
422 956
422 1004
422 1013
422 1020
422 1120
422 1205
422 1233
422 1318
422 1373
422 1387
422 1409
422 1521
422 1537
422 1539
422 1546
422 1598
422 1630
422 1748
422 1774
422 1775
422 1799
422 1834
422 1854
422 1897
422 1927
422 1963
422 1974
422 2017
422 2067
422 2138
422 2161
422 2185
422 2190
422 2236
422 2251
423 431
423 437
423 439
423 441
423 442
423 446
423 453
423 470
423 472
423 491
423 493
423 494
423 498
423 500
423 504
423 512
423 523
423 528
423 538
423 546
423 549
423 576
423 585
423 589
423 592
423 601
423 624
423 631
423 632
423 642
423 643
423 661
423 670
423 690
423 693
423 702
423 709
423 714
423 718
423 730
423 761
423 769
423 776
423 792
423 813
423 824
423 846
423 848
423 861
423 863
423 865
423 872
423 876
423 878
423 883
423 884
423 890
423 894
423 898
423 920
423 924
423 931
423 950
423 953
423 959
423 972
423 996
423 998
423 1015
423 1038
423 1059
423 1062
423 1064
423 1067
423 1071
423 1090
423 1092
423 1095
423 1096
423 1102
423 1122
423 1124
423 1149
423 1152
423 1177
423 1188
423 1193
423 1204
423 1216
423 1238
423 1252
423 1259
423 1262
423 1274
423 1281
423 1288
423 1292
423 1297
423 1310
423 1332
423 1335
423 1358
423 1364
423 1375
423 1377
423 1380
423 1387
423 1399
423 1405
423 1406
423 1424
423 1485
423 1517
423 1562
423 1579
423 1615
423 1619
423 1621
423 1623
423 1625
423 1628
423 1663
423 1664
423 1676
423 1697
423 1719
423 1726
423 1751
423 1760
423 1767
423 1776
423 1793
423 1809
423 1816
423 1909
423 1957
423 1983
423 1987
423 1993
423 2027
423 2079
423 2095
423 2098
423 2129
423 2130
423 2151
423 2164
423 2166
423 2167
423 2172
423 2192
423 2193
423 2196
423 2202
423 2210
423 2225
423 2233
423 2240
423 2252
423 2268
423 2284
423 2289
423 2296
423 2312
424 538
424 552
424 560
424 595
424 622
424 625
424 626
424 643
424 696
424 724
424 740
424 757
424 790
424 799
424 867
424 896
424 900
424 957
424 1099
424 1190
424 1226
424 1230
424 1243
424 1306
424 1351
424 1374
424 1402
424 1417
424 1436
424 1452
424 1525
424 1534
424 1536
424 1551
424 1576
424 1589
424 1593
424 1720
424 1721
424 1729
424 1736
424 1756
424 1819
424 1875
424 1898
424 1981
424 2001
424 2013
424 2038
424 2043
424 2044
424 2099
424 2120
424 2188
424 2199
424 2256
424 2283
425 426
425 454
425 465
425 467
425 494
425 513
425 532
425 533
425 534
425 551
425 558
425 567
425 587
425 593
425 605
425 607
425 624
425 633
425 672
425 676
425 677
425 711
425 737
425 750
425 755
425 756
425 770
425 792
425 800
425 808
425 815
425 819
425 826
425 840
425 913
425 917
425 945
425 961
425 969
425 971
425 986
425 988
425 992
425 1003
425 1004
425 1021
425 1058
425 1117
425 1127
425 1176
425 1218
425 1220
425 1225
425 1234
425 1256
425 1279
425 1280
425 1294
425 1299
425 1301
425 1318
425 1329
425 1337
425 1340
425 1385
425 1416
425 1430
425 1439
425 1442
425 1482
425 1497
425 1502
425 1503
425 1510
425 1511
425 1515
425 1518
425 1540
425 1581
425 1583
425 1586
425 1587
425 1590
425 1630
425 1634
425 1637
425 1667
425 1703
425 1728
425 1730
425 1746
425 1761
425 1772
425 1774
425 1784
425 1787
425 1825
425 1844
425 1851
425 1853
425 1854
425 1874
425 1878
425 1882
425 1903
425 1904
425 1911
425 1931
425 1936
425 1945
425 1973
425 1982
425 1984
425 1991
425 1992
425 2081
425 2084
425 2120
425 2146
425 2171
425 2177
425 2185
425 2206
425 2260
425 2261
426 571
426 587
426 593
426 605
426 672
426 976
426 1021
426 1037
426 1104
426 1166
426 1191
426 1204
426 1256
426 1267
426 1328
426 1329
426 1337
426 1438
426 1459
426 1493
426 1581
426 1607
426 1637
426 1728
426 1810
426 1871
426 1908
426 1945
426 2039
426 2184
426 2189
426 2277
427 475
427 519
427 543
427 563
427 572
427 594
427 601
427 610
427 617
427 701
427 732
427 751
427 774
427 827
427 837
427 845
427 902
427 930
427 956
427 969
427 972
427 1048
427 1051
427 1082
427 1097
427 1120
427 1165
427 1167
427 1175
427 1186
427 1277
427 1281
427 1304
427 1384
427 1415
427 1473
427 1520
427 1533
427 1568
427 1586
427 1633
427 1668
427 1718
427 1750
427 1815
427 1831
427 1885
427 1908
427 1986
427 2015
427 2057
427 2089
427 2161
427 2162
427 2270
428 486
428 626
428 680
428 704
428 764
428 771
428 783
428 893
428 914
428 967
428 979
428 995
428 1146
428 1154
428 1157
428 1290
428 1320
428 1351
428 1398
428 1408
428 1441
428 1452
428 1486
428 1574
428 1580
428 1589
428 1591
428 1592
428 1620
428 1651
428 1696
428 1711
428 1721
428 1756
428 1846
428 1847
428 1889
428 1898
428 1933
428 2004
428 2009
428 2044
428 2218
428 2302
429 439
429 494
429 548
429 588
429 592
429 634
429 690
429 756
429 766
429 824
429 835
429 853
429 879
429 910
429 954
429 984
429 1007
429 1122
429 1144
429 1203
429 1274
429 1355
429 1362
429 1411
429 1424
429 1458
429 1467
429 1491
429 1514
429 1542
429 1584
429 1599
429 1633
429 1638
429 1642
429 1896
429 1958
429 1994
429 2034
429 2073
429 2195
429 2251
429 2289
430 445
430 468
430 535
430 545
430 581
430 594
430 609
430 643
430 648
430 677
430 701
430 791
430 792
430 872
430 930
430 959
430 965
430 1023
430 1057
430 1130
430 1169
430 1175
430 1233
430 1257
430 1410
430 1668
430 1717
430 1726
430 1763
430 1814
430 1863
430 1873
430 1922
430 1988
430 2116
430 2123
430 2129
430 2310
431 440
431 442
431 446
431 447
431 453
431 462
431 472
431 491
431 494
431 503
431 512
431 515
431 540
431 550
431 563
431 564
431 575
431 578
431 580
431 581
431 602
431 603
431 631
431 633
431 670
431 675
431 685
431 693
431 702
431 711
431 729
431 730
431 738
431 742
431 750
431 761
431 793
431 810
431 819
431 822
431 840
431 846
431 848
431 875
431 878
431 883
431 884
431 908
431 916
431 919
431 941
431 942
431 950
431 953
431 956
431 988
431 990
431 998
431 1011
431 1063
431 1071
431 1095
431 1112
431 1113
431 1122
431 1128
431 1149
431 1152
431 1156
431 1158
431 1176
431 1180
431 1188
431 1193
431 1203
431 1219
431 1238
431 1258
431 1268
431 1270
431 1274
431 1280
431 1281
431 1285
431 1287
431 1292
431 1321
431 1322
431 1344
431 1358
431 1364
431 1387
431 1401
431 1409
431 1423
431 1424
431 1464
431 1482
431 1512
431 1517
431 1535
431 1556
431 1559
431 1562
431 1663
431 1680
431 1683
431 1703
431 1753
431 1770
431 1793
431 1809
431 1815
431 1821
431 1837
431 1844
431 1851
431 1854
431 1903
431 1908
431 1909
431 1926
431 1931
431 1938
431 1946
431 1959
431 1967
431 1983
431 2027
431 2049
431 2098
431 2106
431 2121
431 2125
431 2145
431 2183
431 2203
431 2209
431 2212
431 2225
431 2268
431 2271
431 2299
432 522
432 563
432 572
432 607
432 617
432 718
432 723
432 812
432 884
432 968
432 1049
432 1125
432 1300
432 1400
432 1415
432 1485
432 1496
432 1717
432 1831
432 1901
432 2027
432 2264
432 2270
432 2271
433 468
433 472
433 478
433 484
433 491
433 492
433 494
433 502
433 504
433 510
433 511
433 516
433 532
433 538
433 546
433 550
433 562
433 578
433 585
433 642
433 643
433 648
433 658
433 661
433 686
433 689
433 691
433 703
433 776
433 802
433 824
433 844
433 883
433 923
433 928
433 950
433 959
433 960
433 993
433 996
433 1013
433 1024
433 1027
433 1071
433 1094
433 1103
433 1104
433 1140
433 1143
433 1151
433 1169
433 1194
433 1203
433 1205
433 1246
433 1252
433 1281
433 1298
433 1330
433 1332
433 1347
433 1348
433 1358
433 1362
433 1364
433 1373
433 1404
433 1405
433 1411
433 1420
433 1424
433 1429
433 1455
433 1485
433 1489
433 1492
433 1501
433 1513
433 1559
433 1563
433 1565
433 1594
433 1680
433 1685
433 1699
433 1700
433 1745
433 1763
433 1781
433 1804
433 1806
433 1824
433 1828
433 1834
433 1841
433 1864
433 1896
433 1906
433 1922
433 1949
433 1974
433 1985
433 1999
433 2005
433 2013
433 2062
433 2082
433 2093
433 2104
433 2132
433 2143
433 2159
433 2195
433 2198
433 2209
433 2210
433 2212
433 2232
433 2272
433 2284
433 2309
434 441
434 511
434 596
434 686
434 693
434 755
434 829
434 937
434 1071
434 1185
434 1281
434 1312
434 1385
434 1388
434 1405
434 1437
434 1489
434 1566
434 1576
434 1623
434 1771
434 1852
434 1918
434 1919
434 1949
434 1999
434 2093
435 439
435 590
435 624
435 636
435 681
435 709
435 770
435 778
435 818
435 877
435 916
435 961
435 977
435 1016
435 1046
435 1082
435 1085
435 1091
435 1093
435 1102
435 1214
435 1297
435 1305
435 1368
435 1374
435 1385
435 1388
435 1406
435 1432
435 1485
435 1502
435 1513
435 1519
435 1581
435 1583
435 1645
435 1657
435 1732
435 1760
435 1829
435 1866
435 1913
435 1945
435 2025
435 2055
435 2056
435 2260
435 2303
436 486
436 854
436 925
436 967
436 1028
436 1287
436 1295
436 1307
436 1405
436 1559
436 1610
436 1647
436 1846
436 1938
436 2044
436 2152
436 2217
437 440
437 441
437 442
437 446
437 462
437 472
437 484
437 491
437 492
437 493
437 494
437 496
437 498
437 504
437 512
437 522
437 523
437 528
437 538
437 540
437 546
437 549
437 562
437 563
437 570
437 576
437 585
437 586
437 588
437 592
437 601
437 603
437 619
437 629
437 631
437 632
437 635
437 639
437 642
437 643
437 659
437 670
437 677
437 679
437 690
437 693
437 702
437 703
437 714
437 730
437 735
437 742
437 753
437 759
437 764
437 769
437 776
437 791
437 792
437 808
437 818
437 820
437 822
437 824
437 833
437 835
437 843
437 848
437 852
437 853
437 860
437 863
437 865
437 868
437 876
437 878
437 879
437 883
437 898
437 902
437 904
437 909
437 920
437 924
437 930
437 931
437 942
437 950
437 953
437 955
437 970
437 972
437 982
437 998
437 1009
437 1010
437 1015
437 1016
437 1023
437 1042
437 1048
437 1051
437 1054
437 1062
437 1064
437 1067
437 1071
437 1072
437 1080
437 1092
437 1093
437 1095
437 1096
437 1102
437 1110
437 1115
437 1121
437 1122
437 1124
437 1136
437 1140
437 1149
437 1152
437 1156
437 1169
437 1177
437 1198
437 1210
437 1216
437 1217
437 1219
437 1238
437 1244
437 1259
437 1262
437 1268
437 1269
437 1274
437 1275
437 1281
437 1288
437 1292
437 1296
437 1297
437 1300
437 1305
437 1310
437 1312
437 1325
437 1326
437 1358
437 1362
437 1364
437 1380
437 1384
437 1394
437 1399
437 1400
437 1404
437 1406
437 1409
437 1411
437 1424
437 1443
437 1449
437 1491
437 1513
437 1514
437 1517
437 1520
437 1521
437 1538
437 1540
437 1554
437 1556
437 1559
437 1562
437 1565
437 1572
437 1580
437 1584
437 1612
437 1615
437 1619
437 1621
437 1623
437 1626
437 1628
437 1664
437 1672
437 1679
437 1680
437 1683
437 1697
437 1723
437 1760
437 1767
437 1793
437 1795
437 1809
437 1863
437 1870
437 1873
437 1878
437 1881
437 1890
437 1894
437 1909
437 1929
437 1931
437 1938
437 1948
437 1957
437 1959
437 1966
437 1983
437 1990
437 1995
437 1996
437 2005
437 2016
437 2022
437 2027
437 2040
437 2051
437 2069
437 2086
437 2089
437 2096
437 2098
437 2112
437 2125
437 2130
437 2164
437 2166
437 2167
437 2172
437 2175
437 2182
437 2183
437 2193
437 2196
437 2198
437 2201
437 2202
437 2210
437 2212
437 2214
437 2225
437 2233
437 2237
437 2252
437 2268
437 2289
437 2295
437 2307
437 2312
438 487
438 494
438 497
438 579
438 592
438 614
438 633
438 642
438 647
438 660
438 705
438 725
438 741
438 746
438 765
438 772
438 792
438 819
438 850
438 860
438 861
438 866
438 877
438 894
438 934
438 945
438 960
438 986
438 1009
438 1031
438 1062
438 1068
438 1075
438 1101
438 1142
438 1144
438 1159
438 1203
438 1211
438 1225
438 1232
438 1250
438 1254
438 1271
438 1352
438 1439
438 1448
438 1505
438 1511
438 1514
438 1537
438 1538
438 1558
438 1590
438 1598
438 1600
438 1650
438 1658
438 1671
438 1713
438 1738
438 1748
438 1755
438 1765
438 1771
438 1803
438 1813
438 1818
438 1825
438 1869
438 1873
438 1874
438 1899
438 1951
438 1956
438 1963
438 1992
438 2003
438 2037
438 2049
438 2055
438 2067
438 2081
438 2101
438 2111
438 2133
438 2156
438 2171
438 2211
438 2213
438 2225
438 2227
438 2252
438 2259
438 2280
438 2304
438 2306
439 468
439 470
439 493
439 494
439 510
439 523
439 548
439 570
439 578
439 594
439 623
439 660
439 677
439 686
439 687
439 694
439 714
439 715
439 791
439 792
439 808
439 832
439 848
439 855
439 862
439 864
439 881
439 884
439 924
439 937
439 938
439 958
439 959
439 965
439 970
439 1016
439 1020
439 1023
439 1048
439 1062
439 1071
439 1082
439 1095
439 1110
439 1120
439 1124
439 1133
439 1144
439 1175
439 1177
439 1186
439 1203
439 1211
439 1214
439 1233
439 1253
439 1274
439 1283
439 1308
439 1348
439 1355
439 1363
439 1364
439 1366
439 1371
439 1378
439 1404
439 1411
439 1424
439 1458
439 1487
439 1499
439 1503
439 1538
439 1539
439 1564
439 1598
439 1621
439 1625
439 1659
439 1668
439 1672
439 1676
439 1713
439 1732
439 1741
439 1743
439 1744
439 1760
439 1771
439 1780
439 1803
439 1805
439 1829
439 1835
439 1873
439 1874
439 1896
439 1913
439 1916
439 1958
439 1963
439 1964
439 1974
439 1977
439 1979
439 1987
439 1995
439 2013
439 2027
439 2035
439 2037
439 2055
439 2062
439 2070
439 2073
439 2079
439 2108
439 2115
439 2117
439 2123
439 2154
439 2163
439 2167
439 2175
439 2208
439 2220
439 2225
439 2231
439 2252
439 2259
439 2268
439 2272
439 2289
439 2295
439 2304
439 2311
440 442
440 443
440 453
440 462
440 472
440 494
440 496
440 504
440 512
440 528
440 540
440 549
440 550
440 578
440 580
440 588
440 639
440 658
440 670
440 690
440 701
440 729
440 730
440 735
440 738
440 744
440 769
440 776
440 835
440 848
440 865
440 875
440 879
440 894
440 898
440 912
440 919
440 941
440 942
440 972
440 990
440 993
440 998
440 1023
440 1048
440 1095
440 1121
440 1124
440 1164
440 1186
440 1188
440 1193
440 1217
440 1219
440 1238
440 1265
440 1268
440 1270
440 1274
440 1281
440 1288
440 1296
440 1358
440 1364
440 1404
440 1409
440 1485
440 1564
440 1619
440 1625
440 1683
440 1708
440 1746
440 1776
440 1814
440 1837
440 1844
440 1849
440 1864
440 1870
440 1909
440 1928
440 1967
440 1979
440 1984
440 1996
440 2089
440 2098
440 2125
440 2135
440 2145
440 2151
440 2161
440 2172
440 2182
440 2212
440 2221
440 2240
440 2249
440 2268
440 2269
440 2274
440 2289
440 2299
441 446
441 453
441 461
441 472
441 493
441 497
441 505
441 511
441 516
441 523
441 535
441 538
441 549
441 555
441 585
441 598
441 661
441 690
441 693
441 702
441 714
441 730
441 742
441 761
441 775
441 792
441 824
441 830
441 833
441 848
441 876
441 878
441 883
441 890
441 894
441 900
441 904
441 920
441 923
441 924
441 931
441 940
441 946
441 950
441 998
441 1010
441 1015
441 1052
441 1053
441 1064
441 1092
441 1095
441 1110
441 1124
441 1140
441 1149
441 1152
441 1169
441 1180
441 1198
441 1203
441 1210
441 1216
441 1217
441 1238
441 1246
441 1253
441 1262
441 1268
441 1269
441 1274
441 1280
441 1281
441 1288
441 1292
441 1297
441 1299
441 1307
441 1312
441 1320
441 1332
441 1333
441 1334
441 1348
441 1358
441 1362
441 1364
441 1400
441 1405
441 1424
441 1487
441 1494
441 1520
441 1559
441 1562
441 1574
441 1579
441 1605
441 1612
441 1615
441 1619
441 1621
441 1664
441 1676
441 1697
441 1751
441 1767
441 1793
441 1801
441 1804
441 1809
441 1817
441 1828
441 1867
441 1880
441 1896
441 1906
441 1907
441 1909
441 1919
441 1938
441 1951
441 1957
441 1959
441 1963
441 1966
441 1996
441 2027
441 2034
441 2058
441 2062
441 2073
441 2095
441 2123
441 2151
441 2164
441 2166
441 2167
441 2191
441 2199
441 2202
441 2209
441 2210
441 2214
441 2225
441 2233
441 2240
441 2246
441 2312
442 453
442 469
442 493
442 528
442 549
442 550
442 585
442 598
442 601
442 623
442 639
442 656
442 702
442 734
442 735
442 742
442 753
442 776
442 779
442 782
442 825
442 848
442 856
442 876
442 878
442 883
442 894
442 932
442 944
442 967
442 990
442 1063
442 1064
442 1071
442 1080
442 1095
442 1121
442 1140
442 1152
442 1193
442 1219
442 1265
442 1282
442 1287
442 1288
442 1290
442 1322
442 1327
442 1329
442 1358
442 1377
442 1391
442 1394
442 1417
442 1423
442 1517
442 1546
442 1556
442 1575
442 1620
442 1621
442 1625
442 1656
442 1663
442 1751
442 1801
442 1806
442 1809
442 1816
442 1835
442 1908
442 1927
442 1938
442 1952
442 1957
442 1983
442 2008
442 2013
442 2108
442 2125
442 2129
442 2139
442 2146
442 2151
442 2164
442 2167
442 2206
442 2210
442 2225
442 2249
442 2264
442 2268
443 467
443 472
443 482
443 490
443 493
443 494
443 501
443 513
443 519
443 525
443 527
443 530
443 531
443 537
443 550
443 557
443 558
443 567
443 581
443 587
443 594
443 611
443 623
443 689
443 702
443 706
443 721
443 737
443 741
443 755
443 759
443 761
443 773
443 813
443 816
443 831
443 839
443 848
443 858
443 892
443 898
443 908
443 912
443 930
443 939
443 941
443 961
443 969
443 971
443 1038
443 1044
443 1058
443 1062
443 1070
443 1078
443 1095
443 1098
443 1117
443 1124
443 1138
443 1143
443 1155
443 1158
443 1164
443 1170
443 1171
443 1186
443 1188
443 1189
443 1218
443 1225
443 1234
443 1270
443 1276
443 1283
443 1308
443 1334
443 1340
443 1343
443 1372
443 1418
443 1425
443 1428
443 1430
443 1463
443 1489
443 1497
443 1505
443 1518
443 1520
443 1564
443 1567
443 1583
443 1590
443 1611
443 1612
443 1621
443 1625
443 1634
443 1667
443 1668
443 1676
443 1687
443 1738
443 1753
443 1776
443 1783
443 1793
443 1803
443 1825
443 1835
443 1843
443 1844
443 1849
443 1853
443 1854
443 1857
443 1870
443 1882
443 1899
443 1931
443 1951
443 1953
443 1963
443 1974
443 2015
443 2046
443 2068
443 2089
443 2097
443 2103
443 2113
443 2122
443 2133
443 2146
443 2156
443 2160
443 2166
443 2176
443 2179
443 2185
443 2221
443 2234
443 2237
443 2242
443 2254
443 2255
443 2260
443 2261
443 2274
443 2295
443 2299
444 648
444 1050
444 1352
444 1406
444 1469
444 1790
444 1893
444 2111
444 2185
445 482
445 494
445 518
445 544
445 550
445 575
445 588
445 692
445 718
445 792
445 803
445 827
445 840
445 884
445 893
445 954
445 959
445 970
445 996
445 1020
445 1023
445 1118
445 1125
445 1172
445 1194
445 1203
445 1220
445 1265
445 1275
445 1281
445 1285
445 1289
445 1304
445 1308
445 1325
445 1377
445 1394
445 1404
445 1447
445 1458
445 1564
445 1584
445 1599
445 1613
445 1723
445 1741
445 1744
445 1825
445 1994
445 2000
445 2005
445 2079
445 2103
445 2110
445 2143
445 2233
445 2284
446 450
446 452
446 455
446 460
446 465
446 472
446 479
446 484
446 491
446 492
446 493
446 494
446 504
446 511
446 512
446 532
446 535
446 538
446 546
446 550
446 562
446 564
446 570
446 578
446 585
446 592
446 596
446 630
446 639
446 643
446 655
446 658
446 661
446 690
446 691
446 693
446 698
446 703
446 741
446 742
446 756
446 758
446 759
446 786
446 788
446 792
446 797
446 798
446 802
446 804
446 824
446 852
446 860
446 863
446 874
446 883
446 886
446 898
446 901
446 904
446 909
446 923
446 924
446 930
446 937
446 941
446 960
446 978
446 993
446 996
446 998
446 1008
446 1009
446 1011
446 1015
446 1016
446 1023
446 1042
446 1045
446 1054
446 1059
446 1067
446 1071
446 1079
446 1090
446 1094
446 1095
446 1103
446 1108
446 1115
446 1122
446 1136
446 1143
446 1149
446 1169
446 1174
446 1177
446 1194
446 1198
446 1200
446 1203
446 1238
446 1246
446 1251
446 1252
446 1259
446 1262
446 1265
446 1270
446 1271
446 1274
446 1275
446 1281
446 1285
446 1297
446 1298
446 1309
446 1312
446 1330
446 1331
446 1348
446 1356
446 1358
446 1364
446 1371
446 1385
446 1392
446 1394
446 1396
446 1404
446 1405
446 1411
446 1424
446 1429
446 1434
446 1443
446 1449
446 1464
446 1469
446 1485
446 1487
446 1489
446 1491
446 1511
446 1542
446 1559
446 1563
446 1565
446 1566
446 1569
446 1576
446 1580
446 1584
446 1592
446 1594
446 1599
446 1603
446 1612
446 1615
446 1618
446 1621
446 1628
446 1638
446 1646
446 1655
446 1672
446 1674
446 1684
446 1693
446 1697
446 1700
446 1716
446 1719
446 1726
446 1767
446 1769
446 1778
446 1809
446 1817
446 1821
446 1824
446 1828
446 1835
446 1852
446 1863
446 1870
446 1873
446 1886
446 1890
446 1894
446 1896
446 1915
446 1956
446 1963
446 1966
446 1974
446 1988
446 2005
446 2019
446 2022
446 2027
446 2030
446 2034
446 2043
446 2045
446 2051
446 2060
446 2062
446 2073
446 2074
446 2078
446 2082
446 2095
446 2104
446 2123
446 2125
446 2130
446 2132
446 2143
446 2147
446 2166
446 2167
446 2187
446 2198
446 2202
446 2209
446 2210
446 2214
446 2225
446 2229
446 2233
446 2240
446 2241
446 2268
446 2273
446 2275
446 2284
446 2289
446 2295
446 2310
446 2312
447 453
447 515
447 553
447 593
447 676
447 754
447 770
447 840
447 983
447 1039
447 1063
447 1133
447 1150
447 1158
447 1194
447 1280
447 1344
447 1482
447 1496
447 1668
447 1703
447 1761
447 1796
447 1849
447 1851
447 1887
447 1903
447 1945
447 1966
447 2014
447 2056
448 474
448 486
448 573
448 582
448 595
448 657
448 870
448 914
448 979
448 1087
448 1178
448 1252
448 1278
448 1374
448 1553
448 1597
448 1662
448 1739
448 1759
448 1791
448 1797
448 1847
448 2001
448 2020
448 2044
448 2049
448 2064
448 2178
448 2199
449 470
449 548
449 631
449 694
449 709
449 729
449 762
449 801
449 811
449 821
449 884
449 898
449 1085
449 1093
449 1102
449 1167
449 1247
449 1298
449 1364
449 1378
449 1440
449 1531
449 1718
449 1760
449 1795
449 1806
449 1823
449 1858
449 1987
449 2035
449 2181
449 2208
449 2209
449 2213
449 2225
449 2275
450 452
450 472
450 484
450 492
450 504
450 521
450 522
450 535
450 588
450 630
450 637
450 643
450 658
450 661
450 689
450 703
450 721
450 758
450 764
450 780
450 843
450 853
450 879
450 883
450 886
450 898
450 901
450 904
450 959
450 978
450 1008
450 1092
450 1094
450 1103
450 1110
450 1174
450 1259
450 1275
450 1347
450 1399
450 1411
450 1424
450 1491
450 1492
450 1570
450 1576
450 1580
450 1623
450 1638
450 1674
450 1685
450 1769
450 1828
450 1890
450 1963
450 1971
450 2020
450 2058
450 2077
450 2078
450 2241
450 2307
451 483
451 486
451 560
451 573
451 595
451 643
451 646
451 657
451 680
451 715
451 728
451 740
451 757
451 771
451 783
451 790
451 799
451 867
451 891
451 914
451 929
451 957
451 962
451 979
451 999
451 1010
451 1047
451 1052
451 1099
451 1123
451 1131
451 1146
451 1154
451 1157
451 1183
451 1205
451 1226
451 1240
451 1243
451 1286
451 1293
451 1306
451 1374
451 1402
451 1417
451 1452
451 1477
451 1493
451 1513
451 1527
451 1534
451 1543
451 1582
451 1585
451 1589
451 1592
451 1604
451 1610
451 1651
451 1672
451 1678
451 1686
451 1696
451 1711
451 1720
451 1729
451 1733
451 1736
451 1756
451 1757
451 1846
451 1847
451 1865
451 1869
451 1889
451 1898
451 1930
451 1981
451 2001
451 2038
451 2044
451 2052
451 2077
451 2114
451 2152
451 2199
451 2287
451 2302
452 472
452 484
452 491
452 535
452 538
452 562
452 604
452 620
452 630
452 661
452 679
452 690
452 703
452 756
452 792
452 874
452 883
452 901
452 904
452 924
452 954
452 1009
452 1015
452 1024
452 1042
452 1056
452 1079
452 1080
452 1094
452 1118
452 1140
452 1174
452 1177
452 1194
452 1253
452 1259
452 1271
452 1275
452 1281
452 1325
452 1424
452 1491
452 1550
452 1566
452 1570
452 1618
452 1638
452 1646
452 1655
452 1685
452 1778
452 1828
452 1886
452 1890
452 1948
452 1988
452 2034
452 2051
452 2062
452 2174
452 2202
452 2210
452 2213
452 2241
452 2295
452 2309
453 462
453 463
453 493
453 494
453 497
453 499
453 503
453 517
453 523
453 524
453 538
453 549
453 550
453 563
453 591
453 597
453 601
453 607
453 633
453 639
453 640
453 685
453 693
453 699
453 701
453 702
453 711
453 715
453 729
453 733
453 734
453 735
453 738
453 742
453 744
453 750
453 753
453 755
453 761
453 808
453 819
453 824
453 831
453 837
453 848
453 858
453 860
453 864
453 876
453 878
453 888
453 894
453 908
453 918
453 919
453 920
453 924
453 930
453 931
453 955
453 956
453 961
453 968
453 988
453 990
453 998
453 1003
453 1004
453 1011
453 1038
453 1054
453 1064
453 1078
453 1082
453 1092
453 1095
453 1111
453 1124
453 1142
453 1152
453 1156
453 1184
453 1188
453 1189
453 1198
453 1219
453 1238
453 1245
453 1262
453 1265
453 1268
453 1269
453 1274
453 1279
453 1281
453 1283
453 1288
453 1299
453 1304
453 1308
453 1318
453 1358
453 1364
453 1409
453 1448
453 1451
453 1503
453 1512
453 1520
453 1535
453 1539
453 1556
453 1559
453 1561
453 1562
453 1578
453 1579
453 1619
453 1621
453 1625
453 1633
453 1664
453 1676
453 1683
453 1687
453 1689
453 1697
453 1717
453 1723
453 1746
453 1751
453 1760
453 1771
453 1776
453 1785
453 1792
453 1793
453 1809
453 1821
453 1837
453 1844
453 1867
453 1870
453 1874
453 1908
453 1909
453 1911
453 1931
453 1940
453 1946
453 1950
453 1952
453 1957
453 1961
453 1963
453 1982
453 1983
453 1984
453 1991
453 1996
453 2008
453 2027
453 2042
453 2047
453 2067
453 2081
453 2089
453 2098
453 2117
453 2127
453 2146
453 2151
453 2159
453 2164
453 2166
453 2172
453 2193
453 2196
453 2202
453 2210
453 2212
453 2220
453 2225
453 2236
453 2240
453 2268
453 2289
453 2298
453 2299
453 2311
453 2312
454 468
454 545
454 550
454 563
454 580
454 581
454 589
454 594
454 601
454 609
454 617
454 643
454 677
454 684
454 701
454 762
454 791
454 792
454 872
454 930
454 936
454 965
454 969
454 1023
454 1048
454 1057
454 1164
454 1165
454 1175
454 1219
454 1229
454 1277
454 1282
454 1355
454 1409
454 1415
454 1462
454 1520
454 1568
454 1663
454 1668
454 1726
454 1774
454 1814
454 1815
454 1873
454 1927
454 1962
454 2015
454 2057
454 2081
454 2129
454 2221
454 2292
455 465
455 509
455 538
455 555
455 559
455 643
455 679
455 683
455 693
455 714
455 752
455 860
455 928
455 983
455 1008
455 1020
455 1045
455 1071
455 1110
455 1130
455 1133
455 1151
455 1186
455 1200
455 1222
455 1241
455 1265
455 1371
455 1385
455 1398
455 1424
455 1563
455 1566
455 1588
455 1645
455 1690
455 1702
455 1804
455 1845
455 1868
455 1869
455 1896
455 1906
455 1907
455 1919
455 1963
455 1980
455 2059
455 2093
455 2104
455 2272
455 2296
456 469
456 513
456 539
456 543
456 563
456 568
456 635
456 961
456 1048
456 1049
456 1156
456 1465
456 1549
456 1688
456 1740
456 1742
456 1750
456 1881
456 2170
456 2262
457 493
457 552
457 573
457 595
457 616
457 622
457 625
457 646
457 749
457 771
457 828
457 842
457 867
457 870
457 882
457 914
457 930
457 946
457 999
457 1074
457 1099
457 1123
457 1126
457 1183
457 1192
457 1197
457 1202
457 1226
457 1239
457 1240
457 1278
457 1284
457 1293
457 1306
457 1350
457 1374
457 1382
457 1469
457 1509
457 1534
457 1589
457 1592
457 1593
457 1608
457 1610
457 1721
457 1729
457 1756
457 1840
457 1846
457 1875
457 1898
457 1918
457 1930
457 1949
457 1970
457 2001
457 2044
457 2052
457 2188
457 2239
457 2256
457 2278
457 2283
457 2287
457 2304
458 460
458 498
458 506
458 520
458 559
458 565
458 570
458 610
458 643
458 679
458 693
458 714
458 736
458 741
458 786
458 787
458 808
458 824
458 825
458 877
458 909
458 928
458 930
458 991
458 1016
458 1068
458 1129
458 1130
458 1139
458 1142
458 1143
458 1151
458 1156
458 1200
458 1234
458 1251
458 1262
458 1281
458 1331
458 1373
458 1411
458 1420
458 1424
458 1511
458 1513
458 1563
458 1606
458 1640
458 1655
458 1693
458 1754
458 1763
458 1779
458 1796
458 1804
458 1822
458 1848
458 1869
458 1896
458 1919
458 1920
458 1924
458 1932
458 1963
458 1994
458 2019
458 2058
458 2074
458 2076
458 2082
458 2086
458 2112
458 2123
458 2147
458 2186
458 2187
458 2210
458 2229
458 2298
459 473
459 487
459 517
459 535
459 584
459 625
459 712
459 743
459 760
459 807
459 836
459 903
459 907
459 915
459 960
459 981
459 1050
459 1136
459 1160
459 1161
459 1171
459 1329
459 1375
459 1402
459 1421
459 1428
459 1463
459 1483
459 1493
459 1504
459 1671
459 1792
459 1818
459 1888
459 1932
459 1953
459 1954
459 2023
459 2223
459 2227
459 2277
459 2304
460 468
460 472
460 479
460 498
460 510
460 545
460 555
460 581
460 594
460 609
460 643
460 648
460 677
460 679
460 683
460 687
460 698
460 701
460 715
460 735
460 791
460 792
460 794
460 872
460 877
460 930
460 932
460 959
460 965
460 991
460 1023
460 1085
460 1091
460 1094
460 1101
460 1169
460 1174
460 1175
460 1177
460 1189
460 1251
460 1281
460 1308
460 1315
460 1355
460 1455
460 1485
460 1511
460 1512
460 1527
460 1542
460 1563
460 1582
460 1594
460 1595
460 1618
460 1638
460 1645
460 1668
460 1672
460 1674
460 1685
460 1717
460 1726
460 1763
460 1814
460 1824
460 1873
460 1883
460 1886
460 1896
460 1922
460 1963
460 1988
460 1999
460 2005
460 2051
460 2062
460 2082
460 2105
460 2116
460 2123
460 2129
460 2143
460 2147
460 2202
460 2295
461 487
461 493
461 496
461 502
461 511
461 513
461 516
461 520
461 528
461 545
461 563
461 575
461 619
461 631
461 694
461 735
461 737
461 746
461 753
461 756
461 787
461 792
461 810
461 822
461 826
461 830
461 846
461 848
461 861
461 864
461 874
461 876
461 886
461 894
461 898
461 908
461 909
461 913
461 924
461 930
461 944
461 950
461 961
461 969
461 986
461 988
461 998
461 1049
461 1050
461 1051
461 1062
461 1070
461 1078
461 1094
461 1117
461 1164
461 1189
461 1191
461 1204
461 1247
461 1251
461 1252
461 1256
461 1280
461 1281
461 1282
461 1283
461 1327
461 1332
461 1334
461 1341
461 1354
461 1358
461 1364
461 1378
461 1384
461 1387
461 1405
461 1415
461 1420
461 1433
461 1459
461 1462
461 1464
461 1469
461 1471
461 1482
461 1485
461 1503
461 1520
461 1538
461 1540
461 1556
461 1580
461 1601
461 1620
461 1688
461 1717
461 1798
461 1806
461 1809
461 1812
461 1828
461 1841
461 1854
461 1864
461 1873
461 1874
461 1876
461 1883
461 1885
461 1919
461 1927
461 1928
461 1931
461 1957
461 1968
461 1974
461 1987
461 1988
461 1999
461 2012
461 2015
461 2017
461 2019
461 2021
461 2027
461 2032
461 2079
461 2082
461 2087
461 2135
461 2161
461 2172
461 2182
461 2198
461 2222
461 2232
461 2244
461 2264
461 2267
461 2270
461 2275
461 2284
461 2298
462 472
462 533
462 550
462 567
462 593
462 596
462 601
462 607
462 610
462 611
462 633
462 645
462 659
462 676
462 711
462 714
462 738
462 750
462 768
462 798
462 815
462 819
462 820
462 822
462 826
462 850
462 858
462 888
462 902
462 908
462 913
462 924
462 932
462 956
462 982
462 988
462 993
462 1021
462 1023
462 1075
462 1105
462 1111
462 1171
462 1184
462 1201
462 1265
462 1268
462 1334
462 1337
462 1358
462 1361
462 1400
462 1409
462 1421
462 1444
462 1451
462 1496
462 1515
462 1520
462 1528
462 1535
462 1554
462 1556
462 1561
462 1563
462 1576
462 1578
462 1590
462 1621
462 1650
462 1663
462 1669
462 1677
462 1708
462 1724
462 1755
462 1774
462 1799
462 1809
462 1825
462 1848
462 1888
462 1908
462 1921
462 1925
462 1977
462 1979
462 1982
462 1984
462 1992
462 1996
462 2049
462 2150
462 2156
462 2160
462 2167
462 2171
462 2176
462 2227
462 2235
462 2245
462 2258
462 2265
462 2274
462 2277
462 2288
463 509
463 581
463 629
463 761
463 961
463 971
463 1098
463 1120
463 1146
463 1168
463 1282
463 1299
463 1327
463 1425
463 1430
463 1496
463 1539
463 1573
463 1842
463 1844
463 1849
463 1868
463 1874
463 1931
463 1940
463 1951
463 1991
463 2014
463 2023
463 2043
463 2046
463 2177
463 2219
463 2261
464 1773
465 509
465 523
465 538
465 559
465 610
465 630
465 654
465 679
465 714
465 788
465 807
465 833
465 860
465 877
465 883
465 923
465 924
465 928
465 978
465 981
465 983
465 1001
465 1008
465 1016
465 1020
465 1042
465 1092
465 1103
465 1110
465 1130
465 1133
465 1171
465 1180
465 1212
465 1222
465 1225
465 1241
465 1252
465 1253
465 1254
465 1286
465 1308
465 1323
465 1363
465 1388
465 1392
465 1427
465 1429
465 1434
465 1487
465 1511
465 1542
465 1566
465 1576
465 1579
465 1606
465 1612
465 1633
465 1670
465 1690
465 1709
465 1744
465 1799
465 1803
465 1825
465 1829
465 1834
465 1848
465 1852
465 1868
465 1869
465 1872
465 1898
465 1906
465 1907
465 1915
465 1958
465 1963
465 1974
465 2029
465 2030
465 2045
465 2051
465 2059
465 2062
465 2073
465 2074
465 2123
465 2154
465 2217
465 2228
465 2246
465 2279
465 2304
466 527
466 601
466 605
466 669
466 673
466 705
466 715
466 753
466 782
466 784
466 813
466 814
466 888
466 932
466 935
466 961
466 1021
466 1031
466 1077
466 1078
466 1086
466 1089
466 1106
466 1147
466 1176
466 1232
466 1249
466 1256
466 1258
466 1283
466 1303
466 1308
466 1372
466 1421
466 1451
466 1462
466 1539
466 1578
466 1609
466 1625
466 1643
466 1677
466 1687
466 1748
466 1771
466 1782
466 1788
466 1799
466 1825
466 1831
466 1885
466 1908
466 1921
466 1925
466 2023
466 2031
466 2109
466 2127
466 2135
466 2151
466 2167
466 2219
466 2222
466 2232
466 2258
466 2274
466 2288
466 2311
467 493
467 513
467 530
467 579
467 607
467 610
467 737
467 741
467 825
467 839
467 898
467 961
467 969
467 1036
467 1118
467 1170
467 1171
467 1218
467 1225
467 1234
467 1340
467 1343
467 1471
467 1557
467 1590
467 1598
467 1667
467 1853
467 1854
467 1864
467 1882
467 2066
467 2088
467 2094
467 2100
467 2185
467 2242
468 469
468 472
468 494
468 495
468 496
468 504
468 511
468 540
468 545
468 548
468 550
468 570
468 580
468 581
468 589
468 594
468 609
468 617
468 643
468 677
468 694
468 701
468 714
468 730
468 735
468 744
468 759
468 764
468 791
468 835
468 852
468 853
468 861
468 872
468 875
468 884
468 893
468 930
468 953
468 958
468 965
468 969
468 970
468 972
468 975
468 992
468 996
468 998
468 1023
468 1036
468 1054
468 1082
468 1102
468 1104
468 1153
468 1156
468 1158
468 1165
468 1169
468 1175
468 1194
468 1219
468 1223
468 1233
468 1242
468 1259
468 1274
468 1277
468 1281
468 1296
468 1325
468 1334
468 1353
468 1364
468 1365
468 1377
468 1380
468 1383
468 1386
468 1387
468 1399
468 1404
468 1411
468 1449
468 1460
468 1512
468 1521
468 1580
468 1598
468 1613
468 1621
468 1640
468 1642
468 1663
468 1668
468 1688
468 1726
468 1760
468 1795
468 1796
468 1806
468 1813
468 1814
468 1823
468 1835
468 1843
468 1844
468 1858
468 1862
468 1873
468 1922
468 1963
468 1974
468 1986
468 1994
468 2057
468 2062
468 2063
468 2116
468 2129
468 2130
468 2147
468 2154
468 2237
468 2268
468 2307
469 490
469 499
469 601
469 638
469 735
469 776
469 853
469 956
469 1041
469 1121
469 1156
469 1165
469 1223
469 1327
469 1334
469 1387
469 1415
469 1473
469 1530
469 1568
469 1620
469 1632
469 1644
469 1649
469 1815
469 1843
469 1885
469 1968
469 2015
469 2172
469 2201
469 2249
470 487
470 494
470 660
470 694
470 741
470 762
470 791
470 821
470 852
470 937
470 1201
470 1247
470 1378
470 1385
470 1771
470 1806
470 1858
470 2035
470 2197
470 2259
470 2275
471 472
471 482
471 704
471 798
471 805
471 814
471 815
471 850
471 924
471 1039
471 1184
471 1208
471 1220
471 1329
471 1337
471 1416
471 1444
471 1505
471 1515
471 1561
471 1563
471 1581
471 1590
471 1669
471 1752
471 1755
471 1844
471 1848
471 1888
471 1921
471 1949
471 1982
471 2104
471 2156
471 2240
471 2242
471 2245
471 2265
472 478
472 479
472 480
472 484
472 492
472 493
472 494
472 496
472 498
472 504
472 510
472 511
472 512
472 513
472 521
472 522
472 523
472 532
472 538
472 547
472 549
472 554
472 562
472 564
472 565
472 574
472 576
472 578
472 585
472 587
472 588
472 589
472 592
472 596
472 598
472 602
472 603
472 608
472 610
472 624
472 630
472 631
472 636
472 639
472 641
472 642
472 643
472 644
472 653
472 655
472 658
472 659
472 661
472 670
472 671
472 677
472 679
472 683
472 688
472 689
472 690
472 691
472 692
472 693
472 698
472 701
472 703
472 704
472 705
472 714
472 715
472 718
472 727
472 728
472 735
472 737
472 746
472 756
472 758
472 759
472 764
472 776
472 777
472 778
472 780
472 781
472 783
472 786
472 791
472 792
472 803
472 807
472 808
472 812
472 819
472 822
472 823
472 824
472 831
472 833
472 835
472 843
472 848
472 852
472 853
472 854
472 860
472 861
472 863
472 865
472 872
472 874
472 879
472 883
472 884
472 886
472 889
472 893
472 898
472 901
472 902
472 904
472 908
472 915
472 917
472 919
472 922
472 923
472 924
472 925
472 926
472 928
472 930
472 932
472 940
472 941
472 942
472 950
472 954
472 958
472 960
472 963
472 965
472 969
472 970
472 978
472 991
472 992
472 993
472 995
472 998
472 1001
472 1008
472 1009
472 1011
472 1013
472 1016
472 1022
472 1025
472 1028
472 1034
472 1042
472 1045
472 1046
472 1056
472 1057
472 1059
472 1062
472 1070
472 1071
472 1079
472 1084
472 1085
472 1090
472 1092
472 1094
472 1096
472 1101
472 1103
472 1110
472 1115
472 1121
472 1122
472 1125
472 1133
472 1140
472 1143
472 1151
472 1157
472 1160
472 1164
472 1169
472 1170
472 1174
472 1175
472 1177
472 1180
472 1189
472 1194
472 1196
472 1205
472 1210
472 1211
472 1215
472 1216
472 1238
472 1241
472 1242
472 1244
472 1245
472 1246
472 1252
472 1253
472 1254
472 1259
472 1262
472 1266
472 1268
472 1269
472 1270
472 1271
472 1272
472 1274
472 1275
472 1280
472 1281
472 1282
472 1283
472 1287
472 1290
472 1296
472 1297
472 1298
472 1304
472 1305
472 1310
472 1315
472 1318
472 1319
472 1323
472 1324
472 1325
472 1326
472 1330
472 1331
472 1333
472 1334
472 1341
472 1345
472 1347
472 1348
472 1355
472 1356
472 1358
472 1362
472 1364
472 1371
472 1372
472 1377
472 1386
472 1387
472 1392
472 1394
472 1396
472 1399
472 1404
472 1405
472 1407
472 1409
472 1411
472 1417
472 1424
472 1427
472 1429
472 1435
472 1443
472 1449
472 1460
472 1466
472 1467
472 1469
472 1470
472 1485
472 1487
472 1489
472 1491
472 1492
472 1500
472 1511
472 1513
472 1520
472 1521
472 1527
472 1538
472 1540
472 1542
472 1544
472 1546
472 1550
472 1559
472 1562
472 1563
472 1564
472 1565
472 1566
472 1572
472 1579
472 1580
472 1594
472 1595
472 1598
472 1599
472 1604
472 1605
472 1606
472 1612
472 1615
472 1618
472 1621
472 1623
472 1625
472 1626
472 1638
472 1640
472 1645
472 1655
472 1663
472 1669
472 1670
472 1671
472 1672
472 1674
472 1685
472 1690
472 1693
472 1697
472 1699
472 1708
472 1709
472 1713
472 1715
472 1716
472 1718
472 1719
472 1723
472 1724
472 1727
472 1741
472 1749
472 1751
472 1753
472 1760
472 1763
472 1767
472 1769
472 1775
472 1778
472 1781
472 1782
472 1787
472 1806
472 1809
472 1812
472 1820
472 1821
472 1824
472 1828
472 1833
472 1834
472 1835
472 1841
472 1845
472 1846
472 1854
472 1863
472 1869
472 1870
472 1873
472 1882
472 1884
472 1886
472 1890
472 1894
472 1896
472 1900
472 1907
472 1909
472 1911
472 1916
472 1920
472 1922
472 1931
472 1948
472 1949
472 1959
472 1961
472 1963
472 1964
472 1971
472 1974
472 1977
472 1981
472 1982
472 1984
472 1987
472 1988
472 1999
472 2003
472 2005
472 2007
472 2011
472 2013
472 2022
472 2027
472 2029
472 2034
472 2043
472 2045
472 2049
472 2051
472 2055
472 2058
472 2060
472 2062
472 2070
472 2071
472 2073
472 2077
472 2078
472 2082
472 2083
472 2084
472 2086
472 2088
472 2093
472 2103
472 2104
472 2105
472 2108
472 2116
472 2120
472 2123
472 2130
472 2140
472 2143
472 2147
472 2156
472 2163
472 2164
472 2166
472 2183
472 2187
472 2192
472 2193
472 2195
472 2196
472 2198
472 2200
472 2202
472 2209
472 2210
472 2212
472 2214
472 2231
472 2233
472 2237
472 2241
472 2246
472 2249
472 2251
472 2256
472 2257
472 2272
472 2273
472 2280
472 2284
472 2289
472 2296
472 2306
472 2307
472 2309
473 482
473 487
473 497
473 517
473 591
473 610
473 611
473 625
473 665
473 712
473 759
473 782
473 785
473 800
473 919
473 961
473 1050
473 1062
473 1111
473 1136
473 1161
473 1265
473 1281
473 1308
473 1343
473 1483
473 1493
473 1505
473 1518
473 1537
473 1558
473 1590
473 1671
473 1715
473 1717
473 1755
473 1782
473 1790
473 1954
473 2023
473 2049
473 2065
473 2120
473 2245
473 2274
473 2304
474 595
474 612
474 696
474 834
474 896
474 943
474 995
474 1034
474 1087
474 1088
474 1107
474 1178
474 1183
474 1197
474 1223
474 1306
474 1338
474 1374
474 1402
474 1525
474 1543
474 1592
474 1604
474 1608
474 1665
474 1711
474 1759
474 2002
474 2011
474 2044
474 2077
475 563
475 566
475 610
475 732
475 751
475 826
475 837
475 913
475 926
475 961
475 972
475 1049
475 1051
475 1089
475 1117
475 1136
475 1153
475 1156
475 1164
475 1167
475 1308
475 1358
475 1384
475 1401
475 1415
475 1462
475 1465
475 1520
475 1533
475 1537
475 1546
475 1568
475 1601
475 1629
475 1633
475 1718
475 1815
475 1831
475 1885
475 1986
475 2012
475 2015
475 2032
475 2036
475 2057
475 2162
475 2180
475 2270
476 529
476 533
476 538
476 553
476 570
476 633
476 747
476 836
476 837
476 841
476 871
476 980
476 996
476 1029
476 1073
476 1077
476 1084
476 1104
476 1145
476 1150
476 1171
476 1236
476 1258
476 1265
476 1301
476 1366
476 1425
476 1433
476 1440
476 1590
476 1700
476 1724
476 1727
476 1786
476 1790
476 1796
476 1803
476 1848
476 1849
476 1851
476 1859
476 1874
476 1893
476 1931
476 1944
476 1953
476 1969
476 2045
476 2097
476 2120
476 2128
476 2156
476 2184
476 2203
476 2204
476 2252
476 2284
476 2304
477 1051
477 1554
478 588
478 759
478 824
478 867
478 960
478 991
478 1027
478 1054
478 1169
478 1194
478 1246
478 1251
478 1275
478 1358
478 1411
478 1513
478 1638
478 1828
478 1834
478 1841
478 1846
478 1884
478 1949
478 2052
478 2062
478 2093
478 2132
478 2198
478 2241
478 2304
479 484
479 511
479 535
479 581
479 592
479 643
479 658
479 687
479 701
479 791
479 792
479 816
479 877
479 883
479 904
479 923
479 928
479 930
479 992
479 1056
479 1071
479 1094
479 1096
479 1101
479 1103
479 1143
479 1177
479 1246
479 1251
479 1281
479 1310
479 1330
479 1332
479 1355
479 1405
479 1411
479 1427
479 1460
479 1489
479 1511
479 1521
479 1599
479 1668
479 1672
479 1674
479 1699
479 1769
479 1824
479 1828
479 1886
479 2062
479 2065
479 2082
479 2143
479 2147
479 2198
480 511
480 555
480 567
480 647
480 649
480 665
480 705
480 831
480 837
480 894
480 934
480 1057
480 1066
480 1071
480 1082
480 1120
480 1144
480 1167
480 1308
480 1335
480 1364
480 1410
480 1419
480 1476
480 1512
480 1523
480 1630
480 1743
480 1760
480 1771
480 1805
480 1863
480 1967
480 1987
480 2008
480 2037
480 2117
480 2143
480 2247
480 2259
480 2285
480 2310
481 658
481 752
481 787
481 928
481 983
481 1020
481 1133
481 1150
481 1253
481 1274
481 1281
481 1368
481 1371
481 1466
481 1550
481 1645
481 1674
481 1796
481 1805
481 1822
481 1913
481 1918
481 2059
481 2065
481 2284
481 2295
481 2296
481 2309
482 487
482 525
482 531
482 550
482 557
482 567
482 584
482 591
482 599
482 605
482 611
482 623
482 640
482 652
482 663
482 676
482 705
482 706
482 707
482 708
482 712
482 748
482 755
482 785
482 839
482 848
482 850
482 889
482 892
482 906
482 939
482 945
482 961
482 971
482 986
482 1060
482 1063
482 1120
482 1137
482 1147
482 1170
482 1171
482 1208
482 1220
482 1233
482 1236
482 1249
482 1250
482 1265
482 1273
482 1280
482 1283
482 1329
482 1333
482 1340
482 1368
482 1416
482 1425
482 1433
482 1439
482 1442
482 1497
482 1505
482 1543
482 1558
482 1563
482 1571
482 1590
482 1611
482 1620
482 1650
482 1667
482 1669
482 1671
482 1715
482 1736
482 1737
482 1755
482 1786
482 1814
482 1825
482 1835
482 1839
482 1844
482 1866
482 1874
482 1888
482 1919
482 1921
482 1925
482 1931
482 1936
482 2037
482 2043
482 2049
482 2066
482 2089
482 2094
482 2097
482 2113
482 2120
482 2133
482 2146
482 2156
482 2168
482 2177
482 2206
482 2221
482 2232
482 2240
482 2242
482 2254
482 2258
482 2261
482 2269
482 2280
483 493
483 511
483 552
483 560
483 561
483 595
483 600
483 646
483 657
483 664
483 680
483 749
483 771
483 783
483 790
483 817
483 838
483 867
483 870
483 895
483 896
483 899
483 911
483 914
483 957
483 965
483 979
483 989
483 999
483 1033
483 1047
483 1052
483 1054
483 1065
483 1080
483 1081
483 1083
483 1087
483 1100
483 1107
483 1114
483 1123
483 1126
483 1157
483 1179
483 1182
483 1183
483 1197
483 1199
483 1211
483 1223
483 1226
483 1230
483 1239
483 1240
483 1243
483 1266
483 1306
483 1313
483 1320
483 1329
483 1374
483 1381
483 1386
483 1395
483 1408
483 1414
483 1417
483 1452
483 1477
483 1486
483 1489
483 1506
483 1527
483 1532
483 1534
483 1543
483 1553
483 1585
483 1589
483 1592
483 1608
483 1661
483 1665
483 1666
483 1678
483 1696
483 1717
483 1721
483 1731
483 1736
483 1739
483 1756
483 1759
483 1791
483 1797
483 1819
483 1828
483 1832
483 1847
483 1862
483 1873
483 1892
483 1898
483 1938
483 1943
483 1947
483 1970
483 2001
483 2002
483 2011
483 2020
483 2038
483 2041
483 2044
483 2052
483 2053
483 2199
483 2218
483 2248
483 2256
483 2287
483 2302
484 492
484 511
484 562
484 630
484 642
484 655
484 658
484 689
484 691
484 703
484 752
484 756
484 797
484 833
484 863
484 883
484 901
484 904
484 923
484 959
484 993
484 996
484 1013
484 1042
484 1071
484 1079
484 1090
484 1094
484 1103
484 1133
484 1174
484 1203
484 1210
484 1244
484 1251
484 1252
484 1259
484 1275
484 1332
484 1341
484 1347
484 1348
484 1392
484 1405
484 1424
484 1443
484 1491
484 1492
484 1511
484 1550
484 1570
484 1580
484 1672
484 1685
484 1716
484 1769
484 1778
484 1824
484 1828
484 1873
484 1886
484 1890
484 1988
484 2062
484 2163
484 2175
484 2198
484 2307
484 2309
485 486
485 595
485 717
485 745
485 857
485 867
485 914
485 925
485 943
485 1131
485 1243
485 1286
485 1291
485 1306
485 1374
485 1402
485 1414
485 1574
485 1617
485 1830
485 1846
485 1938
485 1985
485 2006
485 2044
485 2061
485 2114
485 2199
486 582
486 595
486 600
486 657
486 680
486 692
486 740
486 749
486 757
486 771
486 783
486 870
486 889
486 911
486 929
486 973
486 987
486 1025
486 1026
486 1028
486 1183
486 1199
486 1239
486 1255
486 1272
486 1281
486 1290
486 1417
486 1461
486 1472
486 1476
486 1534
486 1551
486 1574
486 1591
486 1592
486 1613
486 1647
486 1652
486 1656
486 1733
486 1739
486 1797
486 1801
486 1892
486 1933
486 1934
486 1938
486 1943
486 2001
486 2004
486 2038
486 2052
486 2055
486 2143
486 2217
486 2253
486 2304
487 509
487 511
487 517
487 527
487 535
487 549
487 563
487 592
487 608
487 610
487 614
487 623
487 625
487 665
487 679
487 705
487 734
487 736
487 743
487 752
487 755
487 760
487 772
487 786
487 798
487 807
487 808
487 831
487 877
487 887
487 915
487 944
487 945
487 977
487 981
487 983
487 1003
487 1031
487 1046
487 1050
487 1062
487 1070
487 1075
487 1092
487 1095
487 1136
487 1139
487 1147
487 1160
487 1161
487 1167
487 1189
487 1198
487 1204
487 1245
487 1253
487 1265
487 1281
487 1283
487 1308
487 1309
487 1329
487 1337
487 1352
487 1402
487 1428
487 1439
487 1455
487 1483
487 1502
487 1503
487 1504
487 1508
487 1514
487 1539
487 1557
487 1558
487 1564
487 1567
487 1576
487 1581
487 1583
487 1590
487 1650
487 1671
487 1674
487 1697
487 1704
487 1708
487 1715
487 1751
487 1776
487 1785
487 1790
487 1792
487 1793
487 1798
487 1799
487 1818
487 1844
487 1864
487 1931
487 1932
487 1949
487 1953
487 1954
487 1957
487 2007
487 2008
487 2013
487 2017
487 2023
487 2037
487 2049
487 2089
487 2090
487 2101
487 2104
487 2117
487 2133
487 2134
487 2149
487 2151
487 2177
487 2223
487 2227
487 2254
487 2269
487 2277
487 2289
487 2298
487 2306
487 2308
488 511
488 595
488 692
488 749
488 771
488 783
488 790
488 838
488 854
488 867
488 911
488 914
488 1080
488 1206
488 1240
488 1265
488 1289
488 1306
488 1346
488 1412
488 1445
488 1543
488 1563
488 1592
488 1650
488 1652
488 1720
488 1846
488 1873
488 1892
488 1905
488 1930
488 1985
488 2009
488 2028
488 2044
488 2053
488 2056
488 2136
488 2156
488 2178
488 2221
489 493
489 541
489 560
489 573
489 598
489 600
489 646
489 664
489 680
489 714
489 727
489 771
489 854
489 876
489 894
489 914
489 921
489 924
489 940
489 943
489 946
489 962
489 967
489 989
489 1015
489 1052
489 1080
489 1099
489 1140
489 1146
489 1183
489 1192
489 1195
489 1199
489 1202
489 1226
489 1230
489 1240
489 1243
489 1257
489 1278
489 1287
489 1290
489 1307
489 1316
489 1320
489 1357
489 1364
489 1374
489 1391
489 1394
489 1402
489 1414
489 1417
489 1452
489 1472
489 1486
489 1532
489 1534
489 1536
489 1543
489 1574
489 1579
489 1589
489 1602
489 1610
489 1613
489 1621
489 1625
489 1656
489 1666
489 1711
489 1721
489 1725
489 1736
489 1791
489 1800
489 1801
489 1816
489 1819
489 1862
489 1889
489 1898
489 1938
489 1947
489 1952
489 1981
489 2001
489 2002
489 2044
489 2052
489 2064
489 2077
489 2151
489 2164
489 2166
489 2188
489 2191
489 2199
489 2230
489 2239
489 2283
489 2287
489 2294
489 2302
490 499
490 513
490 530
490 613
490 707
490 721
490 756
490 767
490 853
490 861
490 954
490 984
490 1057
490 1156
490 1158
490 1223
490 1329
490 1334
490 1368
490 1387
490 1512
490 1521
490 1620
490 1640
490 1742
490 1843
490 1879
490 1994
490 2000
490 2008
490 2089
490 2122
490 2125
490 2172
490 2185
490 2249
491 494
491 504
491 507
491 523
491 535
491 550
491 562
491 585
491 588
491 632
491 642
491 690
491 730
491 792
491 824
491 883
491 904
491 924
491 942
491 953
491 1140
491 1169
491 1177
491 1216
491 1259
491 1274
491 1281
491 1321
491 1362
491 1364
491 1409
491 1480
491 1485
491 1501
491 1579
491 1594
491 1623
491 1680
491 1683
491 1873
491 1890
491 1896
491 2005
491 2062
491 2143
491 2205
491 2209
491 2210
491 2214
491 2268
492 535
492 630
492 655
492 661
492 735
492 758
492 792
492 883
492 904
492 923
492 924
492 1015
492 1042
492 1090
492 1094
492 1103
492 1110
492 1177
492 1244
492 1259
492 1275
492 1371
492 1405
492 1566
492 1570
492 1580
492 1618
492 1638
492 1828
492 2034
492 2051
492 2062
492 2132
492 2175
492 2198
492 2210
492 2241
492 2264
492 2307
493 494
493 496
493 500
493 504
493 509
493 511
493 520
493 523
493 528
493 538
493 540
493 546
493 549
493 550
493 563
493 570
493 579
493 588
493 598
493 601
493 602
493 631
493 639
493 648
493 654
493 677
493 693
493 694
493 696
493 701
493 702
493 704
493 709
493 714
493 718
493 729
493 730
493 742
493 753
493 756
493 759
493 761
493 763
493 776
493 791
493 792
493 797
493 798
493 808
493 831
493 833
493 848
493 850
493 854
493 856
493 861
493 863
493 865
493 876
493 878
493 881
493 883
493 884
493 894
493 898
493 919
493 920
493 924
493 930
493 932
493 941
493 946
493 953
493 955
493 956
493 972
493 996
493 998
493 1019
493 1023
493 1051
493 1062
493 1063
493 1064
493 1071
493 1091
493 1095
493 1102
493 1103
493 1120
493 1122
493 1124
493 1140
493 1143
493 1149
493 1152
493 1166
493 1177
493 1183
493 1188
493 1194
493 1198
493 1199
493 1211
493 1238
493 1251
493 1259
493 1262
493 1268
493 1272
493 1274
493 1281
493 1282
493 1287
493 1288
493 1290
493 1296
493 1297
493 1308
493 1310
493 1323
493 1339
493 1364
493 1372
493 1377
493 1378
493 1380
493 1404
493 1406
493 1409
493 1411
493 1424
493 1425
493 1435
493 1449
493 1459
493 1485
493 1493
493 1503
493 1512
493 1517
493 1534
493 1536
493 1538
493 1539
493 1556
493 1559
493 1564
493 1572
493 1574
493 1578
493 1579
493 1591
493 1598
493 1605
493 1613
493 1615
493 1619
493 1620
493 1621
493 1647
493 1650
493 1664
493 1676
493 1679
493 1683
493 1716
493 1744
493 1745
493 1751
493 1760
493 1767
493 1781
493 1790
493 1793
493 1796
493 1806
493 1809
493 1816
493 1817
493 1824
493 1829
493 1864
493 1870
493 1872
493 1873
493 1874
493 1909
493 1913
493 1914
493 1927
493 1948
493 1957
493 1959
493 1969
493 1987
493 1988
493 1996
493 2009
493 2012
493 2027
493 2040
493 2061
493 2077
493 2098
493 2110
493 2123
493 2151
493 2156
493 2164
493 2167
493 2175
493 2182
493 2197
493 2198
493 2199
493 2210
493 2212
493 2220
493 2225
493 2268
493 2295
493 2298
494 496
494 503
494 504
494 518
494 540
494 550
494 553
494 558
494 562
494 563
494 564
494 570
494 580
494 586
494 588
494 602
494 610
494 623
494 631
494 639
494 642
494 643
494 647
494 670
494 677
494 687
494 690
494 701
494 703
494 711
494 712
494 729
494 730
494 735
494 738
494 741
494 744
494 759
494 761
494 762
494 764
494 765
494 770
494 776
494 782
494 791
494 792
494 808
494 816
494 823
494 824
494 827
494 843
494 848
494 855
494 860
494 861
494 863
494 875
494 876
494 883
494 893
494 894
494 898
494 912
494 919
494 924
494 930
494 931
494 936
494 941
494 942
494 944
494 949
494 950
494 953
494 970
494 972
494 984
494 988
494 990
494 996
494 998
494 1002
494 1010
494 1011
494 1016
494 1019
494 1023
494 1051
494 1054
494 1055
494 1064
494 1067
494 1071
494 1090
494 1095
494 1096
494 1098
494 1104
494 1111
494 1122
494 1124
494 1140
494 1144
494 1149
494 1164
494 1167
494 1172
494 1177
494 1181
494 1186
494 1188
494 1203
494 1211
494 1219
494 1238
494 1247
494 1250
494 1259
494 1265
494 1270
494 1274
494 1280
494 1281
494 1282
494 1285
494 1296
494 1298
494 1310
494 1312
494 1321
494 1322
494 1325
494 1335
494 1355
494 1356
494 1362
494 1363
494 1364
494 1372
494 1378
494 1383
494 1404
494 1405
494 1406
494 1409
494 1411
494 1448
494 1449
494 1458
494 1485
494 1493
494 1499
494 1503
494 1518
494 1523
494 1562
494 1572
494 1573
494 1579
494 1586
494 1590
494 1594
494 1598
494 1619
494 1621
494 1628
494 1649
494 1675
494 1676
494 1680
494 1683
494 1723
494 1741
494 1743
494 1751
494 1752
494 1760
494 1767
494 1796
494 1806
494 1821
494 1828
494 1844
494 1857
494 1870
494 1873
494 1894
494 1899
494 1913
494 1927
494 1948
494 1963
494 1964
494 1966
494 1967
494 1969
494 1995
494 2022
494 2049
494 2051
494 2056
494 2062
494 2069
494 2089
494 2108
494 2115
494 2125
494 2130
494 2143
494 2145
494 2151
494 2164
494 2166
494 2175
494 2184
494 2185
494 2193
494 2196
494 2197
494 2202
494 2209
494 2212
494 2221
494 2225
494 2252
494 2259
494 2268
494 2281
494 2299
494 2301
494 2303
495 532
495 573
495 595
495 600
495 657
495 790
495 867
495 896
495 914
495 957
495 1052
495 1107
495 1182
495 1306
495 1351
495 1365
495 1374
495 1405
495 1543
495 1593
495 1610
495 1666
495 1847
495 1898
495 1947
495 1953
495 2001
495 2002
495 2009
495 2142
496 500
496 503
496 512
496 540
496 543
496 550
496 563
496 568
496 588
496 589
496 660
496 679
496 729
496 730
496 738
496 756
496 763
496 778
496 797
496 849
496 881
496 923
496 924
496 932
496 972
496 998
496 1019
496 1036
496 1048
496 1085
496 1091
496 1104
496 1108
496 1140
496 1177
496 1188
496 1189
496 1208
496 1219
496 1245
496 1258
496 1274
496 1282
496 1296
496 1300
496 1335
496 1348
496 1364
496 1383
496 1392
496 1406
496 1485
496 1513
496 1531
496 1559
496 1598
496 1621
496 1625
496 1646
496 1657
496 1675
496 1690
496 1741
496 1782
496 1844
496 1860
496 1869
496 1873
496 1921
496 1926
496 1927
496 1964
496 1990
496 2007
496 2022
496 2034
496 2049
496 2059
496 2062
496 2066
496 2070
496 2088
496 2089
496 2101
496 2121
496 2125
496 2140
496 2156
496 2212
496 2220
496 2252
496 2257
496 2266
496 2289
496 2292
496 2299
496 2304
497 513
497 530
497 534
497 570
497 579
497 588
497 591
497 592
497 639
497 652
497 661
497 681
497 685
497 712
497 722
497 725
497 738
497 741
497 746
497 767
497 785
497 791
497 800
497 819
497 825
497 861
497 864
497 866
497 881
497 917
497 919
497 924
497 932
497 934
497 945
497 961
497 972
497 977
497 998
497 1038
497 1055
497 1075
497 1101
497 1116
497 1117
497 1142
497 1166
497 1167
497 1204
497 1218
497 1225
497 1232
497 1244
497 1283
497 1296
497 1337
497 1358
497 1427
497 1430
497 1439
497 1448
497 1459
497 1469
497 1485
497 1502
497 1514
497 1518
497 1537
497 1581
497 1583
497 1590
497 1598
497 1650
497 1708
497 1713
497 1717
497 1726
497 1728
497 1738
497 1740
497 1745
497 1746
497 1748
497 1755
497 1775
497 1790
497 1798
497 1804
497 1809
497 1825
497 1844
497 1849
497 1870
497 1882
497 1927
497 1928
497 1931
497 1951
497 1953
497 1995
497 2008
497 2016
497 2017
497 2022
497 2037
497 2039
497 2055
497 2067
497 2089
497 2120
497 2151
497 2170
497 2211
497 2237
497 2245
498 511
498 522
498 532
498 538
498 588
498 596
498 648
498 686
498 688
498 693
498 722
498 736
498 786
498 788
498 830
498 831
498 833
498 860
498 884
498 900
498 924
498 928
498 937
498 959
498 960
498 983
498 993
498 1008
498 1015
498 1045
498 1071
498 1090
498 1093
498 1103
498 1110
498 1143
498 1151
498 1190
498 1253
498 1254
498 1271
498 1275
498 1281
498 1332
498 1333
498 1348
498 1391
498 1424
498 1455
498 1466
498 1489
498 1514
498 1538
498 1563
498 1670
498 1697
498 1763
498 1804
498 1834
498 1845
498 1852
498 1907
498 1910
498 1920
498 1949
498 1956
498 1988
498 2045
498 2058
498 2059
498 2060
498 2072
498 2074
498 2093
498 2147
498 2198
498 2272
498 2273
498 2295
498 2304
499 512
499 546
499 581
499 584
499 630
499 638
499 658
499 721
499 735
499 767
499 776
499 852
499 853
499 868
499 883
499 884
499 886
499 894
499 941
499 942
499 954
499 1094
499 1121
499 1156
499 1223
499 1244
499 1259
499 1268
499 1285
499 1298
499 1327
499 1330
499 1334
499 1380
499 1387
499 1474
499 1502
499 1512
499 1544
499 1554
499 1568
499 1572
499 1584
499 1612
499 1620
499 1640
499 1668
499 1684
499 1843
499 1928
499 1994
499 2008
499 2036
499 2172
499 2201
499 2225
499 2249
499 2298
499 2301
499 2307
500 512
500 521
500 550
500 679
500 730
500 778
500 848
500 875
500 904
500 941
500 1156
500 1164
500 1168
500 1175
500 1186
500 1189
500 1224
500 1233
500 1238
500 1310
500 1406
500 1485
500 1523
500 1559
500 1623
500 1630
500 1675
500 1854
500 1900
500 1901
500 1921
500 1927
500 1962
500 2036
500 2049
500 2129
500 2240
500 2281
500 2289
501 590
501 648
501 672
501 741
501 743
501 765
501 800
501 816
501 825
501 944
501 971
501 1036
501 1044
501 1087
501 1143
501 1155
501 1191
501 1204
501 1233
501 1297
501 1337
501 1339
501 1485
501 1495
501 1539
501 1564
501 1583
501 1625
501 1637
501 1675
501 1676
501 1774
501 1821
501 1854
501 1882
501 1899
501 1913
501 2046
501 2066
501 2276
501 2295
501 2303
502 520
502 535
502 648
502 786
502 787
502 807
502 909
502 1092
502 1101
502 1151
502 1185
502 1262
502 1354
502 1420
502 1579
502 1580
502 1645
502 1763
502 1804
502 1812
502 1822
502 1828
502 1880
502 1883
502 1896
502 1928
502 2019
502 2021
502 2074
502 2123
502 2295
502 2296
503 540
503 543
503 550
503 563
503 566
503 568
503 601
503 744
503 778
503 809
503 932
503 990
503 998
503 1048
503 1089
503 1148
503 1188
503 1189
503 1245
503 1274
503 1300
503 1322
503 1364
503 1485
503 1741
503 1775
503 1927
503 1964
503 1990
503 2007
503 2033
503 2088
503 2121
503 2189
503 2212
503 2257
503 2266
503 2299
504 507
504 511
504 512
504 518
504 522
504 523
504 540
504 544
504 549
504 550
504 564
504 570
504 580
504 588
504 592
504 608
504 630
504 631
504 632
504 639
504 642
504 655
504 658
504 660
504 679
504 683
504 694
504 700
504 701
504 703
504 709
504 726
504 730
504 735
504 741
504 744
504 752
504 756
504 765
504 776
504 783
504 791
504 792
504 800
504 821
504 825
504 827
504 841
504 843
504 846
504 848
504 852
504 853
504 861
504 868
504 874
504 879
504 886
504 893
504 898
504 928
504 930
504 936
504 941
504 942
504 944
504 950
504 953
504 954
504 970
504 983
504 1011
504 1020
504 1023
504 1024
504 1026
504 1053
504 1054
504 1062
504 1071
504 1082
504 1085
504 1100
504 1102
504 1110
504 1115
504 1118
504 1122
504 1123
504 1124
504 1134
504 1140
504 1160
504 1177
504 1186
504 1203
504 1222
504 1227
504 1238
504 1259
504 1269
504 1274
504 1281
504 1282
504 1283
504 1284
504 1289
504 1308
504 1315
504 1321
504 1325
504 1358
504 1364
504 1378
504 1380
504 1387
504 1391
504 1398
504 1404
504 1405
504 1411
504 1424
504 1427
504 1449
504 1467
504 1485
504 1491
504 1501
504 1503
504 1538
504 1544
504 1546
504 1564
504 1565
504 1584
504 1589
504 1599
504 1612
504 1615
504 1620
504 1625
504 1628
504 1645
504 1664
504 1676
504 1719
504 1739
504 1743
504 1744
504 1767
504 1775
504 1782
504 1804
504 1806
504 1832
504 1868
504 1870
504 1873
504 1874
504 1875
504 1890
504 1913
504 1915
504 1931
504 1948
504 1957
504 1963
504 1966
504 1987
504 1995
504 1997
504 1999
504 2012
504 2013
504 2027
504 2062
504 2079
504 2089
504 2096
504 2115
504 2125
504 2130
504 2163
504 2174
504 2175
504 2202
504 2209
504 2212
504 2221
504 2244
504 2246
504 2268
504 2272
504 2298
504 2299
504 2303
504 2307
504 2309
505 511
505 541
505 564
505 624
505 649
505 667
505 714
505 867
505 907
505 944
505 997
505 1015
505 1029
505 1053
505 1212
505 1256
505 1273
505 1357
505 1375
505 1414
505 1504
505 1720
505 1907
505 1915
505 1963
505 2013
505 2052
505 2151
505 2184
505 2191
505 2202
505 2228
505 2281
505 2304
506 559
506 616
506 649
506 755
506 787
506 788
506 828
506 829
506 830
506 842
506 877
506 900
506 909
506 947
506 955
506 960
506 997
506 1013
506 1039
506 1046
506 1066
506 1074
506 1084
506 1143
506 1185
506 1200
506 1222
506 1281
506 1333
506 1366
506 1411
506 1511
506 1513
506 1521
506 1563
506 1566
506 1576
506 1670
506 1779
506 1799
506 1810
506 1840
506 1845
506 1869
506 1878
506 1918
506 1924
506 1939
506 1949
506 1974
506 1998
506 2013
506 2019
506 2024
506 2045
506 2068
506 2072
506 2086
506 2094
506 2148
506 2171
506 2234
506 2242
506 2244
506 2256
507 564
507 628
507 687
507 795
507 856
507 953
507 989
507 1134
507 1140
507 1179
507 1263
507 1290
507 1320
507 1364
507 1391
507 1394
507 1436
507 1472
507 1501
507 1572
507 1613
507 1656
507 1722
507 1937
507 1952
508 622
508 634
508 678
508 680
508 838
508 973
508 995
508 1081
508 1100
508 1126
508 1146
508 1452
508 1477
508 1574
508 1582
508 1651
508 1739
508 1816
508 1933
508 1948
508 2239
509 526
509 532
509 535
509 546
509 554
509 559
509 620
509 648
509 679
509 686
509 718
509 736
509 755
509 787
509 788
509 797
509 798
509 829
509 833
509 909
509 928
509 983
509 1001
509 1006
509 1085
509 1101
509 1103
509 1120
509 1129
509 1130
509 1136
509 1177
509 1200
509 1222
509 1251
509 1254
509 1271
509 1275
509 1281
509 1308
509 1312
509 1323
509 1371
509 1373
509 1405
509 1434
509 1437
509 1457
509 1483
509 1511
509 1563
509 1576
509 1605
509 1645
509 1679
509 1684
509 1690
509 1709
509 1755
509 1802
509 1813
509 1824
509 1852
509 1868
509 1869
509 1918
509 1932
509 1949
509 1953
509 1963
509 1995
509 2030
509 2059
509 2062
509 2065
509 2104
509 2123
509 2156
509 2195
509 2198
509 2202
509 2220
509 2277
509 2295
509 2304
510 555
510 562
510 643
510 689
510 792
510 815
510 901
510 1136
510 1140
510 1189
510 1281
510 1308
510 1355
510 1447
510 1579
510 1685
510 1739
510 1767
510 1834
510 1896
510 1915
510 1975
510 1987
510 2005
510 2030
510 2123
510 2143
510 2147
511 513
511 532
511 535
511 537
511 538
511 549
511 559
511 560
511 564
511 565
511 573
511 574
511 578
511 592
511 599
511 603
511 625
511 627
511 630
511 642
511 643
511 655
511 658
511 664
511 679
511 690
511 691
511 692
511 693
511 694
511 698
511 714
511 717
511 736
511 737
511 740
511 746
511 756
511 758
511 759
511 780
511 787
511 795
511 798
511 800
511 808
511 813
511 824
511 831
511 832
511 835
511 844
511 853
511 860
511 861
511 863
511 874
511 882
511 883
511 884
511 886
511 898
511 921
511 923
511 924
511 930
511 937
511 944
511 966
511 969
511 978
511 991
511 1001
511 1008
511 1009
511 1010
511 1011
511 1024
511 1025
511 1042
511 1045
511 1057
511 1059
511 1071
511 1079
511 1090
511 1092
511 1094
511 1096
511 1103
511 1110
511 1122
511 1126
511 1133
511 1141
511 1143
511 1147
511 1151
511 1160
511 1175
511 1177
511 1199
511 1211
511 1222
511 1235
511 1239
511 1246
511 1249
511 1251
511 1252
511 1254
511 1257
511 1265
511 1274
511 1275
511 1282
511 1283
511 1298
511 1306
511 1308
511 1330
511 1331
511 1332
511 1349
511 1355
511 1356
511 1364
511 1385
511 1396
511 1404
511 1405
511 1406
511 1411
511 1424
511 1427
511 1443
511 1449
511 1456
511 1458
511 1460
511 1467
511 1485
511 1492
511 1513
511 1521
511 1525
511 1532
511 1538
511 1540
511 1542
511 1544
511 1552
511 1555
511 1564
511 1565
511 1570
511 1579
511 1580
511 1582
511 1599
511 1606
511 1612
511 1618
511 1620
511 1625
511 1638
511 1640
511 1651
511 1659
511 1672
511 1695
511 1699
511 1702
511 1716
511 1731
511 1754
511 1759
511 1760
511 1763
511 1767
511 1769
511 1782
511 1824
511 1825
511 1834
511 1852
511 1863
511 1869
511 1873
511 1882
511 1898
511 1907
511 1920
511 1931
511 1957
511 1963
511 1987
511 1999
511 2004
511 2009
511 2013
511 2020
511 2021
511 2029
511 2030
511 2038
511 2049
511 2058
511 2062
511 2072
511 2073
511 2075
511 2080
511 2082
511 2093
511 2099
511 2108
511 2117
511 2143
511 2155
511 2162
511 2163
511 2187
511 2192
511 2195
511 2198
511 2202
511 2207
511 2208
511 2210
511 2233
511 2248
511 2258
511 2260
511 2274
511 2287
511 2296
511 2307
511 2308
511 2309
512 513
512 540
512 546
512 549
512 550
512 564
512 575
512 580
512 581
512 592
512 632
512 642
512 648
512 670
512 685
512 702
512 712
512 730
512 735
512 744
512 756
512 769
512 776
512 824
512 848
512 849
512 875
512 883
512 890
512 898
512 931
512 942
512 950
512 954
512 972
512 975
512 990
512 1010
512 1054
512 1055
512 1061
512 1064
512 1067
512 1071
512 1090
512 1096
512 1115
512 1122
512 1149
512 1152
512 1180
512 1188
512 1193
512 1203
512 1238
512 1252
512 1265
512 1274
512 1281
512 1288
512 1292
512 1310
512 1347
512 1356
512 1362
512 1377
512 1380
512 1405
512 1406
512 1423
512 1424
512 1485
512 1491
512 1503
512 1523
512 1559
512 1595
512 1606
512 1615
512 1619
512 1623
512 1628
512 1649
512 1680
512 1683
512 1697
512 1716
512 1806
512 1824
512 1901
512 1908
512 1909
512 1929
512 1931
512 1959
512 1984
512 1993
512 2005
512 2105
512 2125
512 2129
512 2162
512 2172
512 2175
512 2192
512 2205
512 2210
512 2214
512 2225
512 2233
512 2251
512 2268
512 2289
512 2296
512 2312
513 522
513 546
513 579
513 613
513 659
513 735
513 736
513 737
513 741
513 746
513 753
513 759
513 760
513 764
513 785
513 800
513 827
513 835
513 853
513 861
513 874
513 879
513 885
513 893
513 949
513 961
513 969
513 971
513 1020
513 1036
513 1038
513 1049
513 1050
513 1063
513 1095
513 1105
513 1116
513 1125
513 1156
513 1158
513 1161
513 1194
513 1204
513 1225
513 1234
513 1268
513 1283
513 1305
513 1308
513 1318
513 1334
513 1335
513 1343
513 1364
513 1372
513 1380
513 1387
513 1403
513 1459
513 1496
513 1500
513 1521
513 1540
513 1544
513 1575
513 1581
513 1598
513 1640
513 1742
513 1750
513 1760
513 1774
513 1775
513 1843
513 1853
513 1854
513 1873
513 1882
513 1886
513 1891
513 1894
513 1951
513 1956
513 1963
513 1973
513 1974
513 1990
513 2055
513 2081
513 2100
513 2122
513 2185
513 2195
513 2225
513 2251
513 2274
513 2303
514 601
514 735
514 743
514 756
514 759
514 972
514 1061
514 1164
514 1166
514 1377
514 1423
514 1680
514 1870
514 1927
514 1994
514 2046
514 2106
515 529
515 553
515 554
515 603
515 676
515 714
515 737
515 752
515 754
515 792
515 815
515 840
515 871
515 921
515 983
515 1004
515 1063
515 1133
515 1139
515 1150
515 1188
515 1194
515 1243
515 1245
515 1256
515 1304
515 1344
515 1358
515 1482
515 1512
515 1516
515 1539
515 1554
515 1561
515 1569
515 1599
515 1633
515 1703
515 1743
515 1770
515 1781
515 1796
515 1799
515 1806
515 1821
515 1849
515 1851
515 1854
515 1876
515 1887
515 1966
515 2017
515 2056
515 2088
515 2097
515 2114
515 2151
515 2183
515 2236
515 2261
515 2265
515 2279
516 538
516 640
516 648
516 691
516 722
516 736
516 775
516 786
516 924
516 960
516 1013
516 1104
516 1133
516 1212
516 1252
516 1253
516 1273
516 1312
516 1332
516 1363
516 1378
516 1398
516 1410
516 1493
516 1538
516 1543
516 1563
516 1697
516 1716
516 1754
516 1906
516 1919
516 1949
516 1963
516 2060
516 2073
516 2195
516 2272
516 2284
516 2304
516 2305
517 535
517 593
517 610
517 614
517 736
517 743
517 756
517 772
517 785
517 881
517 887
517 949
517 960
517 1004
517 1007
517 1031
517 1039
517 1048
517 1050
517 1062
517 1063
517 1102
517 1136
517 1139
517 1160
517 1161
517 1177
517 1198
517 1232
517 1233
517 1289
517 1308
517 1352
517 1367
517 1415
517 1475
517 1483
517 1508
517 1564
517 1611
517 1625
517 1671
517 1708
517 1715
517 1751
517 1761
517 1790
517 1818
517 1844
517 1903
517 1931
517 1932
517 1954
517 2023
517 2090
517 2101
517 2104
517 2126
517 2134
517 2149
517 2220
517 2227
517 2240
517 2269
517 2277
517 2281
518 637
518 643
518 655
518 792
518 827
518 954
518 1011
518 1118
518 1298
518 1377
518 1404
518 1879
518 1950
518 1994
518 2000
518 2089
518 2102
519 557
519 610
519 623
519 707
519 732
519 751
519 760
519 782
519 785
519 800
519 813
519 814
519 841
519 861
519 864
519 876
519 888
519 919
519 932
519 977
519 1038
519 1051
519 1069
519 1070
519 1117
519 1127
519 1143
519 1147
519 1161
519 1167
519 1170
519 1204
519 1225
519 1249
519 1265
519 1281
519 1288
519 1299
519 1305
519 1308
519 1326
519 1329
519 1337
519 1372
519 1418
519 1439
519 1458
519 1459
519 1518
519 1533
519 1535
519 1581
519 1637
519 1639
519 1667
519 1671
519 1677
519 1679
519 1713
519 1717
519 1723
519 1728
519 1752
519 1775
519 1776
519 1782
519 1836
519 1849
519 1857
519 1864
519 1879
519 1888
519 1901
519 1908
519 1957
519 1962
519 1986
519 2037
519 2094
519 2103
519 2129
519 2150
519 2162
519 2182
519 2222
519 2237
519 2245
519 2249
519 2258
519 2260
519 2261
519 2271
519 2274
519 2311
520 523
520 606
520 648
520 693
520 761
520 787
520 909
520 924
520 946
520 991
520 1067
520 1092
520 1180
520 1185
520 1252
520 1262
520 1281
520 1332
520 1405
520 1420
520 1559
520 1579
520 1580
520 1615
520 1645
520 1763
520 1804
520 1812
520 1822
520 1828
520 1841
520 1880
520 1883
520 1896
520 1963
520 1974
520 2021
520 2074
520 2112
520 2147
520 2154
521 613
521 643
521 701
521 743
521 785
521 791
521 843
521 853
521 864
521 884
521 893
521 930
521 969
521 972
521 1048
521 1094
521 1125
521 1156
521 1164
521 1186
521 1224
521 1233
521 1300
521 1315
521 1326
521 1334
521 1355
521 1377
521 1392
521 1394
521 1411
521 1415
521 1465
521 1491
521 1521
521 1546
521 1584
521 1592
521 1595
521 1723
521 1762
521 1870
521 1873
521 1886
521 1891
521 1901
521 1928
521 1962
521 1971
521 1974
521 2036
521 2082
521 2106
521 2123
521 2274
522 572
522 588
522 594
522 601
522 613
522 643
522 685
522 694
522 701
522 741
522 759
522 764
522 792
522 800
522 809
522 812
522 819
522 835
522 843
522 848
522 853
522 861
522 868
522 879
522 893
522 908
522 912
522 930
522 954
522 968
522 969
522 982
522 1044
522 1048
522 1049
522 1089
522 1094
522 1110
522 1118
522 1121
522 1125
522 1156
522 1165
522 1174
522 1191
522 1262
522 1268
522 1305
522 1326
522 1335
522 1355
522 1387
522 1399
522 1411
522 1424
522 1443
522 1446
522 1465
522 1491
522 1500
522 1513
522 1520
522 1521
522 1539
522 1540
522 1580
522 1620
522 1626
522 1640
522 1668
522 1713
522 1760
522 1775
522 1806
522 1815
522 1823
522 1854
522 1890
522 1891
522 1894
522 1926
522 1976
522 1988
522 1990
522 2022
522 2027
522 2055
522 2067
522 2183
522 2275
523 538
523 549
523 585
523 601
523 633
523 679
523 686
523 693
523 702
523 714
523 718
523 737
523 761
523 792
523 824
523 848
523 858
523 860
523 876
523 878
523 883
523 894
523 920
523 924
523 928
523 946
523 983
523 1010
523 1053
523 1064
523 1086
523 1092
523 1095
523 1140
523 1143
523 1169
523 1177
523 1180
523 1196
523 1198
523 1210
523 1229
523 1253
523 1262
523 1268
523 1269
523 1281
523 1288
523 1358
523 1362
523 1364
523 1390
523 1398
523 1409
523 1411
523 1424
523 1434
523 1547
523 1559
523 1574
523 1578
523 1579
523 1588
523 1615
523 1619
523 1621
523 1676
523 1679
523 1697
523 1771
523 1793
523 1804
523 1809
523 1836
523 1867
523 1872
523 1896
523 1915
523 1957
523 1963
523 1966
523 2023
523 2027
523 2030
523 2060
523 2062
523 2095
523 2147
523 2151
523 2164
523 2166
523 2167
523 2202
523 2210
523 2214
523 2220
523 2225
523 2233
523 2240
523 2289
523 2312
524 563
524 601
524 640
524 702
524 848
524 894
524 990
524 998
524 1048
524 1358
524 1485
524 1609
524 1611
524 1654
524 1751
524 1809
524 1844
524 1957
524 1996
524 2095
524 2098
524 2240
525 531
525 550
525 557
525 567
525 599
525 611
525 623
525 640
525 683
525 708
525 738
525 755
525 787
525 819
525 829
525 839
525 892
525 915
525 932
525 1137
525 1159
525 1219
525 1233
525 1250
525 1265
525 1273
525 1281
525 1283
525 1312
525 1329
525 1340
525 1421
525 1425
525 1433
525 1437
525 1442
525 1497
525 1502
525 1505
525 1539
525 1558
525 1583
525 1590
525 1611
525 1667
525 1669
525 1730
525 1734
525 1737
525 1787
525 1812
525 1825
525 1844
525 1852
525 1874
525 1917
525 1918
525 1925
525 1931
525 1982
525 2024
525 2049
525 2066
525 2069
525 2113
525 2117
525 2133
525 2168
525 2177
525 2206
525 2245
525 2260
525 2268
526 718
526 797
526 813
526 833
526 962
526 1001
526 1042
526 1103
526 1126
526 1133
526 1251
526 1323
526 1437
526 1605
526 1824
526 1852
526 1869
526 1896
526 2030
526 2088
526 2123
526 2202
526 2243
526 2296
527 550
527 563
527 567
527 572
527 593
527 601
527 609
527 640
527 685
527 711
527 723
527 743
527 753
527 800
527 812
527 861
527 912
527 932
527 956
527 981
527 1048
527 1120
527 1153
527 1176
527 1188
527 1221
527 1265
527 1270
527 1322
527 1352
527 1444
527 1462
527 1539
527 1549
527 1564
527 1577
527 1578
527 1687
527 1689
527 1717
527 1740
527 1748
527 1755
527 1853
527 1927
527 2017
527 2120
527 2154
527 2185
527 2222
527 2223
527 2260
527 2261
527 2264
527 2274
527 2299
527 2308
528 549
528 550
528 563
528 576
528 579
528 601
528 631
528 639
528 702
528 712
528 793
528 848
528 854
528 865
528 884
528 894
528 941
528 950
528 998
528 1095
528 1122
528 1152
528 1217
528 1238
528 1358
528 1377
528 1485
528 1556
528 1620
528 1621
528 1625
528 1717
528 1746
528 1776
528 1793
528 1809
528 1828
528 1849
528 1870
528 1873
528 1909
528 2027
528 2040
528 2047
528 2095
528 2098
528 2166
528 2212
528 2240
528 2264
528 2289
529 531
529 533
529 587
529 651
529 784
529 839
529 871
529 873
529 939
529 952
529 1039
529 1060
529 1073
529 1077
529 1106
529 1138
529 1145
529 1171
529 1220
529 1258
529 1301
529 1329
529 1482
529 1497
529 1587
529 1724
529 1727
529 1825
529 1849
529 1851
529 1911
529 2171
529 2177
529 2203
529 2215
529 2232
529 2234
529 2242
529 2254
530 570
530 579
530 587
530 590
530 741
530 765
530 766
530 792
530 800
530 810
530 815
530 816
530 831
530 919
530 971
530 972
530 977
530 984
530 998
530 1004
530 1036
530 1116
530 1166
530 1167
530 1204
530 1234
530 1283
530 1354
530 1423
530 1459
530 1503
530 1557
530 1575
530 1598
530 1639
530 1689
530 1713
530 1717
530 1738
530 1752
530 1798
530 1842
530 1843
530 1853
530 1864
530 1879
530 1928
530 1951
530 1958
530 1967
530 1994
530 2008
530 2027
530 2039
530 2100
530 2105
530 2185
530 2236
530 2264
530 2298
531 533
531 557
531 567
531 611
531 623
531 633
531 640
531 651
531 652
531 707
531 708
531 755
531 759
531 839
531 892
531 956
531 961
531 971
531 986
531 1036
531 1058
531 1060
531 1069
531 1073
531 1084
531 1138
531 1159
531 1171
531 1236
531 1258
531 1265
531 1273
531 1276
531 1299
531 1329
531 1340
531 1433
531 1442
531 1450
531 1505
531 1528
531 1583
531 1590
531 1611
531 1650
531 1669
531 1724
531 1730
531 1776
531 1825
531 1827
531 1844
531 1874
531 1888
531 1904
531 1925
531 1931
531 1936
531 1984
531 1991
531 2049
531 2097
531 2109
531 2113
531 2120
531 2133
531 2146
531 2150
531 2168
531 2176
531 2177
531 2206
531 2215
531 2232
531 2234
531 2242
531 2254
531 2260
531 2265
531 2274
532 538
532 555
532 559
532 604
532 658
532 679
532 691
532 692
532 693
532 700
532 718
532 728
532 736
532 776
532 778
532 781
532 797
532 798
532 802
532 803
532 825
532 829
532 860
532 863
532 909
532 923
532 928
532 937
532 957
532 978
532 991
532 993
532 996
532 1001
532 1013
532 1027
532 1042
532 1103
532 1104
532 1177
532 1189
532 1198
532 1205
532 1251
532 1252
532 1265
532 1281
532 1285
532 1308
532 1323
532 1332
532 1347
532 1368
532 1371
532 1373
532 1385
532 1388
532 1404
532 1405
532 1420
532 1424
532 1429
532 1436
532 1466
532 1469
532 1471
532 1485
532 1487
532 1492
532 1507
532 1550
532 1563
532 1566
532 1612
532 1618
532 1655
532 1679
532 1684
532 1700
532 1702
532 1706
532 1709
532 1716
532 1745
532 1759
532 1763
532 1802
532 1806
532 1822
532 1834
532 1846
532 1864
532 1906
532 1910
532 1956
532 1966
532 1995
532 2003
532 2029
532 2046
532 2059
532 2062
532 2065
532 2068
532 2070
532 2074
532 2086
532 2140
532 2159
532 2192
532 2195
532 2260
532 2272
532 2273
532 2284
532 2289
532 2295
532 2296
533 534
533 568
533 593
533 605
533 623
533 633
533 640
533 651
533 712
533 724
533 839
533 858
533 871
533 874
533 892
533 903
533 932
533 952
533 983
533 1003
533 1021
533 1058
533 1073
533 1077
533 1084
533 1138
533 1145
533 1171
533 1184
533 1208
533 1220
533 1236
533 1258
533 1301
533 1329
533 1428
533 1505
533 1612
533 1634
533 1724
533 1787
533 1808
533 1825
533 1839
533 1845
533 1849
533 1908
533 1911
533 1931
533 1936
533 1969
533 1984
533 2097
533 2111
533 2128
533 2156
533 2168
533 2171
533 2177
533 2203
533 2215
533 2232
533 2242
533 2245
533 2254
534 590
534 593
534 605
534 614
534 640
534 645
534 652
534 672
534 674
534 676
534 685
534 704
534 711
534 753
534 798
534 805
534 815
534 819
534 850
534 861
534 903
534 915
534 956
534 1003
534 1039
534 1060
534 1063
534 1069
534 1073
534 1075
534 1077
534 1095
534 1111
534 1138
534 1171
534 1177
534 1208
534 1220
534 1236
534 1258
534 1275
534 1280
534 1282
534 1329
534 1337
534 1354
534 1361
534 1385
534 1398
534 1413
534 1416
534 1442
534 1444
534 1451
534 1482
534 1505
534 1515
534 1561
534 1563
534 1611
534 1634
534 1650
534 1677
534 1708
534 1724
534 1755
534 1786
534 1787
534 1818
534 1848
534 1849
534 1854
534 1878
534 1888
534 1904
534 1911
534 1921
534 1931
534 1949
534 1982
534 1984
534 2037
534 2046
534 2156
534 2160
534 2171
534 2203
534 2215
534 2227
534 2232
534 2242
534 2276
534 2277
534 2286
535 555
535 571
535 592
535 614
535 630
535 643
535 655
535 661
535 703
535 728
535 758
535 772
535 792
535 807
535 815
535 874
535 883
535 887
535 904
535 909
535 924
535 937
535 959
535 960
535 981
535 1003
535 1004
535 1006
535 1009
535 1015
535 1031
535 1042
535 1050
535 1071
535 1085
535 1092
535 1094
535 1136
535 1139
535 1160
535 1161
535 1176
535 1177
535 1194
535 1198
535 1222
535 1259
535 1271
535 1275
535 1281
535 1309
535 1323
535 1333
535 1349
535 1363
535 1392
535 1396
535 1405
535 1424
535 1455
535 1483
535 1487
535 1489
535 1504
535 1508
535 1542
535 1548
535 1563
535 1569
535 1570
535 1612
535 1618
535 1638
535 1646
535 1650
535 1655
535 1670
535 1674
535 1693
535 1702
535 1778
535 1790
535 1792
535 1802
535 1804
535 1818
535 1824
535 1852
535 1869
535 1890
535 1932
535 1947
535 1948
535 1953
535 1954
535 1956
535 1963
535 2021
535 2037
535 2051
535 2062
535 2065
535 2074
535 2078
535 2086
535 2090
535 2101
535 2104
535 2134
535 2144
535 2149
535 2163
535 2198
535 2210
535 2223
535 2227
535 2239
535 2241
535 2269
535 2277
535 2284
535 2295
535 2306
536 538
536 850
536 934
536 1332
536 1796
536 1953
537 642
537 786
537 807
537 816
537 832
537 948
537 965
537 970
537 971
537 1143
537 1144
537 1211
537 1214
537 1296
537 1304
537 1355
537 1380
537 1393
537 1430
537 1433
537 1499
537 1511
537 1513
537 1560
537 1563
537 1571
537 1583
537 1600
537 1638
537 1659
537 1684
537 1713
537 1812
537 1825
537 1854
537 1873
537 1899
537 1951
537 2060
537 2231
537 2248
537 2252
537 2258
537 2307
538 549
538 562
538 585
538 592
538 631
538 661
538 677
538 679
538 690
538 691
538 693
538 703
538 714
538 728
538 775
538 776
538 786
538 787
538 792
538 798
538 813
538 824
538 830
538 833
538 848
538 860
538 863
538 865
538 876
538 877
538 883
538 894
538 898
538 900
538 902
538 904
538 909
538 923
538 924
538 937
538 957
538 959
538 978
538 996
538 1009
538 1010
538 1013
538 1027
538 1052
538 1056
538 1071
538 1095
538 1102
538 1103
538 1133
538 1140
538 1143
538 1175
538 1177
538 1198
538 1205
538 1253
538 1259
538 1262
538 1268
538 1274
538 1275
538 1281
538 1297
538 1298
538 1309
538 1312
538 1332
538 1348
538 1355
538 1358
538 1362
538 1363
538 1368
538 1385
538 1404
538 1411
538 1424
538 1427
538 1429
538 1434
538 1471
538 1477
538 1485
538 1487
538 1559
538 1563
538 1578
538 1579
538 1594
538 1612
538 1615
538 1619
538 1625
538 1645
538 1663
538 1697
538 1700
538 1716
538 1721
538 1745
538 1767
538 1778
538 1780
538 1806
538 1809
538 1845
538 1852
538 1864
538 1880
538 1886
538 1896
538 1906
538 1907
538 1909
538 1910
538 1924
538 1956
538 1959
538 1963
538 1966
538 1974
538 2043
538 2051
538 2058
538 2060
538 2062
538 2086
538 2088
538 2112
538 2144
538 2159
538 2164
538 2167
538 2192
538 2202
538 2210
538 2214
538 2225
538 2233
538 2273
538 2284
538 2312
539 580
539 594
539 601
539 635
539 1465
539 1549
539 1968
540 550
540 570
540 602
540 603
540 619
540 631
540 639
540 643
540 698
540 729
540 730
540 735
540 738
540 744
540 761
540 776
540 792
540 808
540 831
540 843
540 848
540 875
540 884
540 893
540 898
540 919
540 930
540 941
540 942
540 944
540 950
540 970
540 972
540 984
540 990
540 996
540 998
540 1011
540 1023
540 1030
540 1036
540 1044
540 1055
540 1061
540 1091
540 1098
540 1102
540 1104
540 1110
540 1121
540 1124
540 1152
540 1164
540 1186
540 1188
540 1219
540 1224
540 1238
540 1247
540 1270
540 1274
540 1281
540 1285
540 1289
540 1298
540 1321
540 1323
540 1327
540 1356
540 1364
540 1383
540 1404
540 1406
540 1411
540 1435
540 1443
540 1449
540 1459
540 1523
540 1562
540 1572
540 1573
540 1586
540 1619
540 1621
540 1628
540 1649
540 1659
540 1675
540 1676
540 1680
540 1683
540 1730
540 1746
540 1751
540 1752
540 1767
540 1805
540 1806
540 1821
540 1837
540 1844
540 1860
540 1870
540 1948
540 1967
540 1983
540 1994
540 2000
540 2027
540 2039
540 2089
540 2108
540 2125
540 2162
540 2182
540 2185
540 2193
540 2196
540 2209
540 2212
540 2221
540 2268
540 2303
541 598
541 626
541 714
541 727
541 790
541 795
541 856
541 867
541 914
541 929
541 940
541 946
541 989
541 1047
541 1050
541 1052
541 1080
541 1122
541 1140
541 1243
541 1257
541 1278
541 1290
541 1293
541 1306
541 1307
541 1316
541 1320
541 1342
541 1352
541 1364
541 1382
541 1391
541 1394
541 1417
541 1472
541 1574
541 1602
541 1656
541 1720
541 1722
541 1725
541 1790
541 1801
541 1816
541 1947
541 1952
541 1981
541 2052
541 2144
541 2149
541 2153
541 2163
541 2164
541 2199
541 2287
541 2295
542 990
542 1285
542 1512
542 1843
543 563
543 568
543 593
543 778
543 864
543 932
543 956
543 998
543 1040
543 1048
543 1049
543 1089
543 1148
543 1189
543 1245
543 1300
543 1485
543 1539
543 1657
543 1741
543 1750
543 1885
543 1891
543 1927
543 1964
543 1990
543 2007
543 2015
543 2054
543 2057
543 2070
543 2088
543 2121
543 2180
543 2189
543 2266
544 550
544 588
544 637
544 827
544 874
544 886
544 941
544 1174
544 1233
544 1244
544 1275
544 1281
544 1325
544 1362
544 1394
544 1570
544 1584
544 1719
544 1890
544 2036
545 550
545 581
545 589
545 594
545 607
545 609
545 610
545 617
545 643
545 677
545 701
545 737
545 791
545 822
545 872
545 930
545 958
545 965
545 969
545 975
545 1023
545 1165
545 1169
545 1175
545 1233
545 1277
545 1352
545 1387
545 1415
545 1460
545 1462
545 1540
545 1595
545 1642
545 1663
545 1668
545 1672
545 1717
545 1726
545 1814
545 1835
545 1873
545 1922
545 1973
545 2057
545 2116
545 2129
545 2292
546 637
546 658
546 788
546 797
546 833
546 1001
546 1054
546 1059
546 1103
546 1156
546 1223
546 1252
546 1298
546 1323
546 1330
546 1334
546 1362
546 1415
546 1424
546 1563
546 1565
546 1699
546 1781
546 1824
546 1828
546 1913
546 1929
546 1994
546 2123
546 2129
546 2132
546 2198
546 2295
547 589
547 672
547 725
547 741
547 759
547 832
547 948
547 971
547 976
547 1143
547 1211
547 1281
547 1312
547 1332
547 1336
547 1393
547 1430
547 1537
547 1571
547 1600
547 1659
547 1676
547 1713
547 1756
547 1873
547 1882
547 1899
547 1995
547 2046
547 2069
547 2110
547 2225
547 2231
547 2259
548 694
548 755
548 756
548 762
548 800
548 1075
548 1144
548 1181
548 1211
548 1274
548 1310
548 1352
548 1493
548 1496
548 1538
548 1571
548 1713
548 1760
548 1805
548 1823
548 1835
548 1873
548 1899
548 1958
548 2031
548 2037
548 2043
548 2055
548 2147
548 2181
548 2208
548 2213
548 2248
548 2274
548 2304
549 570
549 585
549 588
549 601
549 639
549 665
549 693
549 714
549 738
549 742
549 775
549 792
549 824
549 848
549 860
549 865
549 876
549 878
549 883
549 894
549 898
549 924
549 936
549 950
549 998
549 1010
549 1053
549 1064
549 1092
549 1093
549 1095
549 1102
549 1124
549 1140
549 1149
549 1152
549 1168
549 1169
549 1180
549 1184
549 1216
549 1244
549 1262
549 1269
549 1281
549 1297
549 1308
549 1343
549 1358
549 1362
549 1364
549 1409
549 1417
549 1418
549 1424
549 1485
549 1503
549 1512
549 1538
549 1556
549 1557
549 1559
549 1562
549 1579
549 1584
549 1615
549 1619
549 1621
549 1623
549 1625
549 1676
549 1708
549 1717
549 1746
549 1751
549 1760
549 1792
549 1793
549 1795
549 1816
549 1844
549 1849
549 1857
549 1864
549 1870
549 1873
549 1957
549 1966
549 2049
549 2151
549 2164
549 2167
549 2177
549 2210
549 2214
549 2221
549 2225
549 2240
549 2268
549 2269
549 2312
550 558
550 562
550 564
550 575
550 578
550 580
550 581
550 588
550 591
550 594
550 597
550 602
550 603
550 609
550 613
550 617
550 619
550 623
550 632
550 639
550 640
550 645
550 658
550 662
550 663
550 665
550 670
550 673
550 677
550 682
550 685
550 698
550 701
550 711
550 721
550 723
550 729
550 730
550 735
550 738
550 741
550 744
550 750
550 756
550 776
550 782
550 792
550 802
550 804
550 808
550 813
550 815
550 824
550 831
550 843
550 846
550 848
550 850
550 854
550 855
550 863
550 864
550 866
550 872
550 874
550 875
550 879
550 883
550 888
550 897
550 898
550 912
550 915
550 919
550 930
550 941
550 942
550 944
550 953
550 954
550 956
550 958
550 965
550 969
550 970
550 972
550 975
550 986
550 990
550 998
550 1010
550 1011
550 1013
550 1017
550 1023
550 1030
550 1036
550 1038
550 1052
550 1055
550 1057
550 1062
550 1067
550 1070
550 1093
550 1095
550 1104
550 1113
550 1124
550 1134
550 1136
550 1140
550 1143
550 1152
550 1164
550 1165
550 1168
550 1175
550 1176
550 1186
550 1188
550 1193
550 1203
550 1206
550 1213
550 1219
550 1220
550 1221
550 1233
550 1238
550 1249
550 1265
550 1268
550 1270
550 1273
550 1274
550 1276
550 1277
550 1280
550 1282
550 1283
550 1285
550 1287
550 1290
550 1296
550 1306
550 1308
550 1317
550 1321
550 1334
550 1353
550 1356
550 1364
550 1369
550 1392
550 1404
550 1409
550 1423
550 1433
550 1444
550 1449
550 1456
550 1464
550 1485
550 1497
550 1501
550 1502
550 1503
550 1505
550 1512
550 1538
550 1543
550 1546
550 1561
550 1562
550 1563
550 1564
550 1572
550 1594
550 1613
550 1619
550 1625
550 1628
550 1663
550 1668
550 1675
550 1680
550 1683
550 1706
550 1715
550 1726
550 1740
550 1745
550 1746
550 1750
550 1755
550 1765
550 1779
550 1781
550 1790
550 1792
550 1796
550 1799
550 1805
550 1814
550 1815
550 1828
550 1835
550 1837
550 1844
550 1849
550 1860
550 1864
550 1866
550 1870
550 1873
550 1879
550 1885
550 1888
550 1893
550 1909
550 1918
550 1931
550 1937
550 1962
550 1965
550 1967
550 1983
550 1984
550 2008
550 2027
550 2043
550 2059
550 2062
550 2065
550 2066
550 2089
550 2096
550 2098
550 2104
550 2120
550 2125
550 2126
550 2129
550 2132
550 2133
550 2135
550 2138
550 2145
550 2151
550 2174
550 2177
550 2182
550 2193
550 2202
550 2205
550 2209
550 2212
550 2221
550 2232
550 2245
550 2251
550 2254
550 2261
550 2265
550 2268
550 2269
550 2274
550 2289
550 2295
550 2299
550 2305
550 2308
551 815
551 971
551 1232
551 1537
551 1844
551 1903
551 1931
552 595
552 622
552 625
552 646
552 680
552 696
552 740
552 771
552 788
552 790
552 799
552 802
552 807
552 830
552 896
552 929
552 957
552 962
552 1050
552 1114
552 1130
552 1145
552 1168
552 1197
552 1226
552 1230
552 1235
552 1237
552 1239
552 1263
552 1291
552 1313
552 1365
552 1374
552 1381
552 1402
552 1452
552 1469
552 1536
552 1553
552 1585
552 1589
552 1592
552 1610
552 1665
552 1696
552 1720
552 1736
552 1739
552 1794
552 1847
552 1853
552 1893
552 1934
552 1943
552 1947
552 1981
552 2001
552 2011
552 2038
552 2045
552 2052
552 2053
552 2091
552 2093
552 2119
552 2137
552 2188
552 2199
552 2218
552 2253
552 2287
553 554
553 599
553 603
553 633
553 674
553 714
553 752
553 754
553 755
553 759
553 770
553 792
553 810
553 831
553 836
553 871
553 906
553 947
553 981
553 983
553 1020
553 1063
553 1066
553 1068
553 1075
553 1084
553 1086
553 1133
553 1139
553 1145
553 1150
553 1159
553 1181
553 1194
553 1297
553 1301
553 1304
553 1308
553 1344
553 1354
553 1361
553 1366
553 1413
553 1433
553 1440
553 1450
553 1482
553 1488
553 1504
553 1512
553 1561
553 1569
553 1579
553 1630
553 1650
553 1703
553 1743
553 1751
553 1755
553 1779
553 1785
553 1786
553 1796
553 1803
553 1825
553 1848
553 1849
553 1851
553 1874
553 1878
553 1887
553 1895
553 1918
553 1931
553 1950
553 1953
553 1966
553 1969
553 2056
553 2068
553 2076
553 2111
553 2120
553 2127
553 2128
553 2151
553 2200
553 2252
553 2265
554 679
554 722
554 752
554 754
554 770
554 788
554 858
554 900
554 915
554 921
554 983
554 1063
554 1110
554 1139
554 1150
554 1253
554 1333
554 1466
554 1490
554 1548
554 1561
554 1588
554 1796
554 1849
554 1851
554 1907
554 1966
554 2059
554 2072
554 2265
554 2272
554 2296
555 567
555 593
555 599
555 616
555 643
555 647
555 665
555 679
555 683
555 701
555 704
555 705
555 715
555 736
555 791
555 792
555 803
555 807
555 831
555 860
555 928
555 991
555 1020
555 1029
555 1062
555 1074
555 1085
555 1120
555 1189
555 1222
555 1253
555 1308
555 1331
555 1348
555 1355
555 1392
555 1410
555 1420
555 1466
555 1512
555 1521
555 1563
555 1579
555 1630
555 1645
555 1674
555 1702
555 1709
555 1723
555 1760
555 1771
555 1779
555 1781
555 1782
555 1802
555 1804
555 1805
555 1834
555 1840
555 1858
555 1868
555 1869
555 1918
555 1949
555 1963
555 1967
555 1974
555 1975
555 1987
555 2027
555 2045
555 2049
555 2059
555 2074
555 2116
555 2117
555 2147
555 2187
555 2195
555 2277
556 1268
556 1415
556 1520
556 1885
557 611
557 651
557 707
557 724
557 755
557 839
557 892
557 947
557 952
557 997
557 1058
557 1066
557 1068
557 1069
557 1078
557 1084
557 1171
557 1184
557 1215
557 1276
557 1329
557 1340
557 1439
557 1497
557 1533
557 1567
557 1581
557 1669
557 1808
557 1810
557 1825
557 1827
557 1839
557 1844
557 1849
557 1866
557 1888
557 2046
557 2068
557 2069
557 2097
557 2113
557 2141
557 2171
557 2176
557 2215
557 2234
557 2242
557 2245
557 2254
557 2258
557 2261
558 639
558 668
558 792
558 814
558 874
558 919
558 975
558 1085
558 1117
558 1170
558 1189
558 1393
558 1448
558 1482
558 1503
558 1537
558 1590
558 1667
558 1814
558 1849
558 1853
558 1857
558 1965
558 2017
558 2089
558 2103
558 2129
558 2185
558 2245
558 2264
559 565
559 606
559 616
559 648
559 679
559 686
559 714
559 724
559 728
559 756
559 787
559 807
559 829
559 831
559 836
559 860
559 881
559 892
559 909
559 928
559 939
559 981
559 983
559 1009
559 1029
559 1032
559 1050
559 1071
559 1074
559 1129
559 1130
559 1143
559 1185
559 1200
559 1222
559 1233
559 1241
559 1276
559 1283
559 1309
559 1331
559 1357
559 1366
559 1396
559 1405
559 1410
559 1413
559 1420
559 1489
559 1493
559 1566
559 1645
559 1670
559 1676
559 1763
559 1779
559 1799
559 1802
559 1810
559 1869
559 1873
559 1883
559 1918
559 1924
559 1949
559 1953
559 1980
559 1982
559 1998
559 2056
559 2059
559 2065
559 2074
559 2086
559 2094
559 2112
559 2120
559 2141
559 2147
559 2148
559 2176
559 2195
559 2234
559 2242
559 2244
560 653
560 657
560 680
560 795
560 867
560 967
560 1052
560 1141
560 1190
560 1197
560 1239
560 1243
560 1266
560 1286
560 1313
560 1346
560 1391
560 1452
560 1486
560 1527
560 1534
560 1536
560 1582
560 1592
560 1610
560 1665
560 1666
560 1695
560 1736
560 1791
560 1830
560 2001
560 2044
560 2052
560 2061
560 2077
560 2114
560 2155
560 2218
560 2230
560 2294
560 2302
561 573
561 582
561 657
561 678
561 771
561 783
561 867
561 870
561 914
561 921
561 979
561 1081
561 1133
561 1139
561 1183
561 1190
561 1230
561 1235
561 1374
561 1381
561 1402
561 1431
561 1477
561 1527
561 1534
561 1662
561 1898
561 1902
561 1930
561 2001
561 2020
561 2044
561 2178
562 585
562 588
562 642
562 643
562 661
562 690
562 698
562 703
562 729
562 730
562 744
562 758
562 792
562 824
562 848
562 883
562 904
562 924
562 937
562 942
562 953
562 963
562 1010
562 1011
562 1067
562 1071
562 1177
562 1188
562 1194
562 1238
562 1259
562 1262
562 1274
562 1275
562 1307
562 1308
562 1321
562 1356
562 1362
562 1364
562 1409
562 1411
562 1437
562 1449
562 1487
562 1494
562 1501
562 1584
562 1594
562 1621
562 1623
562 1641
562 1646
562 1683
562 1685
562 1767
562 1950
562 1963
562 1966
562 1988
562 2051
562 2062
562 2205
562 2210
562 2212
562 2233
562 2268
563 568
563 572
563 594
563 601
563 609
563 617
563 639
563 701
563 702
563 723
563 761
563 778
563 793
563 812
563 815
563 846
563 848
563 853
563 861
563 878
563 930
563 932
563 956
563 969
563 998
563 1048
563 1050
563 1062
563 1072
563 1089
563 1095
563 1098
563 1148
563 1165
563 1176
563 1188
563 1189
563 1221
563 1229
563 1245
563 1274
563 1281
563 1300
563 1322
563 1353
563 1358
563 1364
563 1383
563 1415
563 1465
563 1485
563 1503
563 1556
563 1562
563 1611
563 1620
563 1654
563 1657
563 1663
563 1664
563 1668
563 1676
563 1687
563 1717
563 1741
563 1748
563 1783
563 1809
563 1825
563 1844
563 1857
563 1864
563 1881
563 1927
563 1931
563 1957
563 1964
563 1990
563 1996
563 2007
563 2008
563 2027
563 2047
563 2057
563 2069
563 2070
563 2088
563 2089
563 2095
563 2098
563 2103
563 2121
563 2129
563 2135
563 2161
563 2167
563 2180
563 2189
563 2240
563 2245
563 2266
563 2270
563 2289
564 578
564 624
564 643
564 687
564 698
564 749
564 824
564 863
564 883
564 893
564 898
564 904
564 923
564 941
564 960
564 974
564 1054
564 1071
564 1100
564 1103
564 1110
564 1152
564 1172
564 1177
564 1193
564 1274
564 1281
564 1307
564 1341
564 1356
564 1371
564 1405
564 1424
564 1449
564 1485
564 1542
564 1594
564 1613
564 1628
564 1638
564 1719
564 1751
564 1767
564 1769
564 1817
564 1870
564 1949
564 1963
564 1966
564 2005
564 2034
564 2062
564 2123
564 2143
564 2202
564 2209
564 2210
564 2212
564 2214
564 2225
564 2246
565 592
565 648
565 741
565 746
565 756
565 759
565 761
565 786
565 800
565 813
565 825
565 835
565 853
565 863
565 877
565 909
565 951
565 1001
565 1062
565 1066
565 1071
565 1082
565 1110
565 1146
565 1181
565 1200
565 1205
565 1234
565 1246
565 1250
565 1251
565 1254
565 1268
565 1271
565 1280
565 1281
565 1336
565 1356
565 1371
565 1373
565 1405
565 1411
565 1448
565 1466
565 1489
565 1511
565 1513
565 1521
565 1540
565 1565
565 1566
565 1576
565 1580
565 1672
565 1676
565 1713
565 1760
565 1775
565 1802
565 1812
565 1824
565 1825
565 1845
565 1896
565 1910
565 1919
565 1924
565 1949
565 1956
565 1963
565 1974
565 2003
565 2011
565 2019
565 2021
565 2060
565 2112
565 2131
565 2143
565 2156
565 2163
565 2199
565 2237
565 2254
565 2295
565 2296
565 2306
566 568
566 572
566 761
566 998
566 1048
566 1148
566 1245
566 1300
566 1485
566 2017
566 2135
566 2161
566 2189
566 2266
567 587
567 593
567 610
567 611
567 623
567 640
567 647
567 652
567 665
567 676
567 685
567 705
567 707
567 708
567 710
567 712
567 738
567 748
567 754
567 755
567 759
567 782
567 787
567 808
567 819
567 825
567 829
567 831
567 839
567 861
567 864
567 876
567 888
567 892
567 918
567 928
567 932
567 934
567 960
567 961
567 972
567 986
567 1003
567 1052
567 1057
567 1060
567 1066
567 1069
567 1077
567 1104
567 1120
567 1137
567 1138
567 1140
567 1159
567 1165
567 1168
567 1171
567 1176
567 1181
567 1184
567 1208
567 1232
567 1250
567 1254
567 1265
567 1273
567 1276
567 1279
567 1280
567 1281
567 1282
567 1308
567 1312
567 1329
567 1335
567 1337
567 1340
567 1354
567 1361
567 1377
567 1410
567 1416
567 1419
567 1425
567 1433
567 1437
567 1439
567 1442
567 1448
567 1450
567 1453
567 1482
567 1488
567 1497
567 1502
567 1505
567 1511
567 1512
567 1518
567 1558
567 1561
567 1573
567 1576
567 1581
567 1583
567 1590
567 1611
567 1634
567 1637
567 1650
567 1667
567 1669
567 1703
567 1708
567 1709
567 1717
567 1723
567 1730
567 1734
567 1736
567 1751
567 1755
567 1760
567 1776
567 1785
567 1787
567 1804
567 1805
567 1812
567 1825
567 1840
567 1844
567 1845
567 1849
567 1852
567 1857
567 1863
567 1864
567 1866
567 1869
567 1874
567 1879
567 1888
567 1918
567 1921
567 1925
567 1931
567 1935
567 1967
567 1975
567 1982
567 1984
567 2008
567 2016
567 2021
567 2024
567 2037
567 2046
567 2049
567 2066
567 2068
567 2084
567 2089
567 2097
567 2104
567 2113
567 2116
567 2117
567 2120
567 2128
567 2133
567 2147
567 2150
567 2151
567 2156
567 2160
567 2177
567 2185
567 2195
567 2206
567 2215
567 2237
567 2245
567 2248
567 2258
567 2260
567 2261
567 2264
567 2265
567 2280
567 2285
567 2306
567 2310
568 638
568 719
568 753
568 767
568 778
568 800
568 864
568 874
568 888
568 912
568 926
568 932
568 956
568 961
568 990
568 998
568 1002
568 1048
568 1058
568 1089
568 1148
568 1189
568 1229
568 1245
568 1265
568 1300
568 1302
568 1401
568 1465
568 1485
568 1539
568 1577
568 1631
568 1643
568 1657
568 1741
568 1748
568 1908
568 1927
568 1931
568 1964
568 1968
568 1987
568 1990
568 2007
568 2054
568 2070
568 2088
568 2089
568 2121
568 2170
568 2180
568 2189
568 2257
568 2258
568 2266
569 667
569 1038
569 1588
569 1645
569 1867
569 1874
569 1908
569 2151
569 2237
569 2311
570 592
570 617
570 631
570 639
570 647
570 654
570 677
570 709
570 712
570 741
570 756
570 765
570 767
570 776
570 778
570 791
570 792
570 818
570 841
570 855
570 884
570 894
570 898
570 920
570 932
570 949
570 958
570 970
570 977
570 998
570 1002
570 1004
570 1016
570 1019
570 1020
570 1036
570 1038
570 1054
570 1067
570 1091
570 1096
570 1110
570 1116
570 1122
570 1133
570 1145
570 1160
570 1181
570 1203
570 1270
570 1281
570 1296
570 1297
570 1325
570 1335
570 1336
570 1353
570 1355
570 1361
570 1378
570 1405
570 1411
570 1432
570 1458
570 1467
570 1487
570 1488
570 1499
570 1513
570 1514
570 1521
570 1531
570 1563
570 1575
570 1583
570 1598
570 1606
570 1640
570 1650
570 1657
570 1684
570 1713
570 1718
570 1741
570 1743
570 1751
570 1771
570 1816
570 1829
570 1835
570 1853
570 1894
570 1899
570 1913
570 1948
570 1950
570 1958
570 1964
570 1974
570 1995
570 2022
570 2037
570 2056
570 2062
570 2063
570 2071
570 2073
570 2079
570 2089
570 2130
570 2154
570 2185
570 2193
570 2202
570 2225
570 2252
570 2268
570 2303
571 668
571 816
571 819
571 835
571 1004
571 1037
571 1204
571 1267
571 1280
571 1337
571 1444
571 1459
571 1637
571 1728
571 1821
571 2067
572 579
572 591
572 601
572 635
572 666
572 800
572 845
572 864
572 884
572 912
572 936
572 1135
572 1148
572 1153
572 1277
572 1300
572 1400
572 1415
572 1465
572 1485
572 1549
572 1562
572 1663
572 1717
572 1740
572 1815
572 1831
572 1885
572 1925
572 1968
572 2008
572 2015
572 2027
572 2057
572 2127
572 2161
572 2212
572 2226
572 2270
572 2271
572 2274
573 582
573 595
573 646
573 657
573 740
573 799
573 870
573 891
573 921
573 925
573 929
573 948
573 957
573 962
573 1099
573 1130
573 1131
573 1183
573 1190
573 1192
573 1226
573 1235
573 1239
573 1240
573 1336
573 1365
573 1402
573 1448
573 1477
573 1507
573 1552
573 1597
573 1610
573 1662
573 1665
573 1696
573 1736
573 1791
573 1820
573 1830
573 1847
573 1889
573 1892
573 1947
573 1981
573 2001
573 2020
573 2044
573 2045
573 2052
573 2152
573 2178
573 2294
574 653
574 657
574 740
574 771
574 914
574 946
574 962
574 999
574 1025
574 1028
574 1047
574 1100
574 1141
574 1157
574 1183
574 1223
574 1320
574 1346
574 1374
574 1477
574 1485
574 1532
574 1604
574 1759
574 1820
574 1843
574 1846
574 1898
574 2011
574 2044
574 2155
574 2256
574 2302
575 591
575 607
575 611
575 653
575 656
575 712
575 729
575 738
575 750
575 785
575 800
575 810
575 827
575 837
575 848
575 883
575 884
575 888
575 919
575 956
575 959
575 972
575 1038
575 1044
575 1063
575 1085
575 1143
575 1166
575 1170
575 1193
575 1233
575 1244
575 1251
575 1304
575 1315
575 1337
575 1343
575 1344
575 1368
575 1387
575 1423
575 1427
575 1485
575 1502
575 1533
575 1586
575 1587
575 1620
575 1680
575 1717
575 1723
575 1752
575 1753
575 1824
575 1846
575 1860
575 1864
575 1873
575 1879
575 1899
575 1927
575 1965
575 1986
575 2036
575 2046
575 2057
575 2066
575 2103
575 2105
575 2124
575 2175
575 2198
575 2208
575 2231
575 2258
575 2264
575 2274
575 2276
575 2292
575 2299
576 601
576 604
576 876
576 894
576 1122
576 1238
576 1310
576 1364
576 1380
576 1485
576 1556
576 1621
576 1664
576 1793
576 1809
576 1913
576 2040
576 2098
576 2164
576 2166
576 2225
576 2271
577 584
577 714
577 752
577 798
577 915
577 983
577 1015
577 1053
577 1147
577 1195
577 1421
577 1499
577 1558
577 1561
577 1888
577 1980
577 2013
577 2151
577 2156
577 2240
577 2261
577 2280
577 2311
578 687
578 692
578 703
578 722
578 815
578 863
578 883
578 904
578 928
578 941
578 993
578 1071
578 1177
578 1194
578 1275
578 1290
578 1356
578 1364
578 1405
578 1427
578 1492
578 1513
578 1599
578 1603
578 1628
578 1685
578 1719
578 1767
578 1890
578 1896
578 1928
578 1966
578 1977
578 2020
578 2062
578 2123
578 2143
578 2187
578 2272
578 2295
579 581
579 587
579 591
579 592
579 656
579 705
579 725
579 735
579 737
579 741
579 746
579 756
579 759
579 765
579 776
579 778
579 785
579 800
579 819
579 861
579 866
579 898
579 923
579 932
579 945
579 956
579 971
579 998
579 1004
579 1036
579 1117
579 1184
579 1204
579 1218
579 1225
579 1232
579 1234
579 1253
579 1265
579 1271
579 1310
579 1311
579 1329
579 1337
579 1343
579 1355
579 1358
579 1377
579 1415
579 1423
579 1430
579 1439
579 1459
579 1485
579 1514
579 1518
579 1537
579 1573
579 1581
579 1590
579 1595
579 1598
579 1637
579 1650
579 1658
579 1706
579 1713
579 1717
579 1738
579 1740
579 1748
579 1799
579 1803
579 1843
579 1849
579 1853
579 1854
579 1864
579 1873
579 1879
579 1888
579 1951
579 1992
579 2017
579 2022
579 2037
579 2039
579 2046
579 2055
579 2066
579 2067
579 2081
579 2100
579 2103
579 2118
579 2122
579 2175
579 2185
579 2206
579 2211
579 2213
579 2225
579 2236
579 2242
579 2245
579 2258
579 2264
579 2270
579 2271
579 2274
579 2286
579 2295
579 2308
580 589
580 594
580 602
580 632
580 639
580 676
580 682
580 701
580 744
580 761
580 764
580 776
580 791
580 792
580 827
580 848
580 852
580 893
580 908
580 912
580 936
580 941
580 956
580 972
580 1011
580 1140
580 1156
580 1164
580 1186
580 1193
580 1219
580 1242
580 1274
580 1318
580 1325
580 1355
580 1377
580 1399
580 1409
580 1501
580 1503
580 1630
580 1680
580 1685
580 1774
580 1795
580 1799
580 1806
580 1821
580 1835
580 1866
580 1983
580 2089
580 2106
580 2123
580 2125
580 2130
580 2146
580 2180
580 2182
580 2209
580 2221
580 2292
580 2299
581 589
581 594
581 609
581 617
581 643
581 677
581 701
581 729
581 735
581 767
581 782
581 791
581 833
581 840
581 872
581 879
581 884
581 922
581 930
581 958
581 965
581 970
581 971
581 975
581 1023
581 1056
581 1093
581 1102
581 1125
581 1158
581 1165
581 1169
581 1175
581 1233
581 1244
581 1251
581 1277
581 1299
581 1326
581 1353
581 1386
581 1394
581 1435
581 1441
581 1460
581 1471
581 1538
581 1554
581 1642
581 1663
581 1668
581 1672
581 1680
581 1697
581 1711
581 1717
581 1718
581 1726
581 1795
581 1814
581 1824
581 1835
581 1842
581 1857
581 1873
581 1922
581 1991
581 2008
581 2041
581 2057
581 2089
581 2116
581 2118
581 2129
581 2146
581 2289
582 650
582 657
582 683
582 757
582 788
582 844
582 859
582 863
582 870
582 914
582 929
582 962
582 973
582 979
582 1109
582 1134
582 1183
582 1192
582 1272
582 1461
582 1476
582 1477
582 1522
582 1582
582 1592
582 1662
582 1711
582 1736
582 1739
582 1791
582 1846
582 1847
582 1862
582 1892
582 1898
582 1933
582 1934
582 2004
582 2009
582 2020
582 2044
582 2077
582 2178
582 2199
582 2304
583 680
583 1034
583 1202
583 1287
583 1313
583 1316
583 1320
583 1414
583 1453
583 1485
583 1610
583 1661
583 1739
583 1820
583 1846
583 2077
583 2178
583 2199
584 645
584 665
584 667
584 669
584 673
584 695
584 705
584 708
584 712
584 715
584 743
584 760
584 768
584 782
584 800
584 813
584 814
584 836
584 841
584 858
584 864
584 888
584 892
584 903
584 907
584 915
584 954
584 961
584 980
584 991
584 1003
584 1015
584 1029
584 1035
584 1053
584 1058
584 1062
584 1069
584 1078
584 1086
584 1089
584 1092
584 1111
584 1144
584 1150
584 1208
584 1225
584 1256
584 1265
584 1280
584 1308
584 1329
584 1375
584 1390
584 1394
584 1414
584 1421
584 1425
584 1499
584 1502
584 1512
584 1548
584 1558
584 1561
584 1573
584 1578
584 1588
584 1590
584 1643
584 1671
584 1677
584 1679
584 1715
584 1717
584 1738
584 1754
584 1782
584 1789
584 1836
584 1844
584 1849
584 1859
584 1921
584 1961
584 1980
584 2023
584 2042
584 2049
584 2066
584 2068
584 2089
584 2147
584 2151
584 2154
584 2160
584 2177
584 2190
584 2204
584 2223
584 2240
584 2244
584 2258
584 2261
584 2274
584 2280
584 2304
584 2311
585 588
585 589
585 624
585 643
585 662
585 685
585 690
585 693
585 714
585 727
585 756
585 775
585 816
585 824
585 848
585 860
585 876
585 883
585 886
585 890
585 894
585 923
585 924
585 950
585 953
585 1010
585 1023
585 1030
585 1038
585 1045
585 1064
585 1079
585 1082
585 1092
585 1095
585 1096
585 1143
585 1149
585 1152
585 1169
585 1177
585 1180
585 1205
585 1210
585 1252
585 1262
585 1268
585 1281
585 1288
585 1312
585 1330
585 1332
585 1347
585 1358
585 1362
585 1364
585 1405
585 1411
585 1424
585 1485
585 1494
585 1500
585 1501
585 1559
585 1579
585 1599
585 1615
585 1621
585 1623
585 1625
585 1672
585 1676
585 1716
585 1742
585 1769
585 1809
585 1824
585 1873
585 1896
585 1909
585 1924
585 1963
585 1986
585 2027
585 2143
585 2164
585 2167
585 2192
585 2196
585 2210
585 2214
585 2225
585 2233
585 2312
586 642
586 735
586 765
586 792
586 1024
586 1090
586 1156
586 1325
586 1339
586 1384
586 1405
586 1503
586 1580
586 1625
586 1684
586 1739
586 1999
586 2016
586 2303
587 652
587 668
587 672
587 710
587 746
587 754
587 759
587 765
587 819
587 825
587 877
587 908
587 917
587 928
587 932
587 945
587 951
587 952
587 976
587 1008
587 1038
587 1046
587 1058
587 1063
587 1069
587 1104
587 1111
587 1117
587 1138
587 1143
587 1155
587 1170
587 1171
587 1181
587 1184
587 1204
587 1246
587 1280
587 1311
587 1337
587 1354
587 1393
587 1411
587 1425
587 1427
587 1439
587 1448
587 1451
587 1459
587 1482
587 1518
587 1581
587 1583
587 1590
587 1637
587 1643
587 1648
587 1667
587 1669
587 1703
587 1728
587 1765
587 1792
587 1825
587 1839
587 1842
587 1845
587 1849
587 1851
587 1857
587 1860
587 1868
587 1895
587 1908
587 1921
587 1951
587 1991
587 2039
587 2066
587 2089
587 2097
587 2124
587 2185
587 2187
587 2254
587 2260
587 2261
587 2296
588 628
588 629
588 641
588 643
588 659
588 665
588 683
588 690
588 729
588 730
588 735
588 738
588 759
588 764
588 780
588 782
588 791
588 800
588 812
588 823
588 824
588 827
588 835
588 836
588 843
588 848
588 853
588 861
588 868
588 875
588 879
588 883
588 886
588 898
588 901
588 930
588 942
588 950
588 953
588 980
588 1023
588 1030
588 1038
588 1062
588 1084
588 1094
588 1102
588 1110
588 1113
588 1115
588 1125
588 1149
588 1172
588 1174
588 1180
588 1181
588 1191
588 1213
588 1219
588 1238
588 1244
588 1259
588 1274
588 1285
588 1296
588 1298
588 1305
588 1308
588 1321
588 1326
588 1362
588 1364
588 1378
588 1380
588 1394
588 1399
588 1411
588 1423
588 1424
588 1491
588 1494
588 1503
588 1513
588 1540
588 1584
588 1594
588 1599
588 1621
588 1626
588 1628
588 1646
588 1663
588 1671
588 1680
588 1683
588 1760
588 1767
588 1782
588 1821
588 1870
588 1890
588 1894
588 1951
588 1971
588 2005
588 2022
588 2036
588 2073
588 2079
588 2096
588 2110
588 2140
588 2145
588 2146
588 2167
588 2183
588 2196
588 2208
588 2212
588 2225
588 2233
588 2255
588 2269
588 2284
588 2307
589 591
589 594
589 601
589 609
589 617
589 643
589 677
589 680
589 687
589 701
589 735
589 767
589 778
589 791
589 808
589 852
589 872
589 884
589 922
589 928
589 930
589 948
589 954
589 958
589 965
589 972
589 975
589 996
589 998
589 1023
589 1024
589 1102
589 1165
589 1169
589 1175
589 1186
589 1203
589 1275
589 1277
589 1325
589 1352
589 1353
589 1355
589 1399
589 1411
589 1424
589 1435
589 1460
589 1485
589 1495
589 1499
589 1511
589 1521
589 1564
589 1566
589 1571
589 1586
589 1598
589 1623
589 1640
589 1642
589 1663
589 1668
589 1672
589 1692
589 1697
589 1717
589 1723
589 1726
589 1741
589 1742
589 1814
589 1834
589 1863
589 1873
589 1880
589 1916
589 1958
589 1964
589 1969
589 1971
589 1995
589 1999
589 2008
589 2057
589 2089
589 2116
589 2129
589 2154
589 2175
589 2259
589 2268
589 2307
590 674
590 694
590 704
590 776
590 791
590 792
590 798
590 849
590 850
590 862
590 874
590 919
590 926
590 944
590 972
590 977
590 1019
590 1051
590 1062
590 1063
590 1104
590 1155
590 1164
590 1166
590 1167
590 1189
590 1208
590 1281
590 1282
590 1303
590 1361
590 1368
590 1374
590 1398
590 1446
590 1467
590 1471
590 1502
590 1515
590 1557
590 1581
590 1583
590 1590
590 1639
590 1669
590 1706
590 1723
590 1745
590 1752
590 1798
590 1806
590 1821
590 1842
590 1854
590 1864
590 1866
590 1879
590 1927
590 1951
590 1956
590 1977
590 2046
590 2156
590 2245
590 2260
590 2306
591 610
591 611
591 623
591 652
591 672
591 705
591 711
591 712
591 738
591 756
591 785
591 800
591 825
591 888
591 918
591 919
591 932
591 937
591 998
591 1038
591 1062
591 1063
591 1070
591 1092
591 1110
591 1111
591 1124
591 1168
591 1184
591 1189
591 1204
591 1208
591 1265
591 1281
591 1300
591 1308
591 1337
591 1343
591 1385
591 1425
591 1485
591 1558
591 1583
591 1590
591 1667
591 1669
591 1671
591 1708
591 1715
591 1717
591 1746
591 1755
591 1782
591 1803
591 1825
591 1839
591 1844
591 1849
591 1866
591 1888
591 1921
591 1931
591 1951
591 2049
591 2066
591 2069
591 2129
591 2151
591 2160
591 2177
591 2206
591 2237
591 2245
591 2254
591 2258
591 2260
591 2261
591 2264
591 2265
591 2274
591 2304
592 639
592 677
592 688
592 698
592 728
592 759
592 786
592 787
592 797
592 798
592 808
592 860
592 863
592 877
592 883
592 898
592 922
592 924
592 931
592 937
592 945
592 960
592 992
592 1008
592 1009
592 1011
592 1023
592 1046
592 1050
592 1060
592 1071
592 1085
592 1092
592 1101
592 1110
592 1115
592 1142
592 1143
592 1166
592 1175
592 1177
592 1205
592 1211
592 1225
592 1232
592 1238
592 1251
592 1254
592 1309
592 1348
592 1356
592 1392
592 1398
592 1404
592 1411
592 1424
592 1427
592 1439
592 1455
592 1459
592 1485
592 1489
592 1511
592 1513
592 1520
592 1537
592 1566
592 1576
592 1579
592 1580
592 1581
592 1598
592 1600
592 1606
592 1615
592 1628
592 1637
592 1650
592 1672
592 1674
592 1697
592 1754
592 1765
592 1792
592 1804
592 1812
592 1824
592 1834
592 1845
592 1852
592 1869
592 1873
592 1880
592 1883
592 1919
592 1949
592 1951
592 1956
592 1974
592 1977
592 2003
592 2013
592 2037
592 2055
592 2060
592 2062
592 2067
592 2082
592 2089
592 2104
592 2129
592 2143
592 2147
592 2175
592 2198
592 2225
592 2229
592 2232
592 2256
592 2269
592 2272
592 2306
593 607
593 623
593 640
593 641
593 645
593 672
593 679
593 685
593 705
593 707
593 711
593 736
593 741
593 750
593 760
593 786
593 800
593 819
593 840
593 872
593 898
593 908
593 934
593 956
593 981
593 986
593 996
593 1004
593 1021
593 1029
593 1048
593 1069
593 1073
593 1084
593 1111
593 1120
593 1127
593 1128
593 1136
593 1175
593 1233
593 1245
593 1256
593 1258
593 1267
593 1279
593 1280
593 1301
593 1329
593 1354
593 1375
593 1413
593 1433
593 1451
593 1496
593 1503
593 1535
593 1539
593 1611
593 1634
593 1674
593 1684
593 1697
593 1700
593 1718
593 1750
593 1761
593 1778
593 1783
593 1795
593 1799
593 1804
593 1815
593 1878
593 1885
593 1903
593 1908
593 1911
593 1931
593 1936
593 1957
593 1975
593 2007
593 2017
593 2054
593 2060
593 2067
593 2081
593 2088
593 2094
593 2104
593 2146
593 2149
593 2203
593 2215
593 2220
593 2236
593 2237
593 2240
593 2266
594 601
594 609
594 610
594 613
594 617
594 643
594 665
594 670
594 677
594 701
594 702
594 720
594 732
594 754
594 782
594 791
594 835
594 841
594 848
594 858
594 872
594 884
594 930
594 965
594 972
594 975
594 1011
594 1023
594 1048
594 1164
594 1165
594 1169
594 1175
594 1177
594 1186
594 1206
594 1229
594 1233
594 1277
594 1308
594 1353
594 1355
594 1358
594 1415
594 1425
594 1435
594 1459
594 1520
594 1530
594 1564
594 1598
594 1640
594 1643
594 1657
594 1663
594 1668
594 1687
594 1709
594 1717
594 1726
594 1741
594 1743
594 1790
594 1835
594 1842
594 1860
594 1873
594 1885
594 1922
594 1928
594 1962
594 1964
594 1976
594 1999
594 2015
594 2057
594 2089
594 2116
594 2129
594 2146
594 2220
594 2264
595 600
595 621
595 634
595 646
595 657
595 717
595 740
595 749
595 757
595 771
595 783
595 834
595 867
595 889
595 891
595 896
595 914
595 925
595 957
595 962
595 967
595 978
595 987
595 999
595 1026
595 1065
595 1099
595 1100
595 1107
595 1114
595 1123
595 1126
595 1131
595 1141
595 1146
595 1154
595 1183
595 1190
595 1192
595 1197
595 1199
595 1202
595 1205
595 1213
595 1226
595 1239
595 1243
595 1255
595 1293
595 1306
595 1307
595 1320
595 1346
595 1351
595 1365
595 1374
595 1391
595 1436
595 1452
595 1468
595 1477
595 1486
595 1525
595 1527
595 1534
595 1536
595 1543
595 1551
595 1574
595 1585
595 1589
595 1591
595 1592
595 1610
595 1613
595 1616
595 1665
595 1678
595 1696
595 1710
595 1714
595 1721
595 1729
595 1733
595 1736
595 1739
595 1756
595 1757
595 1758
595 1759
595 1791
595 1794
595 1800
595 1819
595 1820
595 1830
595 1838
595 1846
595 1847
595 1865
595 1875
595 1898
595 1908
595 1930
595 1933
595 1934
595 1938
595 1952
595 1970
595 1975
595 1978
595 1981
595 2001
595 2006
595 2009
595 2011
595 2038
595 2041
595 2044
595 2052
595 2053
595 2061
595 2077
595 2152
595 2153
595 2217
595 2218
595 2230
595 2239
595 2287
595 2294
595 2297
595 2302
596 648
596 686
596 704
596 736
596 751
596 786
596 792
596 798
596 807
596 822
596 848
596 904
596 908
596 924
596 928
596 937
596 959
596 960
596 993
596 1008
596 1009
596 1027
596 1046
596 1092
596 1110
596 1139
596 1151
596 1205
596 1253
596 1254
596 1259
596 1268
596 1309
596 1385
596 1388
596 1396
596 1429
596 1440
596 1455
596 1466
596 1520
596 1563
596 1569
596 1670
596 1697
596 1763
596 1780
596 1833
596 1852
596 1863
596 1869
596 1907
596 1919
596 1949
596 1956
596 1966
596 1974
596 1979
596 1987
596 1988
596 2004
596 2049
596 2058
596 2060
596 2073
596 2074
596 2093
596 2117
596 2140
596 2295
596 2304
597 601
597 702
597 761
597 822
597 1113
597 1188
597 1229
597 1358
597 1409
597 1654
597 1683
597 1697
597 1809
597 1837
597 1844
597 1870
597 2027
597 2060
597 2095
597 2161
597 2212
597 2240
598 678
598 714
598 727
598 771
598 795
598 854
598 856
598 876
598 914
598 924
598 931
598 940
598 946
598 950
598 967
598 974
598 989
598 1052
598 1080
598 1122
598 1140
598 1187
598 1192
598 1269
598 1278
598 1281
598 1287
598 1290
598 1292
598 1307
598 1316
598 1320
598 1342
598 1364
598 1391
598 1394
598 1405
598 1417
598 1452
598 1453
598 1472
598 1534
598 1536
598 1574
598 1579
598 1602
598 1610
598 1619
598 1656
598 1722
598 1725
598 1791
598 1801
598 1816
598 1889
598 1952
598 1963
598 2011
598 2061
598 2077
598 2151
598 2156
598 2164
598 2167
598 2188
598 2199
598 2230
598 2294
599 633
599 714
599 755
599 798
599 829
599 871
599 892
599 980
599 1029
599 1060
599 1066
599 1075
599 1084
599 1086
599 1145
599 1159
599 1185
599 1208
599 1253
599 1283
599 1301
599 1312
599 1340
599 1352
599 1361
599 1433
599 1437
599 1440
599 1442
599 1450
599 1488
599 1503
599 1505
599 1508
599 1539
599 1558
599 1561
599 1563
599 1573
599 1576
599 1590
599 1611
599 1650
599 1676
599 1771
599 1786
599 1803
599 1812
599 1825
599 1840
599 1848
599 1874
599 1919
599 1935
599 1954
599 2023
599 2024
599 2037
599 2049
599 2066
599 2068
599 2076
599 2097
599 2128
599 2156
599 2177
599 2204
599 2206
599 2220
599 2252
599 2254
599 2258
599 2261
599 2265
599 2304
599 2311
600 625
600 646
600 664
600 680
600 692
600 740
600 867
600 891
600 899
600 914
600 925
600 999
600 1052
600 1099
600 1123
600 1134
600 1146
600 1182
600 1183
600 1192
600 1226
600 1239
600 1243
600 1306
600 1346
600 1374
600 1381
600 1486
600 1527
600 1532
600 1543
600 1585
600 1589
600 1592
600 1610
600 1613
600 1666
600 1678
600 1711
600 1729
600 1736
600 1739
600 1757
600 1816
600 1819
600 1820
600 1830
600 1847
600 1861
600 1898
600 1934
600 1970
600 1981
600 2001
600 2011
600 2043
600 2044
600 2077
600 2239
600 2293
601 609
601 617
601 635
601 639
601 670
601 701
601 702
601 820
601 822
601 835
601 846
601 848
601 864
601 865
601 878
601 879
601 898
601 902
601 912
601 930
601 931
601 950
601 956
601 990
601 998
601 1048
601 1092
601 1095
601 1122
601 1165
601 1188
601 1210
601 1219
601 1229
601 1238
601 1274
601 1277
601 1288
601 1353
601 1358
601 1364
601 1387
601 1400
601 1409
601 1415
601 1462
601 1512
601 1517
601 1549
601 1554
601 1556
601 1564
601 1601
601 1609
601 1619
601 1621
601 1629
601 1654
601 1668
601 1683
601 1687
601 1697
601 1699
601 1740
601 1748
601 1750
601 1775
601 1793
601 1809
601 1815
601 1837
601 1870
601 1881
601 1885
601 1909
601 1957
601 1976
601 1983
601 1992
601 1996
601 2008
601 2016
601 2027
601 2040
601 2057
601 2060
601 2089
601 2095
601 2098
601 2121
601 2135
601 2166
601 2167
601 2193
601 2196
601 2201
601 2212
601 2222
601 2225
601 2240
601 2270
601 2271
602 603
602 639
602 670
602 677
602 729
602 761
602 776
602 791
602 793
602 941
602 970
602 975
602 1011
602 1023
602 1067
602 1113
602 1121
602 1124
602 1152
602 1177
602 1186
602 1219
602 1238
602 1244
602 1285
602 1404
602 1556
602 1723
602 1751
602 1814
602 1870
602 1965
602 2089
602 2106
602 2130
602 2174
602 2193
602 2196
602 2221
602 2245
602 2268
603 639
603 716
603 735
603 770
603 776
603 853
603 863
603 893
603 941
603 983
603 1063
603 1133
603 1150
603 1156
603 1164
603 1280
603 1344
603 1482
603 1512
603 1653
603 1703
603 1743
603 1751
603 1767
603 1781
603 1796
603 1849
603 2012
603 2056
603 2106
603 2264
604 930
604 993
604 1122
604 1177
604 1246
604 1252
604 1281
604 1297
604 1332
604 1492
604 1513
604 1664
604 1886
604 2309
605 633
605 640
605 651
605 705
605 712
605 724
605 793
605 873
605 934
605 952
605 1021
605 1039
605 1058
605 1073
605 1077
605 1120
605 1171
605 1184
605 1220
605 1236
605 1258
605 1329
605 1478
605 1523
605 1537
605 1630
605 1638
605 1646
605 1724
605 1755
605 1774
605 1799
605 1804
605 1810
605 1827
605 1845
605 1879
605 1883
605 1950
605 1982
605 1984
605 2021
605 2034
605 2073
605 2109
605 2128
605 2171
605 2195
605 2215
605 2234
605 2242
605 2254
605 2267
605 2280
605 2306
606 667
606 673
606 728
606 752
606 782
606 798
606 841
606 909
606 938
606 980
606 983
606 1029
606 1053
606 1110
606 1253
606 1348
606 1371
606 1390
606 1466
606 1520
606 1563
606 1573
606 1588
606 1676
606 1677
606 1702
606 1906
606 1907
606 1949
606 1963
606 1980
606 2065
606 2070
606 2074
606 2128
606 2147
606 2154
606 2191
606 2195
606 2204
606 2228
606 2263
606 2311
607 636
607 665
607 681
607 701
607 711
607 723
607 737
607 750
607 753
607 793
607 808
607 815
607 819
607 822
607 850
607 908
607 916
607 919
607 934
607 935
607 956
607 969
607 986
607 988
607 1105
607 1117
607 1120
607 1128
607 1142
607 1163
607 1175
607 1176
607 1221
607 1225
607 1245
607 1279
607 1300
607 1308
607 1318
607 1387
607 1413
607 1451
607 1496
607 1500
607 1502
607 1520
607 1535
607 1540
607 1578
607 1583
607 1624
607 1626
607 1630
607 1663
607 1668
607 1761
607 1774
607 1825
607 1854
607 1860
607 1864
607 1897
607 1903
607 1911
607 1926
607 1931
607 1946
607 1961
607 1973
607 2007
607 2025
607 2043
607 2094
607 2115
607 2120
607 2138
607 2214
607 2233
607 2235
607 2260
607 2277
607 2292
608 898
608 944
608 1050
608 1190
608 1339
608 1485
608 1564
608 1931
608 2027
608 2202
609 617
609 643
609 677
609 701
609 737
609 791
609 872
609 930
609 965
609 975
609 1023
609 1156
609 1165
609 1169
609 1170
609 1175
609 1186
609 1189
609 1233
609 1277
609 1281
609 1327
609 1352
609 1415
609 1460
609 1462
609 1595
609 1606
609 1642
609 1663
609 1668
609 1717
609 1726
609 1790
609 1814
609 1873
609 1922
609 1968
609 1999
609 2057
609 2066
609 2089
609 2116
609 2129
609 2144
609 2150
609 2220
609 2236
609 2240
610 611
610 636
610 640
610 665
610 669
610 691
610 705
610 711
610 712
610 732
610 738
610 748
610 751
610 785
610 808
610 825
610 831
610 837
610 840
610 861
610 863
610 864
610 889
610 918
610 930
610 932
610 934
610 944
610 972
610 992
610 998
610 1009
610 1025
610 1050
610 1062
610 1063
610 1070
610 1082
610 1085
610 1089
610 1092
610 1111
610 1117
610 1118
610 1120
610 1167
610 1168
610 1171
610 1176
610 1186
610 1189
610 1208
610 1218
610 1220
610 1225
610 1234
610 1265
610 1280
610 1281
610 1283
610 1286
610 1304
610 1308
610 1337
610 1343
610 1371
610 1384
610 1390
610 1392
610 1394
610 1415
610 1425
610 1432
610 1434
610 1439
610 1462
610 1485
610 1499
610 1520
610 1533
610 1542
610 1546
610 1554
610 1558
610 1566
610 1568
610 1576
610 1583
610 1586
610 1590
610 1612
610 1620
610 1632
610 1633
610 1646
610 1667
610 1669
610 1671
610 1679
610 1706
610 1708
610 1715
610 1717
610 1718
610 1726
610 1737
610 1778
610 1785
610 1792
610 1803
610 1815
610 1825
610 1844
610 1848
610 1853
610 1864
610 1873
610 1885
610 1888
610 1898
610 1901
610 1903
610 1908
610 1911
610 1921
610 1925
610 1945
610 1963
610 1974
610 1980
610 1984
610 1986
610 2015
610 2023
610 2037
610 2043
610 2049
610 2056
610 2057
610 2066
610 2073
610 2081
610 2120
610 2133
610 2146
610 2160
610 2162
610 2185
610 2186
610 2187
610 2195
610 2217
610 2228
610 2237
610 2245
610 2258
610 2261
610 2274
610 2280
610 2304
610 2311
611 623
611 640
611 652
611 711
611 712
611 715
611 738
611 800
611 888
611 932
611 961
611 1063
611 1111
611 1137
611 1138
611 1159
611 1168
611 1184
611 1208
611 1273
611 1276
611 1283
611 1329
611 1337
611 1354
611 1416
611 1439
611 1497
611 1558
611 1581
611 1590
611 1611
611 1634
611 1667
611 1669
611 1708
611 1746
611 1792
611 1839
611 1844
611 1849
611 1859
611 1866
611 1908
611 1921
611 1936
611 2049
611 2066
611 2089
611 2160
611 2232
611 2237
611 2258
611 2260
611 2261
612 799
612 896
612 995
612 1525
612 1534
612 1720
612 2002
612 2107
612 2137
612 2155
612 2178
612 2230
613 629
613 638
613 641
613 683
613 698
613 715
613 729
613 735
613 754
613 765
613 791
613 792
613 794
613 809
613 810
613 825
613 827
613 864
613 868
613 912
613 928
613 930
613 965
613 984
613 1020
613 1044
613 1118
613 1120
613 1130
613 1143
613 1146
613 1165
613 1186
613 1232
613 1265
613 1305
613 1311
613 1315
613 1331
613 1377
613 1409
613 1446
613 1500
613 1521
613 1539
613 1546
613 1595
613 1633
613 1640
613 1717
613 1726
613 1743
613 1815
613 1835
613 1879
613 1882
613 1916
613 1928
613 1971
613 1974
613 1988
613 2046
613 2055
613 2069
613 2089
613 2105
613 2182
613 2190
613 2260
613 2303
613 2309
614 625
614 633
614 705
614 744
614 782
614 798
614 836
614 881
614 883
614 915
614 947
614 981
614 1003
614 1031
614 1075
614 1136
614 1150
614 1160
614 1233
614 1308
614 1352
614 1450
614 1483
614 1508
614 1515
614 1539
614 1591
614 1650
614 1734
614 1751
614 1755
614 1790
614 1796
614 1799
614 1812
614 1818
614 1825
614 1874
614 1932
614 1935
614 1949
614 1953
614 1954
614 1982
614 2037
614 2038
614 2055
614 2056
614 2101
614 2120
614 2149
614 2156
614 2220
614 2223
614 2227
614 2234
614 2277
614 2280
615 1244
616 633
616 649
616 704
616 724
616 736
616 755
616 770
616 786
616 787
616 788
616 798
616 807
616 808
616 824
616 829
616 830
616 836
616 842
616 873
616 877
616 900
616 937
616 938
616 939
616 947
616 955
616 960
616 983
616 997
616 1013
616 1046
616 1066
616 1074
616 1079
616 1084
616 1085
616 1139
616 1145
616 1185
616 1200
616 1253
616 1254
616 1271
616 1276
616 1309
616 1333
616 1366
616 1371
616 1385
616 1392
616 1398
616 1457
616 1521
616 1528
616 1542
616 1561
616 1563
616 1566
616 1568
616 1576
616 1670
616 1702
616 1709
616 1727
616 1779
616 1793
616 1796
616 1802
616 1804
616 1810
616 1822
616 1827
616 1834
616 1840
616 1845
616 1848
616 1852
616 1869
616 1903
616 1907
616 1918
616 1924
616 1939
616 1949
616 1974
616 1980
616 1982
616 1986
616 1998
616 2024
616 2045
616 2068
616 2072
616 2097
616 2099
616 2104
616 2176
616 2234
616 2242
616 2244
616 2251
616 2256
616 2263
616 2265
617 701
617 723
617 791
617 872
617 930
617 958
617 965
617 969
617 972
617 975
617 998
617 1023
617 1153
617 1165
617 1166
617 1175
617 1186
617 1270
617 1277
617 1325
617 1353
617 1355
617 1360
617 1415
617 1460
617 1499
617 1564
617 1595
617 1640
617 1663
617 1668
617 1672
617 1717
617 1726
617 1741
617 1814
617 1835
617 1873
617 1968
617 1995
617 2057
617 2129
617 2201
618 718
618 828
618 1107
618 1382
618 1431
618 1614
618 2297
618 2302
619 698
619 898
619 954
619 961
619 1158
619 1268
619 1380
619 1387
619 1464
619 1485
619 1628
619 1965
619 2183
619 2298
620 648
620 688
620 786
620 808
620 877
620 1054
620 1101
620 1254
620 1281
620 1312
620 1348
620 1371
620 1373
620 1405
620 1437
620 1455
620 1487
620 1511
620 1550
620 1566
620 1679
620 1684
620 1709
620 1802
620 1852
620 1868
620 1918
620 1999
620 2051
620 2059
620 2060
620 2069
620 2093
620 2195
621 657
621 783
621 914
621 946
621 957
621 989
621 1090
621 1107
621 1154
621 1183
621 1248
621 1263
621 1290
621 1320
621 1346
621 1365
621 1370
621 1374
621 1378
621 1386
621 1417
621 1453
621 1485
621 1493
621 1543
621 1651
621 1661
621 1846
621 1938
621 1943
621 1981
621 2044
621 2137
621 2304
622 625
622 678
622 696
622 790
622 799
622 943
622 1018
622 1099
622 1129
622 1157
622 1197
622 1226
622 1227
622 1230
622 1278
622 1313
622 1351
622 1374
622 1402
622 1414
622 1417
622 1534
622 1536
622 1543
622 1589
622 1593
622 1720
622 1721
622 1846
622 1875
622 1898
622 1938
622 1947
622 1963
622 2001
622 2002
622 2052
622 2156
622 2188
622 2199
622 2239
622 2256
622 2283
622 2287
622 2302
623 633
623 640
623 652
623 676
623 707
623 708
623 738
623 746
623 755
623 759
623 782
623 786
623 787
623 839
623 848
623 892
623 915
623 932
623 947
623 954
623 986
623 996
623 998
623 1004
623 1036
623 1038
623 1039
623 1048
623 1051
623 1058
623 1060
623 1068
623 1069
623 1073
623 1075
623 1086
623 1111
623 1118
623 1137
623 1159
623 1168
623 1171
623 1176
623 1184
623 1185
623 1232
623 1236
623 1250
623 1258
623 1265
623 1270
623 1273
623 1274
623 1275
623 1280
623 1282
623 1329
623 1333
623 1340
623 1354
623 1361
623 1416
623 1425
623 1433
623 1437
623 1439
623 1440
623 1444
623 1450
623 1488
623 1497
623 1503
623 1505
623 1539
623 1558
623 1561
623 1563
623 1576
623 1583
623 1590
623 1598
623 1611
623 1634
623 1650
623 1667
623 1669
623 1674
623 1697
623 1708
623 1724
623 1730
623 1734
623 1779
623 1787
623 1799
623 1804
623 1812
623 1825
623 1840
623 1844
623 1848
623 1849
623 1852
623 1864
623 1866
623 1874
623 1888
623 1918
623 1921
623 1927
623 1931
623 1964
623 1984
623 1992
623 2021
623 2024
623 2027
623 2037
623 2049
623 2060
623 2066
623 2069
623 2076
623 2084
623 2089
623 2104
623 2120
623 2132
623 2133
623 2150
623 2151
623 2156
623 2168
623 2177
623 2189
623 2206
623 2215
623 2232
623 2234
623 2236
623 2242
623 2245
623 2254
623 2258
623 2261
623 2265
623 2268
623 2274
624 636
624 667
624 681
624 770
624 808
624 818
624 860
624 877
624 884
624 916
624 977
624 1008
624 1016
624 1043
624 1046
624 1110
624 1133
624 1212
624 1281
624 1305
624 1318
624 1330
624 1368
624 1371
624 1388
624 1424
624 1438
624 1455
624 1457
624 1502
624 1519
624 1538
624 1542
624 1581
624 1583
624 1638
624 1645
624 1769
624 1817
624 1866
624 1906
624 1945
624 1962
624 1963
624 1966
624 1973
624 1999
624 2025
624 2034
624 2056
624 2062
624 2092
624 2191
624 2195
624 2202
624 2225
624 2246
624 2260
624 2275
625 790
625 867
625 893
625 957
625 1031
625 1099
625 1126
625 1136
625 1141
625 1161
625 1190
625 1226
625 1227
625 1278
625 1376
625 1395
625 1402
625 1436
625 1483
625 1532
625 1666
625 1671
625 1720
625 1736
625 1907
625 2038
625 2114
625 2119
625 2134
625 2152
625 2156
625 2188
625 2207
625 2223
625 2256
625 2269
625 2283
625 2287
626 999
626 1313
626 1351
626 1525
626 1620
626 1711
626 1828
626 1873
626 1898
627 741
627 790
627 834
627 995
627 1088
627 1107
627 1154
627 1243
627 1257
627 1266
627 1365
627 1525
627 1592
627 1651
627 1652
627 1830
627 1862
627 1962
627 2002
627 2044
627 2061
628 729
628 844
628 1213
628 1263
628 1272
628 1377
628 1592
628 1680
628 2089
629 672
629 709
629 735
629 756
629 759
629 816
629 825
629 835
629 861
629 865
629 868
629 910
629 919
629 969
629 971
629 984
629 1044
629 1049
629 1051
629 1069
629 1072
629 1093
629 1102
629 1115
629 1143
629 1166
629 1167
629 1175
629 1211
629 1244
629 1299
629 1315
629 1368
629 1384
629 1394
629 1405
629 1430
629 1439
629 1471
629 1554
629 1581
629 1639
629 1680
629 1717
629 1718
629 1738
629 1753
629 1760
629 1795
629 1798
629 1821
629 1842
629 1858
629 1864
629 1879
629 1951
629 1991
629 2016
629 2027
629 2067
629 2167
629 2175
629 2197
630 658
630 661
630 679
630 683
630 689
630 703
630 721
630 758
630 883
630 901
630 904
630 928
630 993
630 998
630 1020
630 1054
630 1059
630 1071
630 1079
630 1092
630 1094
630 1103
630 1130
630 1133
630 1169
630 1174
630 1176
630 1241
630 1246
630 1253
630 1259
630 1275
630 1281
630 1298
630 1347
630 1387
630 1423
630 1424
630 1427
630 1434
630 1491
630 1568
630 1570
630 1576
630 1580
630 1612
630 1638
630 1685
630 1690
630 1699
630 1769
630 1828
630 1873
630 1884
630 1890
630 1955
630 1963
630 1974
630 1988
630 1999
630 2005
630 2062
630 2078
630 2079
630 2241
631 693
631 694
631 701
631 709
631 735
631 742
631 756
631 778
631 792
631 824
631 833
631 848
631 855
631 865
631 874
631 876
631 883
631 893
631 894
631 898
631 949
631 950
631 970
631 1064
631 1071
631 1072
631 1090
631 1093
631 1095
631 1102
631 1103
631 1110
631 1149
631 1152
631 1172
631 1180
631 1203
631 1238
631 1244
631 1251
631 1281
631 1282
631 1287
631 1297
631 1364
631 1377
631 1378
631 1380
631 1384
631 1394
631 1405
631 1424
631 1458
631 1485
631 1503
631 1538
631 1554
631 1559
631 1564
631 1676
631 1716
631 1741
631 1743
631 1760
631 1767
631 1795
631 1824
631 1829
631 1873
631 1894
631 1908
631 1948
631 1987
631 1995
631 2016
631 2027
631 2062
631 2069
631 2167
631 2198
631 2225
631 2295
632 744
632 876
632 894
632 953
632 955
632 1140
632 1364
632 1501
632 1594
632 1621
632 1625
632 1793
632 2096
632 2175
633 649
633 662
633 706
633 709
633 712
633 748
633 755
633 798
633 805
633 808
633 830
633 836
633 837
633 840
633 850
633 855
633 871
633 876
633 881
633 892
633 894
633 900
633 906
633 907
633 947
633 955
633 981
633 997
633 1032
633 1058
633 1066
633 1068
633 1074
633 1075
633 1082
633 1084
633 1095
633 1145
633 1150
633 1159
633 1212
633 1228
633 1238
633 1250
633 1297
633 1299
633 1301
633 1304
633 1309
633 1333
633 1345
633 1352
633 1361
633 1366
633 1375
633 1404
633 1413
633 1433
633 1440
633 1448
633 1450
633 1488
633 1491
633 1493
633 1497
633 1508
633 1521
633 1528
633 1542
633 1547
633 1561
633 1563
633 1576
633 1586
633 1621
633 1633
633 1650
633 1685
633 1697
633 1727
633 1734
633 1755
633 1784
633 1786
633 1787
633 1790
633 1793
633 1796
633 1803
633 1810
633 1812
633 1813
633 1825
633 1848
633 1874
633 1888
633 1895
633 1904
633 1918
633 1924
633 1931
633 1935
633 1939
633 1949
633 1950
633 1957
633 1958
633 1969
633 1974
633 1982
633 1989
633 2024
633 2049
633 2051
633 2055
633 2063
633 2068
633 2076
633 2094
633 2097
633 2101
633 2120
633 2128
633 2134
633 2149
633 2150
633 2154
633 2156
633 2167
633 2168
633 2189
633 2197
633 2200
633 2206
633 2215
633 2225
633 2227
633 2234
633 2254
633 2263
633 2265
633 2289
633 2303
633 2304
634 650
634 664
634 680
634 771
634 790
634 799
634 808
634 914
634 943
634 1052
634 1109
634 1146
634 1157
634 1226
634 1374
634 1506
634 1543
634 1551
634 1589
634 1604
634 1613
634 1651
634 1666
634 1797
634 1816
634 1828
634 1846
634 1862
634 1898
634 2001
634 2011
634 2038
634 2044
634 2142
634 2239
634 2297
635 866
635 874
635 936
635 1153
635 1322
635 1339
635 1371
635 1400
635 1462
635 1549
635 1554
635 1577
635 1643
635 1748
635 1881
635 1885
635 1968
635 2015
635 2135
635 2170
635 2201
635 2221
635 2262
635 2277
636 681
636 711
636 723
636 750
636 805
636 808
636 815
636 818
636 819
636 863
636 898
636 908
636 916
636 934
636 956
636 961
636 986
636 1043
636 1060
636 1063
636 1093
636 1175
636 1176
636 1221
636 1232
636 1264
636 1281
636 1305
636 1318
636 1354
636 1388
636 1438
636 1444
636 1451
636 1496
636 1500
636 1502
636 1535
636 1581
636 1583
636 1643
636 1645
636 1775
636 1831
636 1871
636 1897
636 1903
636 1911
636 1926
636 1931
636 1945
636 1984
636 2025
636 2066
636 2092
636 2260
636 2262
637 642
637 687
637 730
637 843
637 901
637 922
637 942
637 996
637 1094
637 1102
637 1122
637 1174
637 1259
637 1298
637 1325
637 1362
637 1364
637 1399
637 1570
637 1571
637 1600
637 1605
637 1638
637 1685
637 1697
637 1769
637 1795
637 1823
637 1880
637 1899
637 1971
637 2027
637 2130
637 2175
637 2248
637 2252
638 641
638 715
638 731
638 735
638 864
638 956
638 1013
638 1156
638 1158
638 1244
638 1326
638 1360
638 1539
638 1546
638 1750
638 1843
638 1885
638 1891
638 2015
638 2017
638 2129
638 2190
638 2270
639 677
639 693
639 698
639 702
639 712
639 732
639 759
639 761
639 767
639 776
639 791
639 826
639 848
639 863
639 878
639 894
639 898
639 913
639 932
639 941
639 970
639 998
639 1011
639 1038
639 1055
639 1071
639 1095
639 1121
639 1124
639 1152
639 1171
639 1219
639 1238
639 1288
639 1344
639 1358
639 1364
639 1404
639 1424
639 1449
639 1512
639 1556
639 1564
639 1619
639 1621
639 1625
639 1723
639 1738
639 1751
639 1776
639 1844
639 1931
639 1957
639 1983
639 1995
639 1996
639 2012
639 2046
639 2049
639 2087
639 2089
639 2098
639 2103
639 2106
639 2117
639 2125
639 2130
639 2151
639 2174
639 2185
639 2193
639 2196
639 2221
639 2225
639 2268
639 2269
639 2289
640 672
640 676
640 685
640 722
640 736
640 755
640 787
640 805
640 839
640 892
640 932
640 956
640 983
640 986
640 1021
640 1039
640 1060
640 1073
640 1077
640 1137
640 1159
640 1212
640 1220
640 1233
640 1250
640 1265
640 1273
640 1280
640 1340
640 1354
640 1416
640 1433
640 1442
640 1450
640 1457
640 1487
640 1488
640 1495
640 1496
640 1497
640 1505
640 1583
640 1611
640 1634
640 1724
640 1730
640 1734
640 1737
640 1748
640 1780
640 1787
640 1799
640 1803
640 1809
640 1825
640 1844
640 1852
640 1874
640 1878
640 1909
640 1911
640 1919
640 1925
640 1931
640 1935
640 1982
640 1984
640 2003
640 2043
640 2049
640 2066
640 2120
640 2133
640 2146
640 2203
640 2215
640 2219
640 2227
640 2232
640 2265
640 2272
640 2295
640 2305
641 643
641 803
641 809
641 812
641 835
641 843
641 847
641 849
641 853
641 864
641 868
641 879
641 883
641 956
641 969
641 1004
641 1013
641 1020
641 1048
641 1049
641 1121
641 1125
641 1158
641 1205
641 1267
641 1305
641 1326
641 1334
641 1348
641 1364
641 1373
641 1411
641 1415
641 1521
641 1539
641 1546
641 1554
641 1568
641 1815
641 1834
641 1885
641 1891
641 1974
641 2043
641 2087
641 2129
641 2183
641 2190
641 2251
642 643
642 647
642 687
642 694
642 730
642 735
642 741
642 756
642 764
642 776
642 803
642 808
642 813
642 816
642 832
642 837
642 846
642 852
642 855
642 863
642 874
642 886
642 894
642 914
642 923
642 931
642 942
642 944
642 972
642 984
642 996
642 1024
642 1063
642 1068
642 1071
642 1094
642 1102
642 1103
642 1149
642 1181
642 1242
642 1244
642 1275
642 1281
642 1310
642 1363
642 1399
642 1404
642 1405
642 1406
642 1435
642 1448
642 1469
642 1474
642 1485
642 1544
642 1554
642 1560
642 1570
642 1571
642 1594
642 1600
642 1633
642 1634
642 1670
642 1697
642 1713
642 1795
642 1806
642 1821
642 1823
642 1873
642 1899
642 1913
642 1947
642 1963
642 1974
642 1987
642 2016
642 2022
642 2062
642 2069
642 2079
642 2145
642 2212
642 2213
642 2231
642 2248
642 2252
642 2284
642 2289
642 2304
642 2307
642 2309
643 653
643 654
643 677
643 680
643 683
643 687
643 691
643 701
643 703
643 715
643 721
643 735
643 759
643 762
643 764
643 780
643 791
643 792
643 802
643 807
643 824
643 835
643 843
643 853
643 861
643 872
643 877
643 879
643 883
643 886
643 898
643 928
643 930
643 954
643 958
643 965
643 969
643 991
643 996
643 1011
643 1023
643 1026
643 1071
643 1085
643 1094
643 1100
643 1110
643 1125
643 1130
643 1143
643 1164
643 1169
643 1175
643 1181
643 1186
643 1188
643 1203
643 1222
643 1251
643 1259
643 1268
643 1270
643 1281
643 1289
643 1296
643 1305
643 1313
643 1315
643 1326
643 1330
643 1348
643 1355
643 1363
643 1373
643 1380
643 1387
643 1392
643 1399
643 1401
643 1411
643 1424
643 1427
643 1434
643 1443
643 1460
643 1469
643 1485
643 1491
643 1513
643 1521
643 1527
643 1540
643 1542
643 1550
643 1552
643 1554
643 1563
643 1564
643 1569
643 1580
643 1582
643 1584
643 1599
643 1638
643 1642
643 1645
643 1646
643 1663
643 1668
643 1672
643 1685
643 1713
643 1717
643 1719
643 1726
643 1739
643 1760
643 1762
643 1769
643 1782
643 1798
643 1806
643 1814
643 1824
643 1863
643 1873
643 1886
643 1896
643 1908
643 1915
643 1918
643 1922
643 1933
643 1949
643 1963
643 1985
643 1999
643 2005
643 2013
643 2069
643 2082
643 2104
643 2116
643 2123
643 2129
643 2132
643 2139
643 2143
643 2147
643 2163
643 2183
643 2195
643 2268
643 2281
643 2298
643 2307
643 2309
644 735
644 793
644 801
644 853
644 884
644 902
644 958
644 1072
644 1102
644 1125
644 1244
644 1260
644 1387
644 1435
644 1554
644 1777
644 2016
644 2017
644 2264
645 662
645 667
645 676
645 760
645 782
645 798
645 836
645 892
645 903
645 907
645 915
645 957
645 980
645 981
645 986
645 1003
645 1011
645 1015
645 1021
645 1029
645 1039
645 1050
645 1089
645 1136
645 1161
645 1220
645 1256
645 1258
645 1303
645 1345
645 1361
645 1375
645 1390
645 1392
645 1413
645 1416
645 1493
645 1504
645 1508
645 1512
645 1515
645 1548
645 1563
645 1588
645 1634
645 1677
645 1754
645 1755
645 1763
645 1784
645 1787
645 1789
645 1799
645 1818
645 1859
645 1874
645 1878
645 1885
645 1903
645 1953
645 1954
645 1961
645 1980
645 1982
645 1984
645 1992
645 2024
645 2068
645 2094
645 2101
645 2147
645 2149
645 2156
645 2190
645 2191
645 2203
645 2204
645 2232
645 2244
645 2269
645 2277
645 2304
646 657
646 680
646 740
646 749
646 867
646 882
646 914
646 957
646 962
646 967
646 978
646 979
646 999
646 1052
646 1107
646 1126
646 1146
646 1157
646 1168
646 1182
646 1183
646 1192
646 1202
646 1306
646 1338
646 1350
646 1374
646 1402
646 1408
646 1417
646 1436
646 1469
646 1477
646 1534
646 1589
646 1592
646 1593
646 1610
646 1666
646 1711
646 1721
646 1736
646 1756
646 1819
646 1847
646 1898
646 1970
646 1981
646 2001
646 2011
646 2044
646 2052
646 2099
646 2199
646 2217
646 2239
646 2256
647 654
647 705
647 709
647 712
647 762
647 792
647 831
647 855
647 861
647 898
647 906
647 919
647 970
647 1016
647 1019
647 1057
647 1062
647 1127
647 1142
647 1189
647 1256
647 1262
647 1297
647 1304
647 1308
647 1327
647 1335
647 1355
647 1388
647 1410
647 1419
647 1448
647 1512
647 1523
647 1535
647 1538
647 1574
647 1579
647 1598
647 1630
647 1700
647 1732
647 1741
647 1751
647 1760
647 1774
647 1782
647 1785
647 1801
647 1804
647 1805
647 1863
647 1873
647 1874
647 1883
647 1893
647 1911
647 1913
647 1931
647 1967
647 1987
647 1995
647 2007
647 2021
647 2055
647 2073
647 2076
647 2105
647 2111
647 2115
647 2117
647 2120
647 2127
647 2195
647 2227
647 2259
647 2310
648 654
648 704
648 728
648 735
648 756
648 776
648 786
648 787
648 788
648 798
648 802
648 807
648 909
648 924
648 928
648 959
648 972
648 1027
648 1050
648 1067
648 1101
648 1102
648 1103
648 1136
648 1151
648 1214
648 1233
648 1241
648 1252
648 1262
648 1281
648 1352
648 1354
648 1396
648 1406
648 1420
648 1424
648 1455
648 1469
648 1483
648 1489
648 1531
648 1554
648 1563
648 1565
648 1569
648 1579
648 1580
648 1595
648 1599
648 1612
648 1645
648 1646
648 1674
648 1679
648 1684
648 1693
648 1744
648 1790
648 1812
648 1817
648 1822
648 1829
648 1841
648 1872
648 1883
648 1893
648 1903
648 1907
648 1919
648 1949
648 1963
648 1988
648 2003
648 2019
648 2021
648 2030
648 2048
648 2060
648 2065
648 2074
648 2112
648 2123
648 2129
648 2144
648 2163
648 2175
648 2202
648 2203
648 2225
648 2244
648 2251
648 2284
648 2295
648 2296
649 667
649 722
649 786
649 877
649 934
649 955
649 983
649 997
649 1046
649 1057
649 1058
649 1066
649 1074
649 1110
649 1120
649 1200
649 1212
649 1253
649 1411
649 1466
649 1476
649 1588
649 1802
649 1810
649 1827
649 1845
649 1848
649 1863
649 1907
649 1918
649 1924
649 1939
649 1949
649 1963
649 1998
649 2037
649 2062
649 2068
649 2171
649 2191
649 2234
649 2242
649 2272
650 749
650 771
650 967
650 999
650 1083
650 1109
650 1179
650 1281
650 1314
650 1445
650 1613
650 1651
650 1652
650 1797
650 1862
650 1873
650 1943
650 1970
650 2004
650 2173
650 2304
651 669
651 724
651 782
651 839
651 841
651 873
651 980
651 986
651 1058
651 1066
651 1073
651 1089
651 1171
651 1200
651 1236
651 1264
651 1268
651 1329
651 1366
651 1478
651 1587
651 1627
651 1677
651 1724
651 1827
651 1839
651 1904
651 2042
651 2068
651 2141
651 2151
651 2179
651 2215
651 2219
651 2234
651 2242
651 2254
651 2262
651 2277
652 676
652 707
652 711
652 738
652 782
652 815
652 825
652 850
652 861
652 932
652 980
652 998
652 1039
652 1063
652 1111
652 1137
652 1168
652 1184
652 1208
652 1273
652 1280
652 1281
652 1337
652 1340
652 1361
652 1377
652 1416
652 1421
652 1433
652 1502
652 1540
652 1561
652 1590
652 1611
652 1667
652 1669
652 1708
652 1730
652 1746
652 1755
652 1825
652 1831
652 1844
652 1848
652 1849
652 1888
652 1921
652 1931
652 1944
652 1982
652 1984
652 2023
652 2049
652 2066
652 2089
652 2146
652 2150
652 2151
652 2156
652 2160
652 2206
652 2215
652 2245
652 2265
652 2267
653 657
653 680
653 696
653 757
653 771
653 783
653 859
653 914
653 962
653 1015
653 1026
653 1052
653 1085
653 1100
653 1107
653 1183
653 1192
653 1259
653 1306
653 1417
653 1506
653 1527
653 1553
653 1582
653 1608
653 1682
653 1739
653 1819
653 1828
653 1846
653 1855
653 1873
653 1933
653 1999
653 2002
653 2004
653 2044
653 2178
653 2199
653 2253
654 709
654 741
654 756
654 764
654 835
654 884
654 893
654 923
654 937
654 949
654 1016
654 1091
654 1102
654 1133
654 1181
654 1214
654 1247
654 1297
654 1341
654 1355
654 1371
654 1405
654 1406
654 1411
654 1434
654 1435
654 1485
654 1513
654 1676
654 1684
654 1690
654 1732
654 1741
654 1744
654 1829
654 1835
654 1854
654 1872
654 1913
654 1950
654 1953
654 1958
654 1963
654 1964
654 1974
654 2022
654 2070
654 2108
654 2115
654 2175
654 2197
654 2213
654 2225
654 2295
654 2303
655 701
655 746
655 756
655 758
655 765
655 778
655 853
655 872
655 883
655 884
655 923
655 959
655 970
655 993
655 1004
655 1015
655 1090
655 1094
655 1103
655 1177
655 1244
655 1245
655 1259
655 1275
655 1281
655 1325
655 1347
655 1355
655 1377
655 1405
655 1466
655 1467
655 1469
655 1485
655 1492
655 1570
655 1598
655 1693
655 1741
655 1767
655 1783
655 1821
655 1870
655 1873
655 1890
655 1964
655 1988
655 1994
655 2028
655 2062
655 2081
655 2082
655 2140
655 2163
655 2175
655 2192
655 2198
655 2213
655 2295
655 2307
655 2309
656 746
656 756
656 778
656 800
656 810
656 812
656 825
656 827
656 923
656 984
656 998
656 1004
656 1063
656 1132
656 1166
656 1186
656 1224
656 1235
656 1238
656 1329
656 1355
656 1368
656 1371
656 1485
656 1533
656 1575
656 1595
656 1598
656 1620
656 1675
656 1717
656 1746
656 1866
656 1927
656 1931
656 1964
656 1986
656 2036
656 2069
656 2081
656 2089
656 2105
656 2124
656 2208
656 2213
656 2252
656 2264
656 2292
657 664
657 680
657 740
657 783
657 790
657 799
657 856
657 857
657 859
657 863
657 867
657 870
657 889
657 891
657 914
657 925
657 943
657 957
657 973
657 979
657 987
657 999
657 1025
657 1047
657 1052
657 1081
657 1107
657 1114
657 1123
657 1126
657 1146
657 1183
657 1190
657 1192
657 1199
657 1226
657 1227
657 1239
657 1240
657 1243
657 1266
657 1272
657 1284
657 1286
657 1293
657 1295
657 1306
657 1313
657 1351
657 1365
657 1374
657 1391
657 1412
657 1417
657 1468
657 1477
657 1486
657 1489
657 1522
657 1525
657 1527
657 1543
657 1551
657 1574
657 1589
657 1592
657 1610
657 1616
657 1661
657 1665
657 1666
657 1678
657 1694
657 1696
657 1711
657 1714
657 1721
657 1733
657 1736
657 1739
657 1773
657 1791
657 1819
657 1830
657 1846
657 1847
657 1889
657 1892
657 1933
657 1947
657 1981
657 2001
657 2004
657 2020
657 2044
657 2052
657 2053
657 2077
657 2142
657 2152
657 2178
657 2188
657 2199
657 2239
657 2256
657 2293
657 2302
657 2304
658 691
658 693
658 714
658 735
658 756
658 758
658 863
658 883
658 924
658 1008
658 1045
658 1071
658 1090
658 1094
658 1103
658 1143
658 1177
658 1241
658 1246
658 1251
658 1259
658 1275
658 1281
658 1298
658 1330
658 1331
658 1332
658 1348
658 1364
658 1371
658 1387
658 1396
658 1405
658 1411
658 1417
658 1424
658 1542
658 1550
658 1565
658 1566
658 1574
658 1580
658 1594
658 1612
658 1638
658 1672
658 1699
658 1716
658 1754
658 1769
658 1781
658 1802
658 1824
658 1828
658 1841
658 1884
658 1963
658 1999
658 2003
658 2021
658 2034
658 2058
658 2059
658 2062
658 2073
658 2080
658 2093
658 2132
658 2143
658 2147
658 2163
658 2187
658 2192
658 2198
658 2202
658 2210
658 2246
658 2296
658 2299
658 2312
659 764
659 819
659 835
659 853
659 879
659 884
659 893
659 902
659 961
659 969
659 1062
659 1072
659 1125
659 1244
659 1260
659 1300
659 1305
659 1326
659 1399
659 1411
659 1424
659 1435
659 1485
659 1521
659 1626
659 1775
659 1777
659 1806
659 1971
659 2027
659 2046
659 2212
660 675
660 677
660 679
660 686
660 714
660 748
660 792
660 801
660 808
660 821
660 860
660 862
660 920
660 938
660 990
660 1020
660 1133
660 1203
660 1247
660 1274
660 1378
660 1406
660 1490
660 1503
660 1508
660 1547
660 1625
660 1628
660 1676
660 1743
660 1760
660 1771
660 1805
660 1818
660 1858
660 1873
660 1896
660 1987
660 2013
660 2023
660 2035
660 2037
660 2055
660 2079
660 2220
660 2225
660 2268
660 2311
661 690
661 703
661 792
661 822
661 824
661 883
661 904
661 924
661 993
661 1009
661 1059
661 1103
661 1194
661 1254
661 1259
661 1275
661 1281
661 1424
661 1489
661 1570
661 1685
661 1804
661 1890
661 1948
661 1951
661 1966
661 2051
661 2078
661 2202
661 2210
662 724
662 743
662 788
662 871
662 915
662 1003
662 1073
662 1171
662 1184
662 1236
662 1268
662 1280
662 1469
662 1515
662 1643
662 1669
662 1703
662 1772
662 1825
662 1926
662 2045
662 2141
662 2232
662 2277
663 975
663 1011
663 1317
663 1421
663 1963
663 1965
663 2023
663 2089
663 2245
664 740
664 757
664 771
664 790
664 834
664 857
664 867
664 899
664 914
664 957
664 995
664 1033
664 1052
664 1065
664 1107
664 1146
664 1183
664 1190
664 1226
664 1230
664 1239
664 1286
664 1293
664 1306
664 1351
664 1374
664 1381
664 1402
664 1417
664 1452
664 1453
664 1477
664 1486
664 1527
664 1532
664 1534
664 1536
664 1543
664 1585
664 1589
664 1591
664 1592
664 1593
664 1610
664 1613
664 1666
664 1736
664 1756
664 1861
664 1898
664 1981
664 1999
664 2001
664 2013
664 2043
664 2044
664 2052
664 2080
664 2099
664 2227
664 2230
665 667
665 673
665 695
665 704
665 705
665 715
665 738
665 743
665 756
665 760
665 782
665 785
665 792
665 813
665 814
665 831
665 836
665 841
665 861
665 919
665 932
665 934
665 944
665 951
665 980
665 998
665 1029
665 1031
665 1035
665 1057
665 1062
665 1066
665 1082
665 1085
665 1111
665 1120
665 1128
665 1135
665 1142
665 1156
665 1158
665 1161
665 1176
665 1222
665 1249
665 1253
665 1256
665 1265
665 1283
665 1304
665 1308
665 1318
665 1335
665 1339
665 1372
665 1390
665 1410
665 1419
665 1421
665 1439
665 1451
665 1496
665 1502
665 1503
665 1512
665 1535
665 1558
665 1564
665 1573
665 1581
665 1583
665 1588
665 1590
665 1646
665 1660
665 1671
665 1677
665 1687
665 1708
665 1715
665 1716
665 1723
665 1745
665 1751
665 1760
665 1776
665 1782
665 1785
665 1792
665 1796
665 1798
665 1805
665 1844
665 1857
665 1859
665 1879
665 1885
665 1891
665 1921
665 1927
665 1951
665 1957
665 1967
665 1987
665 2015
665 2023
665 2037
665 2045
665 2049
665 2066
665 2068
665 2117
665 2138
665 2147
665 2151
665 2154
665 2163
665 2167
665 2192
665 2195
665 2204
665 2225
665 2240
665 2260
665 2269
665 2280
665 2295
665 2298
665 2310
665 2311
666 702
666 809
666 1171
666 1184
666 1233
666 1327
666 1669
666 1925
666 1974
666 2127
666 2203
667 673
667 760
667 768
667 782
667 798
667 836
667 841
667 858
667 907
667 920
667 980
667 983
667 991
667 1015
667 1029
667 1053
667 1068
667 1129
667 1212
667 1215
667 1253
667 1312
667 1345
667 1348
667 1357
667 1390
667 1457
667 1487
667 1512
667 1548
667 1563
667 1573
667 1588
667 1676
667 1677
667 1679
667 1754
667 1763
667 1859
667 1867
667 1906
667 1907
667 1919
667 1961
667 1980
667 2024
667 2060
667 2062
667 2147
667 2154
667 2191
667 2204
667 2228
667 2244
667 2272
667 2304
667 2311
668 685
668 710
668 759
668 816
668 819
668 915
668 917
668 928
668 945
668 951
668 952
668 986
668 1008
668 1037
668 1039
668 1069
668 1073
668 1077
668 1117
668 1171
668 1181
668 1280
668 1393
668 1442
668 1448
668 1451
668 1482
668 1518
668 1578
668 1626
668 1643
668 1648
668 1701
668 1703
668 1724
668 1772
668 1845
668 1849
668 1851
668 1857
668 1868
668 1895
668 1904
668 1921
668 2076
668 2097
668 2187
668 2254
668 2261
668 2296
669 673
669 695
669 747
669 760
669 782
669 814
669 858
669 980
669 1003
669 1089
669 1215
669 1421
669 1490
669 1549
669 1561
669 1573
669 1578
669 1643
669 1677
669 1961
669 1982
669 1996
669 2042
669 2167
670 753
670 776
670 792
670 793
670 815
670 893
670 894
670 898
670 941
670 972
670 990
670 1057
670 1072
670 1149
670 1165
670 1177
670 1186
670 1233
670 1265
670 1274
670 1394
670 1485
670 1517
670 1520
670 1530
670 1564
670 1628
670 1675
670 1697
670 1870
670 1948
670 1965
670 2089
670 2095
670 2130
670 2164
670 2196
670 2221
670 2281
670 2292
670 2299
671 783
671 995
671 1034
671 1154
671 1365
671 1386
671 1453
671 1485
671 1534
671 1651
671 1686
671 1711
671 1861
671 1970
671 2091
671 2302
672 676
672 707
672 781
672 843
672 902
672 922
672 971
672 976
672 986
672 1037
672 1044
672 1067
672 1104
672 1143
672 1171
672 1298
672 1329
672 1354
672 1371
672 1394
672 1430
672 1442
672 1495
672 1496
672 1505
672 1515
672 1542
672 1587
672 1676
672 1724
672 1765
672 1808
672 1821
672 1827
672 1844
672 1871
672 1984
672 2043
672 2046
672 2110
672 2146
672 2203
672 2232
672 2255
672 2264
672 2276
672 2307
673 674
673 675
673 685
673 695
673 705
673 706
673 708
673 712
673 714
673 743
673 747
673 748
673 754
673 755
673 760
673 768
673 782
673 813
673 814
673 841
673 848
673 858
673 892
673 915
673 918
673 920
673 932
673 980
673 983
673 991
673 998
673 1003
673 1029
673 1031
673 1035
673 1053
673 1062
673 1086
673 1089
673 1111
673 1117
673 1121
673 1142
673 1147
673 1150
673 1215
673 1217
673 1249
673 1279
673 1281
673 1312
673 1357
673 1390
673 1405
673 1421
673 1425
673 1437
673 1450
673 1488
673 1499
673 1518
673 1539
673 1548
673 1561
673 1573
673 1578
673 1588
673 1590
673 1643
673 1667
673 1671
673 1677
673 1679
673 1715
673 1771
673 1782
673 1799
673 1803
673 1813
673 1825
673 1836
673 1849
673 1859
673 1860
673 1885
673 1921
673 1927
673 1961
673 1979
673 1980
673 2015
673 2023
673 2042
673 2066
673 2089
673 2150
673 2151
673 2154
673 2160
673 2167
673 2177
673 2191
673 2204
673 2228
673 2240
673 2261
673 2274
673 2277
673 2280
673 2311
673 2312
674 704
674 755
674 798
674 841
674 850
674 932
674 938
674 961
674 981
674 983
674 1029
674 1039
674 1159
674 1198
674 1228
674 1279
674 1281
674 1282
674 1301
674 1309
674 1361
674 1398
674 1433
674 1440
674 1450
674 1490
674 1493
674 1504
674 1515
674 1718
674 1743
674 1755
674 1771
674 1786
674 1805
674 1806
674 1825
674 1848
674 1874
674 1931
674 1935
674 1953
674 1956
674 1977
674 2023
674 2056
674 2068
674 2134
674 2144
674 2149
674 2156
674 2252
674 2277
674 2295
674 2306
674 2311
675 768
675 819
675 915
675 934
675 1003
675 1086
675 1184
675 1196
675 1232
675 1421
675 1490
675 1520
675 1573
675 1578
675 1675
675 1677
675 1771
675 1896
675 1921
675 1926
675 2030
675 2042
675 2135
675 2138
675 2220
675 2277
676 685
676 711
676 723
676 738
676 753
676 798
676 805
676 813
676 815
676 819
676 840
676 846
676 848
676 850
676 861
676 880
676 906
676 915
676 917
676 932
676 945
676 961
676 986
676 1011
676 1021
676 1039
676 1050
676 1060
676 1111
676 1128
676 1137
676 1176
676 1188
676 1194
676 1208
676 1220
676 1221
676 1256
676 1267
676 1268
676 1273
676 1279
676 1280
676 1281
676 1304
676 1308
676 1318
676 1337
676 1340
676 1358
676 1361
676 1383
676 1388
676 1396
676 1398
676 1401
676 1413
676 1416
676 1433
676 1442
676 1444
676 1473
676 1482
676 1495
676 1497
676 1500
676 1515
676 1520
676 1561
676 1563
676 1611
676 1634
676 1677
676 1703
676 1708
676 1724
676 1730
676 1755
676 1770
676 1784
676 1786
676 1787
676 1799
676 1803
676 1812
676 1813
676 1825
676 1831
676 1844
676 1848
676 1851
676 1878
676 1888
676 1904
676 1911
676 1921
676 1925
676 1931
676 1935
676 1966
676 1982
676 1984
676 1989
676 2007
676 2056
676 2084
676 2117
676 2120
676 2148
676 2156
676 2160
676 2177
676 2206
676 2229
676 2232
676 2260
676 2265
676 2288
677 698
677 701
677 703
677 735
677 744
677 753
677 776
677 791
677 792
677 808
677 848
677 860
677 872
677 898
677 924
677 930
677 934
677 958
677 965
677 970
677 975
677 992
677 1023
677 1071
677 1115
677 1143
677 1169
677 1175
677 1177
677 1186
677 1233
677 1270
677 1277
677 1279
677 1280
677 1352
677 1363
677 1364
677 1404
677 1411
677 1424
677 1460
677 1489
677 1503
677 1520
677 1564
677 1578
677 1621
677 1628
677 1633
677 1663
677 1668
677 1676
677 1717
677 1726
677 1760
677 1771
677 1805
677 1813
677 1814
677 1835
677 1873
677 1921
677 1922
677 1931
677 1955
677 1958
677 1964
677 1965
677 1982
677 2037
677 2062
677 2084
677 2088
677 2089
677 2116
677 2120
677 2129
677 2175
677 2225
678 680
678 817
678 911
678 914
678 925
678 943
678 973
678 979
678 1099
678 1123
678 1126
678 1197
678 1199
678 1239
678 1240
678 1284
678 1286
678 1295
678 1306
678 1313
678 1347
678 1354
678 1365
678 1376
678 1412
678 1445
678 1589
678 1592
678 1610
678 1616
678 1678
678 1696
678 1757
678 1773
678 1798
678 1830
678 1898
678 1902
678 1905
678 1914
678 1917
678 1934
678 2009
678 2024
678 2044
678 2053
678 2178
678 2188
678 2199
678 2294
679 681
679 686
679 693
679 701
679 714
679 722
679 726
679 736
679 753
679 768
679 792
679 798
679 857
679 860
679 874
679 883
679 904
679 924
679 928
679 930
679 978
679 1008
679 1010
679 1016
679 1020
679 1042
679 1071
679 1130
679 1133
679 1139
679 1160
679 1177
679 1181
679 1189
679 1203
679 1241
679 1253
679 1323
679 1348
679 1355
679 1363
679 1371
679 1388
679 1398
679 1411
679 1424
679 1429
679 1434
679 1436
679 1457
679 1466
679 1485
679 1520
679 1538
679 1559
679 1576
679 1583
679 1606
679 1612
679 1615
679 1618
679 1621
679 1670
679 1690
679 1697
679 1754
679 1771
679 1778
679 1780
679 1782
679 1801
679 1834
679 1863
679 1873
679 1910
679 1919
679 1921
679 1924
679 1950
679 1954
679 1963
679 1966
679 1974
679 1999
679 2013
679 2043
679 2044
679 2049
679 2051
679 2059
679 2060
679 2072
679 2079
679 2086
679 2093
679 2116
679 2127
679 2147
679 2154
679 2187
679 2202
679 2210
679 2220
679 2230
679 2240
679 2246
679 2272
679 2283
680 771
680 790
680 799
680 806
680 867
680 891
680 895
680 914
680 957
680 962
680 973
680 1047
680 1050
680 1052
680 1081
680 1107
680 1109
680 1114
680 1131
680 1141
680 1146
680 1157
680 1183
680 1190
680 1197
680 1226
680 1230
680 1239
680 1240
680 1243
680 1266
680 1284
680 1286
680 1313
680 1351
680 1365
680 1374
680 1381
680 1386
680 1391
680 1402
680 1476
680 1477
680 1485
680 1527
680 1551
680 1589
680 1592
680 1613
680 1651
680 1666
680 1686
680 1711
680 1720
680 1721
680 1736
680 1739
680 1756
680 1757
680 1819
680 1820
680 1828
680 1830
680 1869
680 1873
680 1889
680 1898
680 1930
680 1937
680 1978
680 1981
680 2001
680 2004
680 2011
680 2044
680 2052
680 2053
680 2077
680 2137
680 2188
680 2256
680 2294
680 2302
681 701
681 709
681 711
681 722
681 723
681 736
681 741
681 770
681 808
681 815
681 818
681 837
681 848
681 861
681 884
681 898
681 916
681 935
681 961
681 965
681 977
681 983
681 1016
681 1020
681 1022
681 1043
681 1063
681 1089
681 1111
681 1139
681 1176
681 1203
681 1244
681 1265
681 1296
681 1297
681 1305
681 1308
681 1318
681 1368
681 1385
681 1388
681 1432
681 1438
681 1439
681 1444
681 1457
681 1500
681 1502
681 1519
681 1538
681 1575
681 1581
681 1583
681 1590
681 1645
681 1723
681 1738
681 1771
681 1775
681 1776
681 1780
681 1785
681 1792
681 1798
681 1825
681 1831
681 1844
681 1866
681 1871
681 1911
681 1913
681 1926
681 1945
681 1984
681 2025
681 2056
681 2063
681 2069
681 2092
681 2110
681 2117
681 2124
681 2187
681 2240
681 2260
681 2272
681 2303
682 761
682 1011
682 1140
682 1274
682 1501
683 694
683 791
683 792
683 794
683 802
683 928
683 932
683 965
683 983
683 993
683 1008
683 1053
683 1085
683 1091
683 1143
683 1222
683 1254
683 1282
683 1308
683 1315
683 1331
683 1341
683 1355
683 1398
683 1503
683 1563
683 1582
683 1594
683 1595
683 1645
683 1674
683 1684
683 1685
683 1692
683 1719
683 1723
683 1726
683 1798
683 1804
683 1806
683 1858
683 1915
683 1933
683 1980
683 1999
683 2005
683 2013
683 2082
683 2108
683 2115
683 2143
683 2144
683 2244
683 2246
683 2284
683 2296
683 2298
683 2303
684 732
684 849
684 913
684 1186
684 1387
684 1415
684 1568
684 1633
684 1885
684 2048
684 2057
684 2182
684 2190
684 2292
685 754
685 759
685 768
685 782
685 798
685 807
685 813
685 819
685 848
685 858
685 861
685 876
685 883
685 888
685 892
685 894
685 915
685 928
685 932
685 986
685 1003
685 1004
685 1008
685 1010
685 1021
685 1039
685 1060
685 1063
685 1069
685 1073
685 1077
685 1086
685 1111
685 1168
685 1171
685 1181
685 1184
685 1193
685 1200
685 1215
685 1220
685 1265
685 1280
685 1281
685 1288
685 1337
685 1344
685 1354
685 1390
685 1398
685 1401
685 1415
685 1416
685 1425
685 1439
685 1442
685 1448
685 1451
685 1482
685 1500
685 1503
685 1517
685 1518
685 1559
685 1563
685 1573
685 1578
685 1590
685 1634
685 1643
685 1645
685 1650
685 1667
685 1669
685 1703
685 1724
685 1748
685 1770
685 1772
685 1787
685 1803
685 1825
685 1831
685 1845
685 1849
685 1851
685 1857
685 1886
685 1903
685 1908
685 1913
685 1921
685 1931
685 1951
685 1953
685 1992
685 2012
685 2017
685 2049
685 2066
685 2104
685 2156
685 2177
685 2192
685 2219
685 2232
685 2237
685 2240
685 2254
685 2258
685 2261
685 2288
685 2295
685 2296
686 714
686 792
686 797
686 798
686 858
686 860
686 920
686 946
686 960
686 1020
686 1086
686 1088
686 1130
686 1151
686 1177
686 1194
686 1198
686 1210
686 1241
686 1333
686 1335
686 1388
686 1421
686 1676
686 1679
686 1709
686 1714
686 1771
686 1801
686 1816
686 1822
686 1836
686 1852
686 1910
686 1915
686 1949
686 1961
686 1963
686 1999
686 2013
686 2023
686 2059
686 2062
686 2072
686 2074
686 2093
686 2240
686 2311
687 701
687 715
687 753
687 762
687 792
687 821
687 886
687 928
687 942
687 993
687 1024
687 1079
687 1164
687 1172
687 1325
687 1355
687 1364
687 1368
687 1404
687 1430
687 1449
687 1571
687 1599
687 1676
687 1762
687 1767
687 1806
687 1880
687 1948
687 1962
687 1966
687 1986
687 1987
687 2005
687 2013
687 2082
687 2143
687 2175
687 2181
687 2196
687 2301
688 777
688 786
688 794
688 862
688 877
688 883
688 928
688 938
688 959
688 978
688 1008
688 1046
688 1056
688 1085
688 1133
688 1201
688 1205
688 1308
688 1348
688 1371
688 1385
688 1392
688 1398
688 1427
688 1429
688 1485
688 1487
688 1511
688 1550
688 1563
688 1670
688 1702
688 1709
688 1755
688 1835
688 1845
688 1886
688 1910
688 1920
688 1950
688 2024
688 2029
688 2043
688 2058
688 2060
688 2074
688 2075
688 2144
688 2273
688 2304
688 2306
689 698
689 802
689 827
689 901
689 930
689 1103
689 1151
689 1174
689 1246
689 1252
689 1275
689 1324
689 1332
689 1623
689 1638
689 1763
689 1781
689 1828
689 1886
689 1896
689 1999
689 2030
689 2093
689 2198
689 2309
690 693
690 703
690 792
690 824
690 860
690 878
690 883
690 890
690 924
690 1010
690 1064
690 1092
690 1140
690 1149
690 1169
690 1180
690 1194
690 1198
690 1210
690 1216
690 1238
690 1252
690 1259
690 1262
690 1269
690 1275
690 1281
690 1321
690 1362
690 1364
690 1391
690 1485
690 1494
690 1579
690 1594
690 1623
690 1680
690 1782
690 1809
690 1896
690 1938
690 1959
690 2027
690 2051
690 2164
690 2167
690 2210
690 2214
690 2233
690 2312
691 732
691 751
691 756
691 776
691 837
691 863
691 883
691 993
691 1071
691 1082
691 1090
691 1103
691 1109
691 1146
691 1167
691 1177
691 1179
691 1186
691 1239
691 1252
691 1281
691 1298
691 1313
691 1332
691 1347
691 1371
691 1384
691 1392
691 1396
691 1405
691 1411
691 1415
691 1432
691 1492
691 1533
691 1563
691 1566
691 1568
691 1584
691 1586
691 1599
691 1622
691 1633
691 1697
691 1718
691 1754
691 1778
691 1781
691 1791
691 1802
691 1815
691 1824
691 1873
691 1886
691 1905
691 1966
691 1986
691 2062
691 2140
691 2143
691 2147
691 2162
691 2163
691 2190
691 2192
691 2210
691 2309
692 827
692 1010
692 1090
692 1103
692 1118
692 1133
692 1230
692 1281
692 1314
692 1325
692 1347
692 1355
692 1377
692 1385
692 1405
692 1424
692 1492
692 1513
692 1523
692 1537
692 1542
692 1574
692 1580
692 1630
692 1638
692 1652
692 1763
692 1769
692 1883
692 1890
692 1908
692 2021
692 2034
692 2106
692 2132
692 2143
693 696
693 714
693 718
693 728
693 735
693 742
693 752
693 753
693 787
693 788
693 792
693 798
693 824
693 833
693 854
693 860
693 863
693 876
693 878
693 883
693 894
693 898
693 909
693 918
693 924
693 925
693 928
693 937
693 941
693 950
693 960
693 967
693 983
693 998
693 1001
693 1045
693 1053
693 1064
693 1071
693 1085
693 1090
693 1092
693 1122
693 1139
693 1180
693 1200
693 1202
693 1210
693 1216
693 1244
693 1253
693 1259
693 1262
693 1272
693 1275
693 1281
693 1286
693 1287
693 1288
693 1292
693 1298
693 1306
693 1308
693 1323
693 1350
693 1358
693 1364
693 1385
693 1391
693 1396
693 1398
693 1409
693 1424
693 1437
693 1439
693 1485
693 1517
693 1539
693 1547
693 1559
693 1563
693 1576
693 1579
693 1615
693 1619
693 1623
693 1638
693 1645
693 1674
693 1679
693 1702
693 1716
693 1780
693 1793
693 1802
693 1804
693 1809
693 1816
693 1824
693 1846
693 1852
693 1908
693 1924
693 1927
693 1938
693 1949
693 1957
693 1959
693 1963
693 1977
693 2021
693 2027
693 2062
693 2104
693 2151
693 2163
693 2164
693 2166
693 2167
693 2187
693 2192
693 2202
693 2210
693 2214
693 2225
693 2227
693 2233
693 2244
693 2252
693 2268
693 2272
693 2274
693 2289
693 2295
693 2296
693 2306
694 735
694 741
694 743
694 756
694 762
694 764
694 787
694 791
694 792
694 808
694 826
694 837
694 846
694 876
694 886
694 893
694 913
694 919
694 930
694 937
694 944
694 950
694 961
694 968
694 1020
694 1051
694 1062
694 1082
694 1144
694 1167
694 1201
694 1247
694 1270
694 1274
694 1282
694 1283
694 1334
694 1358
694 1364
694 1378
694 1387
694 1462
694 1485
694 1493
694 1503
694 1531
694 1538
694 1620
694 1633
694 1639
694 1713
694 1718
694 1743
694 1786
694 1798
694 1799
694 1806
694 1823
694 1842
694 1858
694 1864
694 1874
694 1878
694 1948
694 1953
694 1974
694 2012
694 2013
694 2027
694 2035
694 2048
694 2056
694 2094
694 2100
694 2154
694 2213
694 2230
694 2252
694 2259
694 2275
694 2289
694 2298
695 705
695 712
695 715
695 754
695 760
695 768
695 782
695 813
695 814
695 841
695 850
695 915
695 980
695 1029
695 1035
695 1068
695 1086
695 1089
695 1215
695 1249
695 1256
695 1280
695 1308
695 1390
695 1425
695 1508
695 1512
695 1573
695 1588
695 1643
695 1671
695 1677
695 1679
695 1715
695 1755
695 1836
695 1849
695 1859
695 1908
695 1921
695 1927
695 1961
695 1980
695 2023
695 2049
695 2068
695 2120
695 2147
695 2151
695 2154
695 2156
695 2190
695 2204
695 2244
695 2258
695 2261
695 2304
696 740
696 757
696 771
696 790
696 867
696 891
696 896
696 930
696 943
696 957
696 995
696 1034
696 1052
696 1099
696 1107
696 1114
696 1126
696 1146
696 1157
696 1183
696 1197
696 1226
696 1230
696 1257
696 1272
696 1290
696 1293
696 1306
696 1320
696 1350
696 1402
696 1417
696 1437
696 1453
696 1477
696 1574
696 1604
696 1665
696 1672
696 1720
696 1721
696 1736
696 1739
696 1759
696 1771
696 1813
696 1816
696 1840
696 2002
696 2011
696 2038
696 2044
696 2052
696 2077
696 2142
696 2256
696 2287
697 1141
698 730
698 776
698 821
698 827
698 860
698 863
698 1011
698 1067
698 1071
698 1094
698 1174
698 1177
698 1186
698 1194
698 1238
698 1246
698 1281
698 1324
698 1325
698 1330
698 1378
698 1392
698 1404
698 1411
698 1424
698 1449
698 1496
698 1501
698 1520
698 1540
698 1565
698 1639
698 1675
698 1683
698 1685
698 1749
698 1763
698 1767
698 1781
698 1815
698 1896
698 1988
698 1995
698 1999
698 2174
698 2182
698 2197
698 2249
699 1334
699 1539
699 1697
699 1770
700 718
700 828
700 1026
700 1351
700 1391
700 1613
700 1739
700 1757
700 2178
700 2239
701 702
701 703
701 723
701 732
701 735
701 756
701 775
701 791
701 822
701 827
701 835
701 840
701 848
701 872
701 884
701 893
701 898
701 930
701 949
701 950
701 958
701 961
701 965
701 969
701 972
701 975
701 984
701 998
701 1011
701 1023
701 1044
701 1048
701 1062
701 1063
701 1070
701 1071
701 1111
701 1125
701 1156
701 1164
701 1165
701 1169
701 1170
701 1175
701 1177
701 1186
701 1189
701 1201
701 1209
701 1225
701 1233
701 1244
701 1258
701 1274
701 1277
701 1282
701 1300
701 1325
701 1326
701 1329
701 1335
701 1352
701 1353
701 1358
701 1372
701 1387
701 1399
701 1411
701 1415
701 1424
701 1435
701 1460
701 1462
701 1485
701 1496
701 1503
701 1512
701 1538
701 1544
701 1546
701 1564
701 1568
701 1586
701 1620
701 1625
701 1640
701 1642
701 1663
701 1668
701 1672
701 1717
701 1726
701 1741
701 1751
701 1767
701 1772
701 1777
701 1793
701 1806
701 1808
701 1809
701 1814
701 1815
701 1835
701 1860
701 1870
701 1873
701 1885
701 1886
701 1894
701 1916
701 1922
701 1927
701 1950
701 1957
701 1962
701 1963
701 1964
701 1987
701 2012
701 2013
701 2015
701 2027
701 2057
701 2066
701 2069
701 2070
701 2089
701 2116
701 2118
701 2129
701 2130
701 2143
701 2195
701 2281
701 2289
702 731
702 734
702 761
702 822
702 824
702 848
702 864
702 876
702 878
702 888
702 894
702 904
702 930
702 998
702 1003
702 1064
702 1095
702 1113
702 1124
702 1152
702 1165
702 1176
702 1188
702 1210
702 1219
702 1229
702 1238
702 1262
702 1265
702 1268
702 1288
702 1344
702 1358
702 1364
702 1387
702 1400
702 1409
702 1423
702 1518
702 1562
702 1579
702 1615
702 1621
702 1643
702 1654
702 1663
702 1668
702 1676
702 1683
702 1689
702 1697
702 1793
702 1809
702 1825
702 1837
702 1844
702 1857
702 1870
702 1879
702 1936
702 1994
702 1996
702 2008
702 2027
702 2047
702 2060
702 2089
702 2095
702 2129
702 2151
702 2164
702 2166
702 2167
702 2210
702 2225
702 2240
702 2306
703 753
703 775
703 792
703 824
703 874
703 883
703 904
703 908
703 909
703 923
703 924
703 937
703 993
703 1009
703 1010
703 1042
703 1050
703 1100
703 1103
703 1140
703 1169
703 1177
703 1194
703 1203
703 1210
703 1259
703 1275
703 1289
703 1347
703 1358
703 1363
703 1411
703 1434
703 1447
703 1485
703 1520
703 1570
703 1621
703 1646
703 1685
703 1708
703 1724
703 1767
703 1828
703 1890
703 1955
703 1956
703 1961
703 1966
703 1999
703 2049
703 2051
703 2062
703 2086
703 2130
703 2210
704 706
704 711
704 714
704 728
704 738
704 748
704 788
704 792
704 798
704 805
704 807
704 808
704 815
704 819
704 841
704 850
704 862
704 906
704 924
704 928
704 937
704 938
704 960
704 979
704 981
704 983
704 1009
704 1019
704 1065
704 1085
704 1120
704 1189
704 1208
704 1233
704 1278
704 1280
704 1281
704 1282
704 1308
704 1309
704 1337
704 1352
704 1358
704 1361
704 1385
704 1392
704 1396
704 1398
704 1406
704 1416
704 1444
704 1469
704 1477
704 1482
704 1493
704 1512
704 1515
704 1554
704 1561
704 1563
704 1566
704 1571
704 1576
704 1646
704 1677
704 1695
704 1702
704 1721
704 1723
704 1755
704 1779
704 1784
704 1786
704 1790
704 1792
704 1802
704 1804
704 1848
704 1869
704 1893
704 1911
704 1918
704 1921
704 1931
704 1949
704 1950
704 1956
704 1974
704 1977
704 1982
704 1989
704 1993
704 2009
704 2037
704 2045
704 2073
704 2104
704 2120
704 2144
704 2147
704 2149
704 2150
704 2156
704 2160
704 2163
704 2188
704 2195
704 2203
704 2251
704 2265
704 2277
704 2295
704 2304
704 2306
705 712
705 714
705 741
705 746
705 747
705 756
705 760
705 765
705 782
705 785
705 810
705 831
705 841
705 873
705 923
705 934
705 956
705 1004
705 1031
705 1062
705 1070
705 1075
705 1086
705 1120
705 1136
705 1265
705 1268
705 1281
705 1283
705 1308
705 1335
705 1337
705 1340
705 1355
705 1377
705 1390
705 1394
705 1411
705 1419
705 1423
705 1485
705 1505
705 1512
705 1514
705 1520
705 1523
705 1528
705 1533
705 1558
705 1579
705 1581
705 1583
705 1590
705 1598
705 1630
705 1646
705 1650
705 1660
705 1667
705 1671
705 1677
705 1693
705 1713
705 1715
705 1734
705 1741
705 1751
705 1760
705 1782
705 1785
705 1787
705 1804
705 1805
705 1825
705 1836
705 1859
705 1883
705 1931
705 1964
705 1974
705 1975
705 1980
705 1992
705 1995
705 2023
705 2037
705 2042
705 2046
705 2049
705 2066
705 2071
705 2081
705 2104
705 2128
705 2133
705 2151
705 2163
705 2176
705 2177
705 2219
705 2227
705 2236
705 2260
705 2280
705 2295
705 2311
706 708
706 748
706 782
706 829
706 876
706 892
706 945
706 1047
706 1058
706 1075
706 1086
706 1159
706 1171
706 1200
706 1215
706 1233
706 1250
706 1265
706 1280
706 1281
706 1299
706 1312
706 1329
706 1361
706 1398
706 1428
706 1433
706 1437
706 1439
706 1442
706 1450
706 1490
706 1505
706 1508
706 1543
706 1558
706 1561
706 1563
706 1573
706 1576
706 1590
706 1611
706 1650
706 1703
706 1729
706 1748
706 1786
706 1787
706 1793
706 1812
706 1825
706 1848
706 1852
706 1874
706 1888
706 1949
706 1984
706 1995
706 2024
706 2049
706 2066
706 2069
706 2104
706 2171
706 2177
706 2206
706 2227
706 2234
706 2237
706 2240
706 2242
706 2245
706 2260
706 2265
707 737
707 819
707 880
707 952
707 986
707 1044
707 1069
707 1137
707 1171
707 1184
707 1208
707 1215
707 1236
707 1280
707 1299
707 1329
707 1337
707 1340
707 1394
707 1505
707 1584
707 1590
707 1634
707 1669
707 1706
707 1723
707 1730
707 1825
707 1839
707 1857
707 1885
707 1888
707 1921
707 1931
707 1936
707 1982
707 2043
707 2084
707 2150
707 2171
707 2177
707 2215
707 2219
707 2242
707 2245
707 2254
707 2277
708 738
708 755
708 756
708 782
708 787
708 839
708 892
708 954
708 972
708 998
708 1055
708 1058
708 1060
708 1086
708 1111
708 1137
708 1144
708 1159
708 1168
708 1184
708 1208
708 1250
708 1265
708 1276
708 1280
708 1329
708 1340
708 1361
708 1373
708 1433
708 1442
708 1450
708 1497
708 1505
708 1558
708 1561
708 1583
708 1590
708 1611
708 1650
708 1663
708 1667
708 1669
708 1708
708 1717
708 1734
708 1746
708 1786
708 1787
708 1812
708 1825
708 1844
708 1848
708 1874
708 1903
708 1913
708 1921
708 1982
708 1984
708 2021
708 2023
708 2046
708 2049
708 2066
708 2089
708 2113
708 2133
708 2151
708 2160
708 2177
708 2206
708 2219
708 2223
708 2242
708 2258
708 2265
709 735
709 767
709 792
709 833
709 837
709 841
709 855
709 884
709 898
709 949
709 982
709 1020
709 1082
709 1091
709 1214
709 1244
709 1281
709 1297
709 1335
709 1336
709 1387
709 1388
709 1394
709 1406
709 1415
709 1435
709 1458
709 1485
709 1538
709 1606
709 1676
709 1717
709 1732
709 1741
709 1744
709 1795
709 1796
709 1815
709 1829
709 1852
709 1854
709 1913
709 1953
709 1963
709 2016
709 2027
709 2056
709 2067
709 2079
709 2115
709 2174
709 2175
709 2197
709 2225
710 759
710 782
710 819
710 912
710 932
710 951
710 952
710 1069
710 1138
710 1155
710 1171
710 1181
710 1184
710 1201
710 1208
710 1246
710 1280
710 1329
710 1337
710 1354
710 1482
710 1590
710 1643
710 1703
710 1845
710 1849
710 1857
710 2046
710 2066
710 2245
710 2261
710 2277
711 723
711 738
711 750
711 761
711 798
711 808
711 815
711 819
711 849
711 850
711 861
711 906
711 908
711 915
711 916
711 935
711 956
711 988
711 998
711 1004
711 1021
711 1039
711 1060
711 1105
711 1106
711 1111
711 1128
711 1168
711 1175
711 1176
711 1208
711 1221
711 1232
711 1258
711 1265
711 1280
711 1281
711 1308
711 1309
711 1318
711 1329
711 1337
711 1361
711 1385
711 1398
711 1400
711 1413
711 1415
711 1416
711 1444
711 1451
711 1496
711 1500
711 1502
711 1510
711 1519
711 1520
711 1535
711 1540
711 1549
711 1563
711 1630
711 1677
711 1703
711 1708
711 1755
711 1772
711 1809
711 1815
711 1825
711 1831
711 1848
711 1860
711 1888
711 1891
711 1897
711 1921
711 1925
711 1926
711 1931
711 1949
711 1977
711 1982
711 1984
711 1989
711 2025
711 2066
711 2067
711 2104
711 2120
711 2138
711 2156
711 2160
711 2215
711 2245
711 2265
712 743
712 756
712 760
712 767
712 782
712 785
712 792
712 800
712 831
712 840
712 848
712 864
712 888
712 919
712 932
712 934
712 980
712 998
712 1003
712 1031
712 1035
712 1038
712 1058
712 1062
712 1086
712 1089
712 1092
712 1111
712 1118
712 1120
712 1168
712 1176
712 1265
712 1268
712 1270
712 1308
712 1329
712 1335
712 1337
712 1343
712 1352
712 1355
712 1390
712 1413
712 1421
712 1425
712 1451
712 1490
712 1499
712 1503
712 1505
712 1508
712 1512
712 1523
712 1537
712 1546
712 1558
712 1573
712 1581
712 1584
712 1590
712 1630
712 1638
712 1643
712 1646
712 1660
712 1669
712 1671
712 1677
712 1679
712 1703
712 1708
712 1715
712 1717
712 1737
712 1738
712 1746
712 1754
712 1776
712 1782
712 1785
712 1798
712 1809
712 1825
712 1836
712 1849
712 1860
712 1866
712 1883
712 1888
712 1908
712 1921
712 1931
712 1984
712 1994
712 2021
712 2023
712 2034
712 2049
712 2065
712 2066
712 2068
712 2073
712 2089
712 2120
712 2134
712 2189
712 2195
712 2223
712 2237
712 2245
712 2260
712 2269
712 2274
712 2280
712 2304
713 813
713 1028
713 1054
713 1157
713 1202
713 1255
713 1319
713 1408
713 1820
713 1902
713 2011
713 2041
713 2044
713 2199
714 726
714 736
714 741
714 752
714 754
714 759
714 782
714 790
714 792
714 798
714 814
714 824
714 841
714 848
714 858
714 860
714 861
714 876
714 877
714 878
714 892
714 894
714 898
714 915
714 920
714 924
714 931
714 946
714 954
714 955
714 980
714 981
714 983
714 991
714 998
714 1003
714 1010
714 1020
714 1029
714 1052
714 1064
714 1080
714 1086
714 1092
714 1095
714 1110
714 1133
714 1139
714 1141
714 1142
714 1156
714 1170
714 1177
714 1189
714 1196
714 1198
714 1202
714 1203
714 1225
714 1233
714 1241
714 1243
714 1257
714 1268
714 1278
714 1280
714 1281
714 1288
714 1299
714 1320
714 1334
714 1358
714 1361
714 1364
714 1390
714 1391
714 1411
714 1417
714 1421
714 1425
714 1436
714 1490
714 1499
714 1513
714 1521
714 1532
714 1539
714 1547
714 1559
714 1561
714 1563
714 1566
714 1573
714 1578
714 1579
714 1588
714 1598
714 1615
714 1619
714 1621
714 1625
714 1634
714 1675
714 1677
714 1679
714 1697
714 1703
714 1711
714 1725
714 1727
714 1743
714 1746
714 1751
714 1754
714 1755
714 1771
714 1790
714 1793
714 1799
714 1801
714 1802
714 1803
714 1809
714 1816
714 1823
714 1836
714 1845
714 1851
714 1873
714 1880
714 1886
714 1896
714 1908
714 1909
714 1915
714 1921
714 1927
714 1938
714 1950
714 1953
714 1961
714 1963
714 1964
714 1974
714 1991
714 2002
714 2023
714 2027
714 2030
714 2049
714 2058
714 2097
714 2101
714 2147
714 2151
714 2154
714 2156
714 2163
714 2164
714 2167
714 2191
714 2195
714 2199
714 2202
714 2204
714 2210
714 2220
714 2225
714 2234
714 2240
714 2269
714 2272
714 2280
714 2287
714 2295
714 2304
714 2306
714 2311
715 736
715 753
715 760
715 768
715 778
715 788
715 792
715 803
715 807
715 815
715 864
715 883
715 888
715 907
715 919
715 928
715 932
715 956
715 965
715 977
715 978
715 991
715 1013
715 1020
715 1029
715 1048
715 1049
715 1085
715 1120
715 1127
715 1136
715 1177
715 1203
715 1205
715 1222
715 1233
715 1256
715 1268
715 1282
715 1302
715 1308
715 1318
715 1339
715 1348
715 1355
715 1373
715 1380
715 1415
715 1429
715 1485
715 1503
715 1512
715 1518
715 1521
715 1533
715 1537
715 1539
715 1546
715 1573
715 1598
715 1621
715 1684
715 1697
715 1716
715 1743
715 1750
715 1751
715 1760
715 1798
715 1799
715 1806
715 1834
715 1859
715 1863
715 1874
715 1886
715 1891
715 1908
715 1918
715 1924
715 1927
715 1928
715 1948
715 1963
715 1974
715 1986
715 2013
715 2015
715 2043
715 2045
715 2069
715 2088
715 2115
715 2127
715 2151
715 2190
715 2191
715 2237
715 2240
715 2251
715 2274
715 2292
716 735
716 1135
716 1360
716 1372
716 1556
716 1649
716 2032
716 2139
716 2182
717 743
717 771
717 783
717 844
717 914
717 1052
717 1100
717 1183
717 1243
717 1286
717 1291
717 1365
717 1477
717 1486
717 1589
717 1617
717 1672
717 1733
717 1830
717 1846
717 1898
717 2044
717 2053
717 2061
717 2114
718 787
718 788
718 797
718 829
718 833
718 883
718 912
718 1001
718 1071
718 1103
718 1200
718 1250
718 1251
718 1276
718 1281
718 1312
718 1323
718 1366
718 1424
718 1437
718 1440
718 1563
718 1605
718 1614
718 1672
718 1679
718 1684
718 1824
718 1852
718 1869
718 1896
718 1918
718 2008
718 2045
718 2051
718 2073
718 2074
718 2107
718 2123
718 2202
718 2225
718 2243
718 2295
718 2297
718 2303
719 1539
719 1643
719 1748
720 1000
720 1165
720 1277
720 2131
721 767
721 809
721 853
721 864
721 883
721 884
721 965
721 972
721 984
721 996
721 1009
721 1133
721 1156
721 1158
721 1164
721 1223
721 1259
721 1334
721 1347
721 1377
721 1380
721 1387
721 1392
721 1406
721 1612
721 1640
721 1738
721 1742
721 1778
721 1828
721 1843
721 1873
721 1913
721 1994
721 2122
721 2129
721 2174
721 2185
721 2249
721 2264
721 2301
722 736
722 746
722 752
722 786
722 788
722 798
722 818
722 830
722 900
722 923
722 928
722 951
722 978
722 983
722 998
722 1004
722 1020
722 1053
722 1110
722 1130
722 1133
722 1139
722 1145
722 1160
722 1212
722 1236
722 1253
722 1269
722 1271
722 1273
722 1281
722 1301
722 1333
722 1388
722 1398
722 1457
722 1466
722 1563
722 1576
722 1583
722 1588
722 1598
722 1690
722 1702
722 1724
722 1771
722 1780
722 1804
722 1834
722 1839
722 1845
722 1869
722 1906
722 1907
722 1910
722 1911
722 1915
722 1919
722 1949
722 1963
722 1980
722 2003
722 2045
722 2059
722 2072
722 2104
722 2147
722 2187
722 2191
722 2192
722 2232
722 2265
722 2272
723 750
723 755
723 808
723 815
723 819
723 861
723 908
723 913
723 915
723 916
723 934
723 935
723 969
723 986
723 988
723 1021
723 1043
723 1063
723 1069
723 1120
723 1158
723 1176
723 1221
723 1232
723 1265
723 1279
723 1280
723 1281
723 1308
723 1318
723 1383
723 1385
723 1400
723 1401
723 1415
723 1438
723 1444
723 1496
723 1500
723 1502
723 1519
723 1521
723 1540
723 1549
723 1626
723 1630
723 1774
723 1825
723 1891
723 1903
723 1926
723 1992
723 2003
723 2025
723 2043
723 2120
723 2138
723 2150
723 2184
723 2186
723 2232
723 2245
724 839
724 873
724 900
724 909
724 914
724 939
724 955
724 986
724 997
724 1032
724 1039
724 1058
724 1066
724 1068
724 1074
724 1077
724 1107
724 1138
724 1171
724 1200
724 1215
724 1258
724 1329
724 1366
724 1428
724 1463
724 1528
724 1567
724 1587
724 1627
724 1670
724 1720
724 1724
724 1727
724 1799
724 1827
724 1839
724 1848
724 1924
724 1939
724 1947
724 1953
724 1969
724 1982
724 2013
724 2068
724 2094
724 2097
724 2112
724 2113
724 2141
724 2148
724 2171
724 2176
724 2215
724 2226
724 2234
724 2242
724 2244
724 2254
725 772
725 866
725 945
725 958
725 997
725 1009
725 1066
725 1068
725 1075
725 1142
725 1143
725 1211
725 1225
725 1232
725 1393
725 1430
725 1439
725 1514
725 1537
725 1598
725 1600
725 1650
725 1713
725 1738
725 1740
725 1743
725 1748
725 1765
725 1950
725 1951
725 1992
725 1995
725 2037
725 2055
725 2068
725 2103
725 2206
725 2211
726 961
726 1092
726 1332
726 1490
726 1508
726 2013
726 2202
726 2287
727 795
727 856
727 876
727 914
727 940
727 946
727 974
727 989
727 1080
727 1140
727 1187
727 1210
727 1290
727 1307
727 1316
727 1320
727 1342
727 1364
727 1391
727 1394
727 1417
727 1445
727 1472
727 1574
727 1579
727 1602
727 1610
727 1625
727 1656
727 1691
727 1722
727 1725
727 1756
727 1797
727 1801
727 1816
727 1952
727 2080
727 2164
727 2210
728 736
728 787
728 798
728 807
728 829
728 836
728 883
728 909
728 928
728 937
728 938
728 947
728 960
728 1029
728 1039
728 1139
728 1160
728 1200
728 1222
728 1226
728 1281
728 1299
728 1312
728 1331
728 1357
728 1366
728 1373
728 1385
728 1398
728 1437
728 1466
728 1483
728 1493
728 1559
728 1563
728 1638
728 1645
728 1679
728 1702
728 1720
728 1734
728 1799
728 1802
728 1804
728 1812
728 1844
728 1852
728 1924
728 1932
728 1949
728 1953
728 1956
728 1977
728 1984
728 1999
728 2013
728 2019
728 2021
728 2090
728 2093
728 2094
728 2104
728 2113
728 2143
728 2148
728 2187
728 2199
728 2209
728 2234
728 2244
728 2265
728 2272
728 2273
728 2274
728 2295
728 2302
728 2304
728 2306
729 738
729 744
729 810
729 814
729 831
729 864
729 872
729 874
729 894
729 930
729 941
729 972
729 975
729 990
729 1023
729 1055
729 1095
729 1175
729 1188
729 1238
729 1265
729 1274
729 1281
729 1283
729 1308
729 1315
729 1344
729 1364
729 1372
729 1394
729 1409
729 1584
729 1594
729 1625
729 1680
729 1717
729 1726
729 1746
729 1751
729 1776
729 1785
729 1792
729 1814
729 1835
729 1844
729 1858
729 1860
729 1870
729 1879
729 1928
729 1931
729 1967
729 2008
729 2046
729 2089
729 2125
729 2164
729 2182
729 2212
729 2225
729 2258
729 2260
729 2268
729 2271
729 2298
729 2299
730 735
730 793
730 824
730 843
730 848
730 875
730 883
730 893
730 941
730 942
730 956
730 984
730 998
730 1011
730 1090
730 1113
730 1140
730 1149
730 1174
730 1188
730 1193
730 1194
730 1219
730 1238
730 1270
730 1275
730 1285
730 1310
730 1321
730 1325
730 1362
730 1364
730 1380
730 1383
730 1394
730 1405
730 1409
730 1494
730 1501
730 1544
730 1570
730 1572
730 1584
730 1594
730 1621
730 1680
730 1683
730 1821
730 1870
730 1963
730 1964
730 2130
730 2145
730 2209
730 2212
730 2225
730 2268
730 2289
731 849
731 1041
731 1087
731 1387
731 1415
731 1473
731 1568
731 1644
731 1936
731 2017
731 2161
731 2290
732 751
732 825
732 837
732 972
732 1051
732 1082
732 1097
732 1186
732 1244
732 1277
732 1371
732 1384
732 1415
732 1432
732 1533
732 1538
732 1546
732 1566
732 1568
732 1586
732 1633
732 1675
732 1778
732 1815
732 1885
732 1986
732 2015
732 2057
732 2140
732 2151
732 2162
732 2190
732 2264
733 734
733 1482
733 1653
733 1703
734 735
734 776
734 924
734 1281
734 1288
734 1619
734 1676
734 2151
734 2154
734 2225
735 753
735 759
735 763
735 765
735 776
735 801
735 812
735 823
735 827
735 832
735 835
735 848
735 852
735 853
735 861
735 868
735 872
735 874
735 875
735 879
735 883
735 884
735 886
735 888
735 898
735 902
735 912
735 923
735 930
735 942
735 944
735 949
735 954
735 969
735 970
735 972
735 984
735 1021
735 1023
735 1024
735 1072
735 1085
735 1091
735 1093
735 1095
735 1102
735 1104
735 1115
735 1121
735 1125
735 1126
735 1143
735 1156
735 1164
735 1169
735 1175
735 1181
735 1209
735 1223
735 1224
735 1244
735 1247
735 1252
735 1260
735 1282
735 1285
735 1299
735 1315
735 1327
735 1334
735 1358
735 1364
735 1377
735 1380
735 1384
735 1387
735 1394
735 1403
735 1404
735 1405
735 1411
735 1424
735 1435
735 1446
735 1458
735 1459
735 1467
735 1471
735 1473
735 1474
735 1512
735 1521
735 1538
735 1544
735 1546
735 1554
735 1560
735 1562
735 1564
735 1580
735 1582
735 1586
735 1598
735 1618
735 1625
735 1628
735 1632
735 1645
735 1649
735 1659
735 1663
735 1672
735 1676
735 1697
735 1718
735 1738
735 1762
735 1769
735 1777
735 1806
735 1815
735 1821
735 1843
735 1873
735 1886
735 1901
735 1909
735 1940
735 1948
735 1958
735 1963
735 1986
735 1994
735 1999
735 2016
735 2025
735 2062
735 2069
735 2105
735 2108
735 2129
735 2132
735 2139
735 2143
735 2154
735 2172
735 2175
735 2225
735 2231
735 2249
735 2252
735 2264
735 2274
735 2275
735 2281
735 2289
735 2301
735 2303
735 2307
736 786
736 788
736 792
736 798
736 803
736 807
736 836
736 883
736 923
736 928
736 960
736 983
736 993
736 1008
736 1013
736 1020
736 1085
736 1092
736 1103
736 1110
736 1130
736 1133
736 1139
736 1161
736 1177
736 1200
736 1205
736 1253
736 1254
736 1273
736 1283
736 1303
736 1331
736 1348
736 1388
736 1392
736 1396
736 1398
736 1429
736 1455
736 1457
736 1466
736 1483
736 1489
736 1521
736 1563
736 1566
736 1606
736 1690
736 1702
736 1780
736 1787
736 1802
736 1804
736 1852
736 1869
736 1907
736 1910
736 1919
736 1949
736 1963
736 1974
736 1977
736 1986
736 1999
736 2003
736 2013
736 2019
736 2043
736 2045
736 2055
736 2062
736 2065
736 2073
736 2104
736 2120
736 2140
736 2187
736 2223
736 2251
736 2272
736 2277
736 2304
736 2305
737 750
737 756
737 759
737 822
737 825
737 835
737 861
737 864
737 874
737 919
737 969
737 1036
737 1156
737 1171
737 1218
737 1223
737 1225
737 1234
737 1256
737 1267
737 1279
737 1281
737 1327
737 1334
737 1337
737 1340
737 1387
737 1451
737 1459
737 1496
737 1521
737 1540
737 1554
737 1581
737 1590
737 1630
737 1637
737 1643
737 1728
737 1732
737 1774
737 1815
737 1843
737 1853
737 1854
737 1882
737 1897
737 1926
737 1951
737 1973
737 1974
737 1984
737 2014
737 2067
737 2081
737 2088
737 2103
737 2185
738 744
738 808
738 839
738 848
738 850
738 864
738 876
738 894
738 906
738 908
738 956
738 972
738 977
738 990
738 998
738 1055
738 1068
738 1075
738 1111
738 1168
738 1184
738 1188
738 1208
738 1219
738 1268
738 1281
738 1288
738 1308
738 1337
738 1340
738 1361
738 1364
738 1383
738 1416
738 1440
738 1502
738 1515
738 1558
738 1561
738 1590
738 1619
738 1621
738 1667
738 1669
738 1675
738 1676
738 1680
738 1683
738 1708
738 1717
738 1746
738 1755
738 1825
738 1848
738 1849
738 1870
738 1874
738 1888
738 1921
738 1931
738 1940
738 1957
738 1982
738 1984
738 2046
738 2049
738 2066
738 2084
738 2089
738 2151
738 2156
738 2160
738 2177
738 2206
738 2212
738 2261
738 2265
738 2267
739 776
739 954
739 1156
739 1814
739 1879
739 2123
740 757
740 771
740 783
740 790
740 854
740 879
740 943
740 957
740 960
740 962
740 979
740 999
740 1025
740 1047
740 1052
740 1065
740 1099
740 1107
740 1114
740 1126
740 1141
740 1157
740 1195
740 1227
740 1230
740 1239
740 1240
740 1243
740 1287
740 1290
740 1293
740 1306
740 1334
740 1346
740 1351
740 1374
740 1402
740 1452
740 1477
740 1509
740 1534
740 1536
740 1589
740 1592
740 1604
740 1610
740 1647
740 1665
740 1666
740 1721
740 1736
740 1739
740 1756
740 1802
740 1819
740 1846
740 1847
740 1875
740 1889
740 1898
740 1947
740 2001
740 2002
740 2011
740 2026
740 2044
740 2099
740 2178
740 2239
740 2256
740 2287
741 746
741 753
741 756
741 759
741 764
741 765
741 792
741 806
741 813
741 816
741 818
741 825
741 835
741 852
741 855
741 857
741 861
741 877
741 893
741 894
741 898
741 910
741 912
741 922
741 937
741 971
741 977
741 998
741 1004
741 1008
741 1016
741 1020
741 1036
741 1044
741 1056
741 1075
741 1116
741 1142
741 1143
741 1160
741 1170
741 1181
741 1203
741 1211
741 1218
741 1225
741 1234
741 1265
741 1270
741 1281
741 1355
741 1363
741 1364
741 1374
741 1393
741 1401
741 1405
741 1411
741 1412
741 1430
741 1433
741 1441
741 1458
741 1471
741 1475
741 1485
741 1496
741 1498
741 1513
741 1514
741 1521
741 1538
741 1560
741 1571
741 1575
741 1583
741 1598
741 1600
741 1606
741 1635
741 1650
741 1658
741 1670
741 1713
741 1716
741 1743
741 1769
741 1799
741 1803
741 1806
741 1819
741 1834
741 1835
741 1853
741 1854
741 1858
741 1873
741 1882
741 1899
741 1906
741 1953
741 1958
741 1963
741 1967
741 1974
741 1979
741 1995
741 2022
741 2037
741 2043
741 2055
741 2061
741 2063
741 2066
741 2067
741 2071
741 2075
741 2081
741 2110
741 2118
741 2120
741 2133
741 2156
741 2163
741 2185
741 2192
741 2206
741 2225
741 2231
741 2236
741 2248
741 2255
741 2289
741 2295
741 2306
742 752
742 776
742 824
742 865
742 883
742 894
742 931
742 983
742 1053
742 1064
742 1071
742 1180
742 1262
742 1269
742 1281
742 1287
742 1297
742 1332
742 1364
742 1405
742 1559
742 1579
742 1615
742 1621
742 1716
742 1793
742 1809
742 1896
742 1959
742 2143
742 2151
742 2164
742 2166
742 2202
742 2210
742 2214
742 2225
742 2244
743 748
743 760
743 772
743 780
743 782
743 808
743 813
743 816
743 826
743 862
743 868
743 876
743 881
743 928
743 932
743 960
743 1003
743 1031
743 1043
743 1050
743 1082
743 1087
743 1100
743 1104
743 1136
743 1147
743 1155
743 1161
743 1168
743 1171
743 1184
743 1198
743 1233
743 1243
743 1249
743 1252
743 1265
743 1286
743 1289
743 1303
743 1308
743 1335
743 1352
743 1354
743 1358
743 1378
743 1401
743 1421
743 1428
743 1439
743 1469
743 1479
743 1493
743 1495
743 1497
743 1504
743 1508
743 1537
743 1546
743 1573
743 1584
743 1586
743 1608
743 1634
743 1648
743 1669
743 1708
743 1717
743 1746
743 1752
743 1753
743 1765
743 1789
743 1790
743 1792
743 1798
743 1808
743 1818
743 1823
743 1825
743 1830
743 1844
743 1854
743 1857
743 1859
743 1860
743 1866
743 1874
743 1879
743 1883
743 1903
743 1921
743 1927
743 1931
743 1951
743 1954
743 1999
743 2007
743 2023
743 2046
743 2066
743 2089
743 2093
743 2103
743 2110
743 2113
743 2127
743 2135
743 2146
743 2149
743 2177
743 2186
743 2193
743 2203
743 2220
743 2223
743 2227
743 2232
743 2240
743 2245
743 2255
743 2258
743 2261
743 2269
743 2271
743 2280
743 2304
744 761
744 843
744 875
744 919
744 953
744 1023
744 1055
744 1078
744 1113
744 1124
744 1140
744 1188
744 1219
744 1238
744 1270
744 1274
744 1321
744 1356
744 1364
744 1383
744 1449
744 1464
744 1501
744 1594
744 1675
744 1676
744 1680
744 1683
744 1844
744 1909
744 1948
744 2145
744 2177
744 2301
744 2312
745 899
745 911
745 1131
745 1195
745 1240
745 1405
745 1468
745 1470
745 1947
745 2029
745 2142
745 2158
746 753
746 756
746 759
746 765
746 778
746 800
746 812
746 861
746 918
746 922
746 923
746 932
746 937
746 944
746 949
746 969
746 970
746 984
746 998
746 1004
746 1036
746 1048
746 1091
746 1115
746 1116
746 1117
746 1155
746 1191
746 1204
746 1244
746 1253
746 1271
746 1281
746 1311
746 1329
746 1337
746 1355
746 1372
746 1412
746 1423
746 1425
746 1430
746 1467
746 1469
746 1485
746 1496
746 1514
746 1521
746 1539
746 1540
746 1560
746 1595
746 1598
746 1630
746 1650
746 1658
746 1702
746 1713
746 1760
746 1765
746 1774
746 1783
746 1799
746 1803
746 1873
746 1908
746 1951
746 1956
746 1958
746 1974
746 1992
746 2037
746 2039
746 2046
746 2066
746 2071
746 2081
746 2084
746 2103
746 2163
746 2175
746 2206
746 2213
746 2222
746 2236
746 2237
746 2255
746 2270
746 2295
747 760
747 782
747 814
747 836
747 841
747 848
747 858
747 871
747 924
747 980
747 1029
747 1035
747 1075
747 1086
747 1150
747 1215
747 1390
747 1573
747 1588
747 1650
747 1677
747 1789
747 1848
747 1874
747 1919
747 1954
747 1961
747 1974
747 1982
747 2042
747 2049
747 2154
747 2156
747 2204
747 2240
747 2304
747 2308
747 2311
748 782
748 813
748 829
748 876
748 938
748 1003
748 1086
748 1168
748 1171
748 1280
748 1281
748 1312
748 1329
748 1333
748 1361
748 1398
748 1433
748 1437
748 1490
748 1502
748 1505
748 1558
748 1583
748 1590
748 1669
748 1676
748 1755
748 1771
748 1849
748 1874
748 1919
748 1921
748 2023
748 2066
748 2069
748 2088
748 2089
748 2097
748 2156
748 2206
748 2242
748 2245
748 2254
748 2305
748 2306
749 882
749 914
749 943
749 999
749 1080
749 1083
749 1109
749 1126
749 1179
749 1183
749 1187
749 1190
749 1202
749 1291
749 1307
749 1314
749 1346
749 1350
749 1391
749 1469
749 1534
749 1592
749 1613
749 1652
749 1656
749 1691
749 1757
749 1797
749 1862
749 1938
749 1943
749 1970
749 2001
749 2004
749 2044
749 2077
749 2080
749 2173
749 2199
750 751
750 753
750 808
750 810
750 815
750 822
750 848
750 894
750 908
750 916
750 919
750 956
750 969
750 977
750 988
750 990
750 993
750 1105
750 1113
750 1117
750 1128
750 1175
750 1193
750 1201
750 1221
750 1245
750 1268
750 1279
750 1280
750 1283
750 1300
750 1318
750 1322
750 1438
750 1451
750 1496
750 1503
750 1520
750 1535
750 1563
750 1578
750 1621
750 1624
750 1630
750 1683
750 1724
750 1753
750 1774
750 1799
750 1860
750 1891
750 1897
750 1903
750 1909
750 1925
750 1926
750 1946
750 1979
750 2007
750 2014
750 2025
750 2049
750 2050
750 2108
750 2138
750 2146
750 2151
750 2164
750 2212
750 2235
751 837
751 888
751 972
751 993
751 1082
751 1097
751 1355
751 1371
751 1384
751 1392
751 1415
751 1423
751 1432
751 1520
751 1533
751 1563
751 1566
751 1568
751 1612
751 1621
751 1633
751 1675
751 1778
751 1815
751 1836
751 1849
751 1860
751 1885
751 1979
751 1986
751 2015
751 2049
751 2057
751 2089
751 2108
751 2140
751 2162
751 2258
752 754
752 770
752 788
752 798
752 830
752 858
752 871
752 900
752 915
752 928
752 951
752 983
752 1050
752 1053
752 1063
752 1110
752 1133
752 1139
752 1150
752 1212
752 1222
752 1269
752 1333
752 1344
752 1398
752 1439
752 1457
752 1466
752 1548
752 1563
752 1569
752 1588
752 1645
752 1679
752 1690
752 1702
752 1743
752 1754
752 1780
752 1796
752 1804
752 1845
752 1849
752 1869
752 1906
752 1907
752 1915
752 1953
752 1963
752 1966
752 1980
752 2023
752 2045
752 2056
752 2072
752 2191
752 2244
752 2265
752 2272
752 2277
753 756
753 759
753 761
753 762
753 765
753 776
753 792
753 819
753 822
753 848
753 858
753 861
753 865
753 876
753 888
753 908
753 915
753 924
753 934
753 949
753 972
753 980
753 984
753 1003
753 1004
753 1024
753 1036
753 1038
753 1039
753 1049
753 1060
753 1063
753 1095
753 1111
753 1120
753 1125
753 1127
753 1136
753 1137
753 1164
753 1186
753 1232
753 1233
753 1253
753 1256
753 1268
753 1270
753 1274
753 1281
753 1299
753 1327
753 1339
753 1364
753 1368
753 1462
753 1471
753 1496
753 1503
753 1517
753 1520
753 1530
753 1537
753 1539
753 1554
753 1556
753 1566
753 1578
753 1621
753 1663
753 1675
753 1676
753 1706
753 1724
753 1751
753 1771
753 1787
753 1799
753 1809
753 1812
753 1873
753 1885
753 1891
753 1897
753 1903
753 1908
753 1931
753 1962
753 1979
753 1984
753 1991
753 1996
753 2014
753 2015
753 2027
753 2031
753 2049
753 2084
753 2089
753 2135
753 2151
753 2161
753 2180
753 2225
753 2236
753 2237
753 2258
753 2274
753 2281
754 782
754 810
754 819
754 831
754 858
754 871
754 876
754 918
754 920
754 921
754 983
754 1031
754 1050
754 1063
754 1078
754 1104
754 1117
754 1133
754 1139
754 1147
754 1150
754 1168
754 1194
754 1249
754 1281
754 1303
754 1304
754 1337
754 1344
754 1345
754 1421
754 1425
754 1482
754 1499
754 1518
754 1533
754 1561
754 1569
754 1573
754 1590
754 1653
754 1667
754 1669
754 1677
754 1679
754 1703
754 1781
754 1796
754 1806
754 1821
754 1849
754 1851
754 1857
754 1866
754 1927
754 1966
754 2023
754 2049
754 2056
754 2063
754 2066
754 2089
754 2117
754 2177
754 2223
754 2244
754 2258
754 2261
754 2265
754 2279
755 762
755 787
755 805
755 829
755 830
755 839
755 850
755 876
755 881
755 894
755 924
755 961
755 980
755 981
755 1029
755 1058
755 1060
755 1066
755 1074
755 1075
755 1084
755 1086
755 1127
755 1142
755 1150
755 1159
755 1176
755 1185
755 1196
755 1200
755 1211
755 1233
755 1250
755 1256
755 1265
755 1273
755 1276
755 1281
755 1301
755 1312
755 1329
755 1340
755 1361
755 1375
755 1398
755 1404
755 1433
755 1437
755 1440
755 1448
755 1450
755 1488
755 1493
755 1504
755 1505
755 1508
755 1528
755 1561
755 1563
755 1571
755 1576
755 1611
755 1621
755 1633
755 1650
755 1663
755 1676
755 1677
755 1697
755 1730
755 1734
755 1755
755 1760
755 1779
755 1786
755 1787
755 1793
755 1802
755 1803
755 1812
755 1825
755 1840
755 1844
755 1848
755 1852
755 1874
755 1918
755 1919
755 1924
755 1935
755 1939
755 1949
755 1950
755 1953
755 1969
755 1982
755 1995
755 2024
755 2037
755 2049
755 2066
755 2068
755 2069
755 2070
755 2076
755 2097
755 2104
755 2111
755 2120
755 2128
755 2151
755 2156
755 2168
755 2175
755 2177
755 2200
755 2204
755 2227
755 2234
755 2248
755 2252
755 2263
755 2265
755 2274
755 2289
755 2311
755 2312
756 759
756 764
756 765
756 778
756 780
756 782
756 792
756 800
756 812
756 818
756 825
756 831
756 835
756 846
756 848
756 853
756 863
756 874
756 876
756 879
756 886
756 893
756 910
756 919
756 923
756 930
756 932
756 941
756 944
756 950
756 954
756 961
756 969
756 972
756 977
756 984
756 998
756 1004
756 1008
756 1010
756 1016
756 1020
756 1036
756 1038
756 1044
756 1045
756 1048
756 1050
756 1062
756 1063
756 1071
756 1079
756 1090
756 1091
756 1092
756 1095
756 1103
756 1104
756 1110
756 1116
756 1118
756 1122
756 1166
756 1176
756 1177
756 1181
756 1224
756 1233
756 1244
756 1246
756 1262
756 1265
756 1273
756 1274
756 1280
756 1281
756 1282
756 1283
756 1296
756 1298
756 1308
756 1310
756 1311
756 1325
756 1327
756 1331
756 1334
756 1355
756 1358
756 1363
756 1372
756 1378
756 1387
756 1394
756 1396
756 1404
756 1411
756 1420
756 1423
756 1424
756 1433
756 1435
756 1467
756 1469
756 1471
756 1485
756 1496
756 1503
756 1512
756 1514
756 1520
756 1521
756 1530
756 1538
756 1540
756 1560
756 1562
756 1564
756 1565
756 1581
756 1583
756 1590
756 1595
756 1598
756 1620
756 1625
756 1639
756 1659
756 1663
756 1668
756 1716
756 1717
756 1723
756 1738
756 1741
756 1744
756 1754
756 1760
756 1792
756 1798
756 1803
756 1806
756 1812
756 1822
756 1835
756 1853
756 1864
756 1870
756 1873
756 1874
756 1879
756 1880
756 1908
756 1928
756 1931
756 1951
756 1964
756 1965
756 1979
756 2008
756 2016
756 2017
756 2022
756 2027
756 2029
756 2031
756 2037
756 2049
756 2062
756 2063
756 2066
756 2067
756 2068
756 2069
756 2079
756 2081
756 2082
756 2089
756 2094
756 2124
756 2130
756 2135
756 2146
756 2163
756 2172
756 2174
756 2177
756 2192
756 2206
756 2210
756 2213
756 2236
756 2237
756 2245
756 2255
756 2264
756 2277
756 2281
756 2295
756 2298
756 2304
756 2307
756 2309
757 771
757 790
757 889
757 914
757 967
757 973
757 1050
757 1052
757 1131
757 1183
757 1257
757 1272
757 1306
757 1351
757 1374
757 1402
757 1436
757 1461
757 1527
757 1534
757 1552
757 1610
757 1662
757 1711
757 1721
757 1729
757 1736
757 1791
757 1819
757 1820
757 1898
757 2001
757 2004
757 2044
757 2143
757 2199
757 2287
758 792
758 863
758 865
758 883
758 904
758 909
758 923
758 924
758 937
758 1008
758 1015
758 1071
758 1094
758 1177
758 1194
758 1257
758 1259
758 1275
758 1281
758 1348
758 1424
758 1487
758 1489
758 1542
758 1563
758 1565
758 1570
758 1612
758 1618
758 1638
758 1778
758 1817
758 1890
758 1948
758 1963
758 2051
758 2062
758 2078
758 2202
758 2210
758 2241
758 2246
758 2284
759 764
759 765
759 782
759 786
759 791
759 812
759 813
759 816
759 819
759 825
759 835
759 843
759 848
759 853
759 861
759 863
759 865
759 868
759 875
759 877
759 879
759 893
759 898
759 912
759 917
759 919
759 922
759 924
759 928
759 930
759 932
759 944
759 950
759 951
759 960
759 969
759 971
759 984
759 1008
759 1011
759 1038
759 1046
759 1048
759 1054
759 1062
759 1063
759 1067
759 1071
759 1078
759 1095
759 1110
759 1111
759 1115
759 1116
759 1117
759 1121
759 1125
759 1138
759 1170
759 1177
759 1181
759 1211
759 1225
759 1238
759 1246
759 1251
759 1268
759 1280
759 1299
759 1305
759 1326
759 1343
759 1356
759 1393
759 1409
759 1411
759 1424
759 1425
759 1427
759 1430
759 1440
759 1443
759 1448
759 1459
759 1466
759 1471
759 1482
759 1485
759 1491
759 1499
759 1500
759 1513
759 1518
759 1521
759 1540
759 1560
759 1571
759 1580
759 1581
759 1586
759 1598
759 1600
759 1621
759 1623
759 1625
759 1626
759 1648
759 1663
759 1668
759 1680
759 1699
759 1703
759 1713
759 1716
759 1717
759 1723
759 1738
759 1741
759 1746
759 1753
759 1760
759 1763
759 1767
759 1775
759 1812
759 1821
759 1824
759 1825
759 1828
759 1841
759 1842
759 1844
759 1845
759 1848
759 1851
759 1854
759 1857
759 1864
759 1868
759 1870
759 1884
759 1894
759 1895
759 1908
759 1919
759 1940
759 1951
759 1974
759 1991
759 2011
759 2037
759 2046
759 2055
759 2060
759 2066
759 2075
759 2077
759 2089
759 2122
759 2132
759 2151
759 2162
759 2168
759 2177
759 2185
759 2187
759 2196
759 2225
759 2237
759 2274
759 2296
759 2305
759 2306
760 768
760 779
760 782
760 784
760 813
760 814
760 836
760 841
760 888
760 907
760 915
760 980
760 986
760 1003
760 1015
760 1029
760 1035
760 1053
760 1054
760 1068
760 1070
760 1086
760 1136
760 1161
760 1256
760 1280
760 1308
760 1345
760 1357
760 1372
760 1390
760 1502
760 1504
760 1512
760 1548
760 1573
760 1588
760 1677
760 1679
760 1715
760 1760
760 1827
760 1849
760 1859
760 1921
760 1953
760 1961
760 1980
760 1982
760 2023
760 2024
760 2068
760 2147
760 2151
760 2154
760 2167
760 2171
760 2190
760 2191
760 2204
760 2223
760 2228
760 2237
760 2240
760 2244
760 2269
760 2274
760 2277
760 2304
760 2311
761 787
761 823
761 831
761 848
761 865
761 878
761 894
761 909
761 920
761 924
761 936
761 971
761 988
761 998
761 1011
761 1052
761 1064
761 1067
761 1095
761 1096
761 1113
761 1124
761 1152
761 1176
761 1177
761 1180
761 1188
761 1217
761 1219
761 1238
761 1268
761 1273
761 1274
761 1279
761 1288
761 1299
761 1310
761 1327
761 1391
761 1409
761 1420
761 1433
761 1485
761 1501
761 1517
761 1520
761 1554
761 1556
761 1579
761 1615
761 1619
761 1621
761 1625
761 1634
761 1663
761 1680
761 1683
761 1687
761 1742
761 1748
761 1751
761 1767
761 1776
761 1793
761 1809
761 1812
761 1816
761 1821
761 1825
761 1837
761 1841
761 1844
761 1870
761 1909
761 1931
761 1957
761 1959
761 1963
761 1982
761 1984
761 1991
761 1996
761 2019
761 2021
761 2043
761 2047
761 2049
761 2095
761 2103
761 2112
761 2135
761 2151
761 2161
761 2167
761 2185
761 2196
761 2199
761 2206
761 2210
761 2219
761 2225
761 2232
761 2233
761 2271
761 2312
762 787
762 792
762 811
762 852
762 937
762 948
762 955
762 997
762 1011
762 1050
762 1066
762 1085
762 1140
762 1144
762 1181
762 1228
762 1242
762 1247
762 1256
762 1282
762 1289
762 1315
762 1355
762 1358
762 1378
762 1385
762 1404
762 1475
762 1490
762 1514
762 1546
762 1579
762 1718
762 1806
762 1823
762 1858
762 1872
762 1874
762 1899
762 1931
762 2013
762 2022
762 2043
762 2110
762 2111
762 2115
762 2123
762 2181
762 2196
762 2208
762 2213
762 2259
762 2275
763 792
763 797
763 832
763 849
763 852
763 881
763 968
763 1019
763 1023
763 1289
763 1335
763 1435
763 1531
763 1538
763 1646
763 1659
763 1860
763 1873
763 1880
763 1899
763 1926
763 1995
763 2055
763 2066
763 2101
763 2110
763 2111
763 2175
763 2220
763 2231
764 780
764 792
764 812
764 818
764 835
764 853
764 861
764 868
764 879
764 893
764 930
764 949
764 958
764 969
764 996
764 1006
764 1049
764 1062
764 1094
764 1102
764 1125
764 1156
764 1175
764 1228
764 1242
764 1296
764 1305
764 1310
764 1326
764 1334
764 1363
764 1387
764 1399
764 1411
764 1424
764 1458
764 1491
764 1521
764 1540
764 1580
764 1626
764 1640
764 1713
764 1743
764 1760
764 1767
764 1775
764 1795
764 1806
764 1853
764 1854
764 1873
764 1971
764 1974
764 1979
764 1990
764 2022
764 2063
764 2066
764 2130
764 2185
765 825
765 827
765 831
765 861
765 912
765 922
765 923
765 954
765 971
765 998
765 1004
765 1016
765 1024
765 1036
765 1057
765 1116
765 1121
765 1311
765 1355
765 1412
765 1423
765 1446
765 1467
765 1469
765 1471
765 1537
765 1584
765 1598
765 1625
765 1637
765 1658
765 1752
765 1853
765 1854
765 1894
765 1951
765 1967
765 1992
765 2037
765 2046
765 2081
765 2129
765 2174
765 2175
765 2185
765 2236
765 2240
765 2270
765 2277
765 2295
766 1520
766 1994
767 813
767 864
767 872
767 874
767 884
767 898
767 932
767 954
767 965
767 1125
767 1156
767 1170
767 1223
767 1334
767 1358
767 1377
767 1384
767 1387
767 1392
767 1394
767 1415
767 1435
767 1474
767 1554
767 1558
767 1564
767 1595
767 1612
767 1620
767 1650
767 1668
767 1675
767 1704
767 1717
767 1726
767 1732
767 1738
767 1815
767 1842
767 1843
767 1879
767 1928
767 1963
767 1986
767 1995
767 2008
767 2016
767 2089
767 2122
767 2174
767 2249
767 2258
767 2274
767 2281
768 782
768 798
768 814
768 819
768 841
768 848
768 858
768 915
768 980
768 986
768 991
768 1003
768 1015
768 1029
768 1035
768 1053
768 1086
768 1089
768 1256
768 1268
768 1390
768 1444
768 1451
768 1499
768 1512
768 1563
768 1573
768 1578
768 1588
768 1643
768 1677
768 1703
768 1743
768 1789
768 1836
768 1859
768 1921
768 1961
768 1984
768 2015
768 2042
768 2127
768 2151
768 2154
768 2167
768 2204
768 2228
768 2240
768 2277
768 2311
769 931
769 1406
769 1615
769 1619
769 1697
769 1929
769 2125
769 2268
770 808
770 836
770 961
770 983
770 1016
770 1133
770 1139
770 1150
770 1280
770 1297
770 1304
770 1344
770 1368
770 1385
770 1393
770 1502
770 1569
770 1583
770 1703
770 1718
770 1743
770 1781
770 1796
770 1849
770 1851
770 1880
770 1895
770 1913
770 1945
770 1948
770 1966
770 2037
770 2056
770 2260
770 2265
771 783
771 891
771 895
771 914
771 925
771 929
771 940
771 943
771 967
771 999
771 1025
771 1047
771 1052
771 1080
771 1114
771 1123
771 1126
771 1131
771 1146
771 1183
771 1226
771 1239
771 1255
771 1287
771 1293
771 1306
771 1374
771 1402
771 1414
771 1417
771 1445
771 1452
771 1461
771 1477
771 1486
771 1527
771 1534
771 1551
771 1574
771 1592
771 1610
771 1613
771 1652
771 1678
771 1696
771 1736
771 1758
771 1759
771 1791
771 1794
771 1801
771 1819
771 1846
771 1847
771 1889
771 1898
771 1981
771 2001
771 2004
771 2020
771 2044
771 2052
771 2053
771 2077
771 2080
771 2091
771 2199
771 2218
771 2287
771 2302
772 947
772 1075
772 1159
772 1160
772 1233
772 1483
772 1508
772 1650
772 1755
772 1818
772 1825
772 1874
772 1954
772 2023
772 2037
772 2049
772 2055
772 2156
772 2227
772 2240
772 2277
772 2308
773 2255
774 945
774 1549
774 1831
774 1942
774 2270
775 786
775 824
775 924
775 1071
775 1110
775 1140
775 1262
775 1274
775 1281
775 1312
775 1410
775 1437
775 1538
775 1576
775 1579
775 1615
775 1852
775 1869
775 1896
775 1919
775 1949
775 1963
775 2060
775 2164
776 778
776 792
776 848
776 863
776 866
776 874
776 893
776 898
776 919
776 932
776 941
776 970
776 971
776 972
776 977
776 996
776 1011
776 1013
776 1043
776 1057
776 1067
776 1071
776 1085
776 1104
776 1115
776 1118
776 1121
776 1124
776 1156
776 1164
776 1177
776 1188
776 1205
776 1219
776 1225
776 1238
776 1265
776 1274
776 1275
776 1281
776 1308
776 1310
776 1315
776 1324
776 1327
776 1330
776 1332
776 1334
776 1339
776 1356
776 1368
776 1377
776 1383
776 1404
776 1411
776 1424
776 1425
776 1471
776 1485
776 1503
776 1535
776 1546
776 1564
776 1611
776 1619
776 1628
776 1639
776 1663
776 1680
776 1700
776 1706
776 1723
776 1738
776 1739
776 1745
776 1751
776 1752
776 1798
776 1842
776 1858
776 1864
776 1870
776 1879
776 1909
776 1927
776 1929
776 1931
776 1948
776 1951
776 1983
776 2000
776 2023
776 2046
776 2088
776 2089
776 2106
776 2125
776 2139
776 2159
776 2175
776 2177
776 2184
776 2185
776 2193
776 2221
776 2225
776 2249
776 2252
776 2268
776 2284
776 2289
777 862
777 938
777 1056
777 1110
777 1281
777 1348
777 1436
777 1485
777 1920
777 2058
777 2273
777 2304
778 864
778 923
778 932
778 961
778 978
778 980
778 998
778 1004
778 1013
778 1048
778 1070
778 1085
778 1091
778 1177
778 1189
778 1205
778 1245
778 1300
778 1311
778 1348
778 1355
778 1435
778 1485
778 1513
778 1539
778 1546
778 1595
778 1598
778 1606
778 1621
778 1623
778 1657
778 1697
778 1741
778 1743
778 1767
778 1812
778 1829
778 1853
778 1873
778 1927
778 1964
778 1974
778 1990
778 2007
778 2037
778 2043
778 2062
778 2070
778 2081
778 2088
778 2108
778 2121
778 2140
778 2163
778 2175
778 2185
778 2189
778 2192
778 2213
778 2236
778 2266
778 2289
778 2295
779 784
779 1168
780 812
780 843
780 853
780 879
780 893
780 934
780 1057
780 1305
780 1354
780 1411
780 1521
780 1580
780 1798
780 1854
780 1873
780 1999
780 2175
780 2304
781 794
781 922
781 959
781 983
781 1008
781 1013
781 1044
781 1101
781 1146
781 1205
781 1251
781 1371
781 1373
781 1429
781 1550
781 1672
781 1676
781 1824
781 1828
781 1899
781 1910
781 1920
781 1974
781 2029
781 2043
781 2046
781 2058
781 2059
781 2065
781 2231
781 2273
781 2276
781 2296
782 800
782 813
782 814
782 819
782 830
782 836
782 839
782 841
782 858
782 860
782 861
782 871
782 876
782 892
782 900
782 904
782 906
782 907
782 915
782 920
782 924
782 951
782 980
782 983
782 986
782 991
782 1003
782 1009
782 1015
782 1029
782 1031
782 1035
782 1045
782 1053
782 1058
782 1063
782 1068
782 1069
782 1075
782 1084
782 1086
782 1089
782 1095
782 1111
782 1138
782 1147
782 1150
782 1156
782 1168
782 1170
782 1171
782 1208
782 1215
782 1220
782 1233
782 1249
782 1256
782 1258
782 1265
782 1268
782 1270
782 1276
782 1280
782 1299
782 1303
782 1329
782 1345
782 1352
782 1354
782 1357
782 1361
782 1368
782 1390
782 1421
782 1425
782 1451
782 1499
782 1503
782 1508
782 1512
782 1548
782 1558
782 1561
782 1573
782 1578
782 1588
782 1590
782 1634
782 1643
782 1646
782 1667
782 1669
782 1671
782 1675
782 1677
782 1679
782 1689
782 1697
782 1703
782 1715
782 1716
782 1727
782 1734
782 1743
782 1754
782 1755
782 1763
782 1782
782 1786
782 1789
782 1790
782 1803
782 1809
782 1825
782 1829
782 1836
782 1844
782 1848
782 1849
782 1859
782 1860
782 1866
782 1867
782 1874
782 1888
782 1906
782 1908
782 1921
782 1927
782 1951
782 1961
782 1962
782 1977
782 1979
782 1980
782 1984
782 1989
782 1991
782 1996
782 1998
782 2023
782 2024
782 2027
782 2042
782 2046
782 2049
782 2060
782 2066
782 2068
782 2097
782 2104
782 2113
782 2115
782 2120
782 2147
782 2150
782 2151
782 2154
782 2156
782 2160
782 2163
782 2167
782 2177
782 2190
782 2191
782 2204
782 2223
782 2225
782 2228
782 2234
782 2240
782 2244
782 2258
782 2261
782 2269
782 2274
782 2280
782 2295
782 2304
782 2311
783 854
783 891
783 895
783 911
783 914
783 925
783 943
783 989
783 995
783 999
783 1047
783 1100
783 1103
783 1126
783 1131
783 1183
783 1190
783 1230
783 1231
783 1239
783 1263
783 1284
783 1286
783 1290
783 1306
783 1320
783 1346
783 1351
783 1365
783 1370
783 1374
783 1412
783 1445
783 1461
783 1477
783 1485
783 1486
783 1525
783 1527
783 1552
783 1555
783 1582
783 1589
783 1610
783 1651
783 1652
783 1661
783 1682
783 1733
783 1736
783 1757
783 1816
783 1819
783 1820
783 1846
783 1847
783 1898
783 1933
783 1934
783 1943
783 2001
783 2004
783 2028
783 2044
783 2052
783 2178
783 2253
784 1556
784 1634
784 1748
784 1851
784 2146
784 2170
784 2201
784 2203
784 2226
785 792
785 800
785 810
785 855
785 884
785 1038
785 1050
785 1062
785 1111
785 1166
785 1204
785 1233
785 1249
785 1289
785 1300
785 1308
785 1343
785 1352
785 1558
785 1620
785 1669
785 1671
785 1708
785 1715
785 1717
785 1743
785 1746
785 1782
785 1855
785 1864
785 1879
785 1903
785 1908
785 1951
785 1999
785 2016
785 2049
785 2065
785 2100
785 2120
785 2151
785 2237
785 2240
785 2264
785 2280
786 787
786 807
786 808
786 872
786 877
786 908
786 923
786 924
786 928
786 960
786 991
786 993
786 1013
786 1016
786 1031
786 1046
786 1050
786 1079
786 1092
786 1101
786 1110
786 1133
786 1136
786 1143
786 1205
786 1254
786 1273
786 1275
786 1281
786 1303
786 1312
786 1332
786 1345
786 1348
786 1355
786 1363
786 1371
786 1388
786 1392
786 1411
786 1420
786 1424
786 1427
786 1455
786 1469
786 1489
786 1503
786 1511
786 1513
786 1538
786 1550
786 1563
786 1576
786 1606
786 1633
786 1674
786 1684
786 1697
786 1709
786 1755
786 1763
786 1780
786 1802
786 1804
786 1829
786 1833
786 1834
786 1845
786 1852
786 1863
786 1869
786 1886
786 1907
786 1919
786 1924
786 1949
786 1950
786 1956
786 1963
786 1974
786 1977
786 2003
786 2060
786 2069
786 2073
786 2074
786 2104
786 2120
786 2154
786 2195
786 2259
786 2269
786 2272
786 2273
786 2295
786 2306
787 829
787 861
787 877
787 892
787 909
787 924
787 928
787 937
787 938
787 947
787 960
787 981
787 1029
787 1039
787 1046
787 1056
787 1060
787 1074
787 1075
787 1103
787 1110
787 1137
787 1139
787 1159
787 1177
787 1185
787 1200
787 1222
787 1223
787 1250
787 1262
787 1273
787 1281
787 1312
787 1330
787 1331
787 1332
787 1340
787 1341
787 1373
787 1385
787 1398
787 1420
787 1433
787 1437
787 1442
787 1493
787 1497
787 1511
787 1563
787 1566
787 1576
787 1579
787 1580
787 1611
787 1612
787 1645
787 1650
787 1709
787 1763
787 1779
787 1780
787 1787
787 1799
787 1802
787 1804
787 1806
787 1812
787 1813
787 1822
787 1825
787 1840
787 1841
787 1843
787 1844
787 1845
787 1852
787 1869
787 1874
787 1878
787 1883
787 1896
787 1918
787 1919
787 1924
787 1935
787 1953
787 1977
787 1984
787 1988
787 1999
787 2013
787 2019
787 2021
787 2024
787 2060
787 2065
787 2086
787 2093
787 2094
787 2104
787 2133
787 2143
787 2148
787 2177
787 2195
787 2215
787 2232
787 2234
787 2244
787 2284
787 2296
787 2304
787 2306
788 797
788 807
788 829
788 830
788 833
788 883
788 900
788 928
788 951
788 983
788 993
788 1001
788 1003
788 1008
788 1103
788 1110
788 1130
788 1139
788 1145
788 1168
788 1197
788 1251
788 1253
788 1271
788 1323
788 1333
788 1388
788 1392
788 1434
788 1437
788 1448
788 1457
788 1466
788 1469
788 1483
788 1489
788 1563
788 1605
788 1606
788 1679
788 1684
788 1690
788 1702
788 1724
788 1780
788 1824
788 1834
788 1845
788 1847
788 1868
788 1893
788 1907
788 1911
788 1918
788 1949
788 1974
788 1977
788 2003
788 2007
788 2045
788 2072
788 2074
788 2093
788 2111
788 2123
788 2187
788 2272
788 2295
788 2304
788 2305
789 895
789 1395
790 798
790 814
790 867
790 914
790 929
790 957
790 962
790 1047
790 1099
790 1197
790 1226
790 1230
790 1239
790 1240
790 1243
790 1293
790 1306
790 1351
790 1374
790 1382
790 1395
790 1402
790 1436
790 1452
790 1477
790 1486
790 1532
790 1534
790 1536
790 1543
790 1563
790 1592
790 1610
790 1613
790 1666
790 1679
790 1696
790 1720
790 1736
790 1791
790 1816
790 1949
790 2011
790 2038
790 2044
790 2052
790 2091
790 2152
790 2153
790 2188
790 2199
790 2218
790 2287
791 792
791 825
791 827
791 835
791 845
791 848
791 853
791 872
791 884
791 893
791 898
791 928
791 930
791 958
791 965
791 969
791 972
791 984
791 996
791 1020
791 1023
791 1091
791 1095
791 1125
791 1133
791 1143
791 1156
791 1158
791 1165
791 1169
791 1175
791 1186
791 1201
791 1203
791 1247
791 1277
791 1280
791 1281
791 1282
791 1315
791 1334
791 1352
791 1355
791 1364
791 1380
791 1392
791 1411
791 1415
791 1435
791 1460
791 1485
791 1499
791 1521
791 1538
791 1546
791 1563
791 1564
791 1586
791 1595
791 1612
791 1640
791 1642
791 1663
791 1668
791 1688
791 1713
791 1717
791 1726
791 1741
791 1742
791 1777
791 1814
791 1817
791 1834
791 1868
791 1873
791 1882
791 1885
791 1894
791 1916
791 1922
791 1951
791 1962
791 1964
791 1971
791 1974
791 1994
791 2057
791 2104
791 2110
791 2115
791 2116
791 2129
791 2154
791 2185
791 2193
791 2274
791 2303
792 804
792 807
792 808
792 815
792 816
792 821
792 824
792 831
792 832
792 835
792 840
792 846
792 848
792 852
792 855
792 858
792 874
792 881
792 883
792 886
792 893
792 898
792 904
792 919
792 923
792 924
792 926
792 928
792 930
792 931
792 936
792 937
792 942
792 944
792 949
792 950
792 954
792 959
792 960
792 965
792 970
792 993
792 996
792 1003
792 1009
792 1010
792 1015
792 1020
792 1024
792 1042
792 1045
792 1050
792 1051
792 1054
792 1062
792 1063
792 1082
792 1090
792 1092
792 1110
792 1118
792 1120
792 1130
792 1133
792 1149
792 1151
792 1164
792 1177
792 1198
792 1203
792 1233
792 1244
792 1247
792 1250
792 1252
792 1253
792 1259
792 1262
792 1268
792 1270
792 1271
792 1273
792 1274
792 1275
792 1281
792 1282
792 1283
792 1297
792 1304
792 1308
792 1315
792 1332
792 1335
792 1339
792 1355
792 1358
792 1363
792 1364
792 1378
792 1385
792 1387
792 1392
792 1396
792 1401
792 1404
792 1411
792 1424
792 1446
792 1458
792 1482
792 1485
792 1487
792 1489
792 1493
792 1503
792 1512
792 1514
792 1521
792 1538
792 1544
792 1546
792 1547
792 1549
792 1559
792 1564
792 1569
792 1570
792 1572
792 1578
792 1584
792 1586
792 1594
792 1612
792 1618
792 1621
792 1633
792 1638
792 1639
792 1646
792 1655
792 1659
792 1663
792 1669
792 1672
792 1676
792 1680
792 1685
792 1690
792 1697
792 1715
792 1718
792 1741
792 1743
792 1760
792 1767
792 1771
792 1778
792 1782
792 1787
792 1790
792 1798
792 1805
792 1806
792 1828
792 1852
792 1863
792 1870
792 1873
792 1874
792 1890
792 1891
792 1893
792 1894
792 1896
792 1913
792 1915
792 1919
792 1931
792 1948
792 1949
792 1956
792 1957
792 1963
792 1964
792 1966
792 1967
792 1974
792 1977
792 1979
792 1987
792 1995
792 1999
792 2013
792 2022
792 2023
792 2027
792 2037
792 2051
792 2055
792 2062
792 2063
792 2065
792 2073
792 2074
792 2079
792 2093
792 2097
792 2108
792 2111
792 2116
792 2117
792 2123
792 2127
792 2130
792 2135
792 2143
792 2144
792 2147
792 2156
792 2163
792 2164
792 2190
792 2192
792 2210
792 2221
792 2225
792 2231
792 2241
792 2252
792 2259
792 2268
792 2269
792 2272
792 2281
792 2295
792 2298
792 2308
792 2311
793 840
793 846
793 848
793 865
793 941
793 969
793 984
793 1011
793 1113
793 1148
793 1152
793 1166
793 1176
793 1177
793 1193
793 1219
793 1238
793 1244
793 1300
793 1327
793 1387
793 1409
793 1415
793 1485
793 1520
793 1562
793 1581
793 1680
793 1683
793 1717
793 1777
793 1851
793 1864
793 1870
793 1983
793 2027
793 2196
794 802
794 928
794 978
794 1013
794 1143
794 1205
794 1252
794 1315
794 1331
794 1396
794 1429
794 1566
794 1646
794 1670
794 1692
794 1910
794 1920
794 2029
794 2058
794 2163
794 2200
794 2273
794 2295
794 2303
795 856
795 914
795 940
795 989
795 1080
795 1140
795 1209
795 1290
795 1307
795 1316
795 1320
795 1342
795 1364
795 1394
795 1472
795 1582
795 1656
795 1722
795 1816
795 1952
796 1041
797 829
797 833
797 849
797 860
797 881
797 883
797 924
797 1001
797 1042
797 1103
797 1143
797 1200
797 1251
797 1254
797 1258
797 1323
797 1385
797 1405
797 1434
797 1437
797 1457
797 1511
797 1531
797 1563
797 1605
797 1646
797 1672
797 1679
797 1684
797 1690
797 1824
797 1852
797 1860
797 1869
797 1896
797 1926
797 1989
797 2030
797 2059
797 2062
797 2065
797 2101
797 2123
797 2152
797 2198
797 2202
797 2220
797 2295
798 805
798 815
798 829
798 830
798 836
798 850
798 862
798 874
798 877
798 887
798 892
798 900
798 906
798 907
798 909
798 924
798 928
798 937
798 938
798 960
798 981
798 983
798 1003
798 1009
798 1029
798 1031
798 1039
798 1046
798 1050
798 1053
798 1068
798 1074
798 1075
798 1129
798 1136
798 1137
798 1139
798 1160
798 1161
798 1176
798 1181
798 1198
798 1200
798 1208
798 1222
798 1280
798 1282
798 1309
798 1331
798 1333
798 1337
798 1345
798 1348
798 1361
798 1375
798 1385
798 1392
798 1398
798 1416
798 1433
798 1440
798 1444
798 1450
798 1455
798 1457
798 1466
798 1483
798 1488
798 1489
798 1493
798 1504
798 1508
798 1515
798 1548
798 1561
798 1563
798 1566
798 1569
798 1576
798 1588
798 1677
798 1679
798 1684
798 1702
798 1755
798 1784
798 1786
798 1787
798 1804
798 1812
798 1813
798 1818
798 1825
798 1828
798 1840
798 1845
798 1848
798 1852
798 1859
798 1869
798 1907
798 1911
798 1915
798 1918
798 1921
798 1924
798 1932
798 1949
798 1953
798 1954
798 1956
798 1969
798 1977
798 1980
798 1982
798 1984
798 1989
798 2003
798 2019
798 2024
798 2065
798 2073
798 2074
798 2077
798 2084
798 2086
798 2101
798 2104
798 2112
798 2120
798 2123
798 2134
798 2144
798 2147
798 2149
798 2150
798 2156
798 2160
798 2198
798 2227
798 2228
798 2232
798 2244
798 2265
798 2269
798 2272
798 2277
798 2295
798 2304
798 2306
799 834
799 867
799 870
799 896
799 914
799 943
799 979
799 1076
799 1157
799 1183
799 1231
799 1237
799 1272
799 1351
799 1374
799 1417
799 1543
799 1582
799 1592
799 1711
799 1759
799 1816
799 1847
799 1898
799 2001
799 2044
799 2061
799 2118
799 2137
799 2152
799 2230
800 810
800 813
800 818
800 848
800 861
800 874
800 926
800 932
800 954
800 965
800 1038
800 1048
800 1062
800 1063
800 1070
800 1078
800 1095
800 1118
800 1144
800 1177
800 1204
800 1233
800 1250
800 1265
800 1268
800 1270
800 1271
800 1343
800 1383
800 1411
800 1423
800 1451
800 1466
800 1485
800 1512
800 1513
800 1520
800 1573
800 1583
800 1590
800 1611
800 1612
800 1620
800 1633
800 1663
800 1679
800 1717
800 1723
800 1738
800 1746
800 1760
800 1782
800 1803
800 1825
800 1842
800 1849
800 1879
800 1908
800 1921
800 1931
800 1951
800 1987
800 1991
800 2015
800 2039
800 2051
800 2056
800 2060
800 2072
800 2100
800 2120
800 2174
800 2245
800 2261
800 2264
800 2274
801 902
801 968
801 1102
801 1118
801 1125
801 1315
801 1324
801 1344
801 1554
801 1751
801 1777
801 1858
801 1873
801 2106
801 2264
801 2271
802 928
802 993
802 996
802 1008
802 1027
802 1092
802 1133
802 1252
802 1259
802 1332
802 1352
802 1371
802 1396
802 1406
802 1424
802 1469
802 1492
802 1511
802 1513
802 1566
802 1569
802 1570
802 1645
802 1646
802 1674
802 1693
802 1700
802 1719
802 1763
802 1828
802 1896
802 1900
802 1999
802 2030
802 2048
802 2059
802 2144
802 2163
802 2284
802 2295
802 2296
803 829
803 864
803 923
803 960
803 978
803 991
803 1013
803 1020
803 1103
803 1108
803 1139
803 1151
803 1205
803 1275
803 1312
803 1333
803 1348
803 1355
803 1371
803 1373
803 1420
803 1429
803 1432
803 1485
803 1539
803 1546
803 1566
803 1684
803 1702
803 1726
803 1779
803 1780
803 1822
803 1834
803 1840
803 1906
803 1949
803 1974
803 1977
803 2024
803 2043
803 2062
803 2140
803 2187
803 2190
803 2251
804 861
804 864
804 874
804 883
804 928
804 932
804 937
804 1063
804 1289
804 1344
804 1475
804 1538
804 1583
804 1745
804 1873
804 1908
804 1948
804 1987
804 2079
804 2110
804 2259
805 861
805 880
805 892
805 906
805 986
805 1039
805 1044
805 1060
805 1208
805 1254
805 1280
805 1337
805 1361
805 1415
805 1416
805 1495
805 1497
805 1504
805 1515
805 1533
805 1561
805 1576
805 1578
805 1634
805 1755
805 1772
805 1784
805 1786
805 1787
805 1825
805 1848
805 1885
805 1904
805 1911
805 1921
805 1931
805 1936
805 1949
805 1982
805 1984
805 1989
805 2084
805 2104
805 2150
805 2177
805 2179
805 2242
805 2265
805 2288
806 964
806 1026
806 1134
806 1230
806 1240
806 1391
806 1476
806 1498
806 1592
806 2082
807 819
807 824
807 830
807 892
807 900
807 915
807 928
807 960
807 980
807 983
807 1003
807 1008
807 1013
807 1031
807 1050
807 1074
807 1085
807 1092
807 1101
807 1110
807 1130
807 1139
807 1145
807 1161
807 1168
807 1177
807 1197
807 1198
807 1205
807 1222
807 1237
807 1253
807 1254
807 1271
807 1275
807 1281
807 1312
807 1323
807 1333
807 1348
807 1354
807 1388
807 1390
807 1392
807 1420
807 1429
807 1434
807 1448
807 1466
807 1469
807 1483
807 1485
807 1489
807 1493
807 1508
807 1521
807 1527
807 1563
807 1645
807 1670
807 1674
807 1677
807 1684
807 1690
807 1693
807 1780
807 1787
807 1802
807 1813
807 1847
807 1868
807 1883
807 1893
807 1907
807 1911
807 1918
807 1932
807 1949
807 1954
807 1963
807 1974
807 1977
807 1999
807 2007
807 2013
807 2019
807 2043
807 2045
807 2060
807 2074
807 2093
807 2111
807 2123
807 2143
807 2163
807 2223
807 2227
807 2277
807 2295
807 2296
807 2304
807 2305
808 815
808 818
808 826
808 837
808 840
808 848
808 850
808 855
808 877
808 881
808 894
808 898
808 935
808 960
808 965
808 970
808 977
808 991
808 1016
808 1020
808 1046
808 1052
808 1054
808 1063
808 1075
808 1082
808 1087
808 1142
808 1146
808 1159
808 1168
808 1171
808 1176
808 1184
808 1203
808 1214
808 1225
808 1244
808 1252
808 1256
808 1265
808 1270
808 1289
808 1297
808 1305
808 1318
808 1336
808 1348
808 1355
808 1364
808 1368
808 1371
808 1378
808 1385
808 1388
808 1411
808 1425
808 1432
808 1439
808 1455
808 1458
808 1485
808 1500
808 1502
808 1506
808 1513
808 1521
808 1538
808 1581
808 1583
808 1587
808 1589
808 1590
808 1606
808 1621
808 1633
808 1637
808 1650
808 1666
808 1669
808 1671
808 1676
808 1697
808 1700
808 1709
808 1715
808 1741
808 1743
808 1744
808 1755
808 1760
808 1771
808 1775
808 1790
808 1803
808 1825
808 1829
808 1835
808 1845
808 1848
808 1852
808 1854
808 1866
808 1873
808 1885
808 1894
808 1913
808 1925
808 1926
808 1945
808 1951
808 1956
808 1964
808 1966
808 1974
808 1999
808 2027
808 2037
808 2055
808 2056
808 2111
808 2156
808 2175
808 2197
808 2200
808 2220
808 2225
808 2237
808 2245
808 2252
808 2259
808 2260
808 2289
808 2304
808 2306
809 956
809 961
809 1048
809 1049
809 1089
809 1156
809 1158
809 1268
809 1305
809 1326
809 1334
809 1465
809 1500
809 1549
809 1626
809 1640
809 1643
809 1687
809 1688
809 1713
809 1740
809 1742
809 1775
809 1831
809 1891
809 1931
809 1968
809 2017
809 2033
809 2055
809 2170
809 2183
809 2219
809 2262
809 2286
810 848
810 919
810 956
810 1038
810 1063
810 1086
810 1193
810 1224
810 1339
810 1343
810 1344
810 1423
810 1485
810 1557
810 1620
810 1663
810 1680
810 1703
810 1717
810 1752
810 1849
810 1851
810 1860
810 1873
810 1927
810 2036
810 2046
810 2049
810 2105
810 2124
810 2175
810 2200
810 2208
810 2237
810 2261
811 821
811 1054
811 1085
811 1118
811 1355
811 1702
811 1858
811 1928
811 2108
811 2115
811 2124
811 2208
811 2213
811 2221
812 825
812 831
812 835
812 843
812 853
812 861
812 868
812 879
812 893
812 898
812 930
812 932
812 969
812 970
812 1048
812 1050
812 1062
812 1093
812 1094
812 1110
812 1115
812 1121
812 1125
812 1174
812 1224
812 1244
812 1268
812 1305
812 1311
812 1326
812 1372
812 1384
812 1394
812 1399
812 1411
812 1423
812 1485
812 1491
812 1513
812 1521
812 1533
812 1540
812 1546
812 1584
812 1598
812 1610
812 1659
812 1706
812 1760
812 1775
812 1796
812 1822
812 1831
812 1839
812 1841
812 1857
812 1864
812 1866
812 1891
812 1894
812 1901
812 1971
812 1974
812 1981
812 1990
812 2016
812 2036
812 2069
812 2078
812 2103
812 2112
812 2124
812 2129
812 2175
812 2181
812 2183
812 2245
812 2264
812 2274
813 814
813 831
813 836
813 841
813 864
813 876
813 888
813 932
813 1038
813 1070
813 1094
813 1095
813 1103
813 1126
813 1127
813 1147
813 1161
813 1170
813 1183
813 1204
813 1249
813 1265
813 1288
813 1299
813 1308
813 1343
813 1357
813 1358
813 1372
813 1401
813 1416
813 1421
813 1452
813 1468
813 1520
813 1573
813 1619
813 1667
813 1668
813 1679
813 1714
813 1738
813 1753
813 1815
813 1825
813 1873
813 1908
813 1921
813 1931
813 1961
813 1963
813 1974
813 2007
813 2023
813 2041
813 2066
813 2082
813 2094
813 2129
813 2151
813 2167
813 2182
813 2213
813 2228
813 2237
813 2269
813 2274
813 2279
813 2311
814 831
814 841
814 858
814 860
814 864
814 876
814 888
814 915
814 920
814 956
814 980
814 1003
814 1029
814 1038
814 1053
814 1070
814 1089
814 1098
814 1117
814 1166
814 1170
814 1184
814 1204
814 1233
814 1265
814 1306
814 1372
814 1390
814 1421
814 1425
814 1482
814 1508
814 1543
814 1548
814 1563
814 1573
814 1578
814 1588
814 1643
814 1671
814 1677
814 1679
814 1717
814 1752
814 1771
814 1792
814 1825
814 1836
814 1857
814 1859
814 1906
814 1908
814 1961
814 1974
814 1980
814 2023
814 2042
814 2103
814 2154
814 2171
814 2228
814 2240
814 2242
814 2274
814 2311
815 824
815 850
815 861
815 906
815 908
815 916
815 935
815 941
815 956
815 977
815 988
815 1021
815 1043
815 1105
815 1111
815 1164
815 1176
815 1208
815 1221
815 1258
815 1265
815 1268
815 1280
815 1281
815 1308
815 1309
815 1318
815 1337
815 1354
815 1361
815 1385
815 1388
815 1389
815 1398
815 1400
815 1416
815 1438
815 1444
815 1451
815 1500
815 1502
815 1519
815 1535
815 1558
815 1561
815 1563
815 1576
815 1578
815 1650
815 1669
815 1677
815 1708
815 1751
815 1755
815 1772
815 1786
815 1799
815 1825
815 1831
815 1848
815 1891
815 1897
815 1921
815 1926
815 1931
815 1949
815 1977
815 1982
815 1984
815 1989
815 2017
815 2025
815 2104
815 2116
815 2138
815 2146
815 2156
815 2160
815 2236
815 2265
816 835
816 868
816 877
816 879
816 894
816 922
816 944
816 971
816 1044
816 1064
816 1066
816 1087
816 1155
816 1175
816 1181
816 1191
816 1211
816 1251
816 1252
816 1281
816 1354
816 1393
816 1411
816 1451
816 1493
816 1495
816 1537
816 1552
816 1571
816 1598
816 1625
816 1650
816 1672
816 1676
816 1701
816 1713
816 1720
816 1744
816 1803
816 1821
816 1854
816 1886
816 1899
816 1907
816 1950
816 1951
816 1953
816 1974
816 2037
816 2046
816 2053
816 2055
816 2073
816 2091
816 2185
816 2213
816 2225
816 2252
816 2276
816 2306
817 911
817 973
817 1100
817 1109
817 1123
817 1197
817 1199
817 1226
817 1240
817 1295
817 1306
817 1354
817 1376
817 1445
817 1592
817 1602
817 1604
817 1616
817 1651
817 1666
817 1757
817 1759
817 1798
817 1832
817 1861
817 1889
817 1898
817 1972
817 2053
817 2230
818 893
818 961
818 977
818 1008
818 1016
818 1036
818 1045
818 1116
818 1181
818 1296
818 1305
818 1325
818 1336
818 1343
818 1368
818 1388
818 1433
818 1502
818 1521
818 1538
818 1575
818 1583
818 1598
818 1606
818 1716
818 1835
818 1866
818 1945
818 1974
818 1979
818 1995
818 2022
818 2063
818 2071
818 2130
818 2192
818 2225
819 822
819 826
819 861
819 871
819 908
819 913
819 915
819 926
819 928
819 945
819 951
819 952
819 961
819 986
819 993
819 1008
819 1039
819 1058
819 1060
819 1063
819 1069
819 1073
819 1077
819 1089
819 1104
819 1111
819 1117
819 1135
819 1142
819 1168
819 1171
819 1181
819 1184
819 1200
819 1208
819 1232
819 1234
819 1258
819 1280
819 1281
819 1294
819 1318
819 1329
819 1337
819 1354
819 1393
819 1398
819 1401
819 1425
819 1439
819 1444
819 1448
819 1451
819 1482
819 1500
819 1518
819 1563
819 1578
819 1581
819 1590
819 1643
819 1648
819 1650
819 1667
819 1669
819 1677
819 1697
819 1703
819 1724
819 1774
819 1787
819 1825
819 1836
819 1845
819 1849
819 1851
819 1857
819 1911
819 1921
819 1951
819 1966
819 1982
819 1984
819 2012
819 2014
819 2060
819 2066
819 2087
819 2097
819 2104
819 2160
819 2180
819 2215
819 2219
819 2258
819 2261
819 2289
819 2295
819 2296
820 902
820 1095
820 1144
820 1400
820 1424
820 1556
820 1881
820 2201
821 852
821 893
821 1091
821 1247
821 1282
821 1289
821 1355
821 1378
821 1392
821 1435
821 1496
821 1625
821 1639
821 1767
821 1771
821 1806
821 1858
821 1896
821 1988
821 1995
821 2005
821 2035
821 2079
821 2213
821 2292
822 888
822 904
822 908
822 982
822 993
822 1049
822 1186
822 1210
822 1229
822 1324
822 1358
822 1387
822 1400
822 1415
822 1496
822 1503
822 1520
822 1556
822 1563
822 1578
822 1615
822 1621
822 1654
822 1672
822 1683
822 1688
822 1697
822 1724
822 1809
822 1837
822 1979
822 2027
822 2049
822 2060
822 2067
822 2095
822 2161
822 2162
822 2240
823 884
823 898
823 941
823 1122
823 1169
823 1238
823 1274
823 1344
823 1364
823 1485
823 1554
823 1870
823 1909
823 2049
823 2271
824 848
824 860
824 876
824 878
824 883
824 888
824 890
824 894
824 902
824 924
824 950
824 958
824 993
824 998
824 1001
824 1010
824 1051
824 1064
824 1071
824 1074
824 1090
824 1092
824 1095
824 1122
824 1140
824 1143
824 1149
824 1152
824 1169
824 1177
824 1180
824 1194
824 1203
824 1210
824 1211
824 1217
824 1223
824 1262
824 1268
824 1269
824 1274
824 1281
824 1288
824 1312
824 1358
824 1362
824 1364
824 1371
824 1392
824 1405
824 1411
824 1417
824 1424
824 1427
824 1448
824 1485
824 1494
824 1513
824 1521
824 1542
824 1559
824 1562
824 1563
824 1574
824 1579
824 1580
824 1594
824 1615
824 1618
824 1621
824 1623
824 1625
824 1650
824 1690
824 1693
824 1699
824 1716
824 1718
824 1782
824 1793
824 1802
824 1809
824 1873
824 1896
824 1909
824 1918
824 1922
824 1957
824 1959
824 1963
824 1974
824 2003
824 2005
824 2027
824 2045
824 2080
824 2095
824 2132
824 2147
824 2151
824 2164
824 2166
824 2167
824 2182
824 2192
824 2202
824 2210
824 2214
824 2225
824 2233
824 2289
824 2312
825 827
825 835
825 848
825 853
825 879
825 912
825 922
825 928
825 944
825 969
825 971
825 1036
825 1038
825 1044
825 1063
825 1116
825 1118
825 1120
825 1143
825 1160
825 1218
825 1225
825 1234
825 1244
825 1265
825 1280
825 1329
825 1337
825 1340
825 1411
825 1423
825 1467
825 1471
825 1485
825 1495
825 1499
825 1521
825 1538
825 1540
825 1557
825 1567
825 1590
825 1643
825 1668
825 1680
825 1706
825 1738
825 1746
825 1760
825 1783
825 1798
825 1810
825 1825
825 1853
825 1854
825 1864
825 1879
825 1882
825 1890
825 1916
825 1951
825 1991
825 2003
825 2068
825 2094
825 2100
825 2103
825 2129
825 2150
825 2171
825 2174
825 2185
825 2206
825 2209
825 2245
825 2255
825 2261
825 2303
825 2304
826 831
826 861
826 879
826 913
826 961
826 965
826 1050
826 1125
826 1201
826 1252
826 1267
826 1283
826 1327
826 1387
826 1415
826 1459
826 1546
826 1568
826 1775
826 1798
826 1854
826 1873
826 1876
826 1948
826 1951
826 2005
826 2012
826 2078
826 2087
826 2135
826 2182
826 2308
827 883
827 902
827 930
827 954
827 972
827 1094
827 1118
827 1164
827 1172
827 1174
827 1186
827 1274
827 1324
827 1377
827 1394
827 1485
827 1520
827 1584
827 1821
827 1890
827 1999
827 2036
827 2057
827 2122
827 2182
827 2249
827 2284
828 842
828 1141
828 1182
828 1226
828 1239
828 1532
828 1591
828 1593
828 1614
828 1721
829 830
829 833
829 892
829 900
829 909
829 960
829 1001
829 1046
829 1052
829 1066
829 1074
829 1159
829 1185
829 1198
829 1200
829 1212
829 1250
829 1281
829 1312
829 1323
829 1333
829 1340
829 1348
829 1366
829 1385
829 1437
829 1450
829 1488
829 1499
829 1513
829 1563
829 1576
829 1650
829 1670
829 1779
829 1787
829 1812
829 1813
829 1825
829 1840
829 1844
829 1845
829 1852
829 1869
829 1874
829 1878
829 1918
829 1924
829 1935
829 1949
829 1953
829 2013
829 2021
829 2024
829 2034
829 2045
829 2065
829 2069
829 2072
829 2073
829 2086
829 2094
829 2112
829 2133
829 2177
829 2195
829 2206
829 2244
829 2295
830 900
830 951
830 983
830 1074
830 1084
830 1110
830 1130
830 1145
830 1168
830 1197
830 1200
830 1236
830 1237
830 1271
830 1333
830 1371
830 1411
830 1457
830 1483
830 1563
830 1576
830 1690
830 1702
830 1709
830 1724
830 1727
830 1774
830 1779
830 1825
830 1845
830 1847
830 1874
830 1893
830 1918
830 1924
830 1931
830 1949
830 1974
830 1998
830 2007
830 2024
830 2045
830 2058
830 2060
830 2072
830 2076
830 2093
830 2111
830 2128
830 2202
830 2263
831 840
831 848
831 873
831 879
831 881
831 893
831 894
831 898
831 919
831 924
831 932
831 934
831 935
831 944
831 975
831 1045
831 1057
831 1062
831 1063
831 1066
831 1071
831 1078
831 1120
831 1127
831 1128
831 1140
831 1147
831 1168
831 1170
831 1171
831 1176
831 1177
831 1189
831 1265
831 1274
831 1280
831 1281
831 1283
831 1296
831 1308
831 1335
831 1337
831 1372
831 1396
831 1404
831 1410
831 1419
831 1444
831 1458
831 1459
831 1503
831 1512
831 1518
831 1523
831 1535
831 1546
831 1558
831 1564
831 1567
831 1579
831 1583
831 1630
831 1646
831 1660
831 1671
831 1676
831 1697
831 1716
831 1723
831 1751
831 1760
831 1771
831 1775
831 1776
831 1782
831 1785
831 1792
831 1798
831 1804
831 1825
831 1844
831 1864
831 1866
831 1879
831 1883
831 1931
831 1940
831 1947
831 1951
831 1963
831 1967
831 1987
831 2015
831 2023
831 2037
831 2049
831 2104
831 2117
831 2124
831 2133
831 2147
831 2151
831 2195
831 2220
831 2221
831 2242
831 2245
831 2252
831 2258
831 2260
831 2261
831 2265
831 2268
831 2274
831 2280
831 2308
832 852
832 970
832 1115
832 1151
832 1211
832 1244
832 1430
832 1572
832 1580
832 1598
832 1659
832 1771
832 1873
832 2037
832 2175
832 2231
832 2248
832 2259
833 865
833 883
833 910
833 955
833 981
833 982
833 1001
833 1015
833 1042
833 1072
833 1092
833 1093
833 1101
833 1103
833 1110
833 1126
833 1180
833 1210
833 1244
833 1251
833 1254
833 1306
833 1323
833 1332
833 1394
833 1411
833 1424
833 1434
833 1437
833 1508
833 1514
833 1538
833 1542
833 1554
833 1563
833 1565
833 1579
833 1605
833 1633
833 1638
833 1646
833 1672
833 1679
833 1697
833 1754
833 1769
833 1793
833 1795
833 1824
833 1852
833 1869
833 1878
833 1896
833 1909
833 1959
833 2003
833 2016
833 2030
833 2043
833 2051
833 2058
833 2065
833 2067
833 2068
833 2073
833 2079
833 2123
833 2198
833 2202
834 896
834 960
834 995
834 1033
834 1107
834 1146
834 1178
834 1230
834 1237
834 1239
834 1286
834 1306
834 1374
834 1402
834 1525
834 1543
834 1712
834 1731
834 1759
834 1797
834 1847
834 2002
834 2038
834 2044
834 2080
834 2137
834 2142
834 2207
834 2230
834 2232
835 843
835 853
835 861
835 868
835 879
835 893
835 901
835 910
835 922
835 930
835 938
835 954
835 958
835 969
835 1016
835 1048
835 1049
835 1062
835 1094
835 1102
835 1110
835 1116
835 1125
835 1156
835 1174
835 1175
835 1201
835 1225
835 1268
835 1281
835 1300
835 1305
835 1310
835 1326
835 1347
835 1387
835 1399
835 1411
835 1423
835 1424
835 1443
835 1446
835 1458
835 1491
835 1512
835 1513
835 1521
835 1535
835 1540
835 1554
835 1580
835 1626
835 1640
835 1663
835 1668
835 1713
835 1742
835 1744
835 1760
835 1770
835 1775
835 1806
835 1854
835 1863
835 1894
835 1971
835 1974
835 1979
835 1990
835 2025
835 2046
835 2055
835 2073
835 2110
835 2177
835 2183
835 2185
835 2237
835 2251
835 2289
836 841
836 850
836 871
836 906
836 907
836 909
836 915
836 947
836 970
836 980
836 981
836 986
836 1003
836 1015
836 1029
836 1035
836 1039
836 1050
836 1053
836 1066
836 1068
836 1073
836 1075
836 1077
836 1086
836 1111
836 1129
836 1131
836 1145
836 1150
836 1161
836 1171
836 1176
836 1181
836 1256
836 1258
836 1276
836 1280
836 1297
836 1301
836 1345
836 1357
836 1361
836 1366
836 1375
836 1390
836 1392
836 1413
836 1433
836 1440
836 1450
836 1493
836 1504
836 1508
836 1561
836 1563
836 1588
836 1650
836 1670
836 1671
836 1677
836 1679
836 1697
836 1734
836 1754
836 1755
836 1763
836 1786
836 1789
836 1790
836 1796
836 1799
836 1803
836 1810
836 1825
836 1848
836 1873
836 1874
836 1878
836 1913
836 1924
836 1939
836 1944
836 1948
836 1953
836 1954
836 1969
836 1980
836 1982
836 1998
836 2013
836 2024
836 2037
836 2049
836 2056
836 2068
836 2076
836 2086
836 2094
836 2097
836 2101
836 2112
836 2113
836 2128
836 2141
836 2147
836 2148
836 2149
836 2151
836 2156
836 2158
836 2171
836 2176
836 2190
836 2204
836 2220
836 2225
836 2227
836 2234
836 2240
836 2242
836 2244
836 2254
836 2277
836 2295
836 2304
836 2311
837 864
837 883
837 894
837 965
837 972
837 1009
837 1020
837 1051
837 1082
837 1167
837 1186
837 1304
837 1308
837 1334
837 1335
837 1364
837 1368
837 1371
837 1378
837 1384
837 1387
837 1392
837 1415
837 1432
837 1448
837 1533
837 1566
837 1568
837 1586
837 1612
837 1620
837 1633
837 1639
837 1648
837 1684
837 1718
837 1723
837 1732
837 1778
837 1796
837 1815
837 1829
837 1848
837 1866
837 1874
837 1879
837 1885
837 1893
837 1920
837 1963
837 1979
837 1986
837 2008
837 2023
837 2036
837 2056
837 2057
837 2110
837 2111
837 2140
837 2162
837 2240
837 2275
838 899
838 1018
838 1114
838 1131
838 1179
838 1183
838 1522
838 2018
838 2283
839 892
839 961
839 971
839 1058
839 1073
839 1084
839 1138
839 1159
839 1171
839 1225
839 1234
839 1236
839 1250
839 1265
839 1280
839 1329
839 1340
839 1433
839 1437
839 1442
839 1497
839 1505
839 1576
839 1669
839 1724
839 1727
839 1730
839 1734
839 1787
839 1825
839 1839
839 1844
839 1848
839 1874
839 1882
839 1904
839 1925
839 1936
839 1982
839 2024
839 2049
839 2054
839 2066
839 2094
839 2097
839 2109
839 2120
839 2168
839 2177
839 2206
839 2215
839 2234
839 2242
839 2254
839 2265
840 858
840 954
840 961
840 1011
840 1039
840 1142
840 1148
840 1158
840 1171
840 1176
840 1212
840 1220
840 1221
840 1265
840 1267
840 1279
840 1280
840 1288
840 1354
840 1383
840 1388
840 1413
840 1444
840 1540
840 1566
840 1584
840 1761
840 1825
840 1852
840 1903
840 1925
840 1926
840 1931
840 1983
840 1994
840 2109
840 2146
840 2168
840 2183
840 2229
840 2232
840 2236
840 2260
840 2279
841 858
841 871
841 876
841 907
841 915
841 947
841 980
841 981
841 991
841 1003
841 1015
841 1029
841 1035
841 1038
841 1053
841 1086
841 1145
841 1150
841 1170
841 1215
841 1228
841 1256
841 1301
841 1303
841 1308
841 1345
841 1357
841 1375
841 1390
841 1425
841 1512
841 1547
841 1548
841 1573
841 1588
841 1677
841 1679
841 1697
841 1754
841 1760
841 1763
841 1771
841 1789
841 1796
841 1824
841 1845
841 1859
841 1867
841 1874
841 1913
841 1919
841 1921
841 1927
841 1954
841 1961
841 1974
841 1979
841 1980
841 1993
841 2024
841 2042
841 2049
841 2068
841 2070
841 2128
841 2147
841 2151
841 2154
841 2156
841 2191
841 2204
841 2228
841 2237
841 2244
841 2252
841 2285
841 2304
841 2311
842 882
842 896
842 900
842 957
842 1074
842 1076
842 1141
842 1154
842 1182
842 1226
842 1237
842 1349
842 1532
842 1543
842 1589
842 1593
842 1918
842 1924
842 1949
842 2256
842 2287
843 848
843 853
843 861
843 875
843 879
843 901
843 930
843 942
843 969
843 1030
843 1094
843 1174
843 1268
843 1305
843 1325
843 1364
843 1371
843 1377
843 1405
843 1411
843 1424
843 1491
843 1513
843 1521
843 1540
843 1570
843 1580
843 1626
843 1649
843 1664
843 1675
843 1680
843 1760
843 1821
843 1863
843 1874
843 1890
843 1971
843 2183
843 2212
843 2307
844 929
844 1146
844 1154
844 1179
844 1199
844 1202
844 1226
844 1351
844 1552
844 1617
844 1647
844 1731
844 1736
844 1862
844 2052
844 2061
844 2099
844 2152
844 2217
844 2243
844 2283
844 2304
845 1087
845 1165
845 1315
845 1529
845 1657
845 2157
846 874
846 886
846 893
846 936
846 954
846 1024
846 1048
846 1049
846 1110
846 1156
846 1171
846 1201
846 1203
846 1274
846 1371
846 1377
846 1387
846 1405
846 1485
846 1503
846 1520
846 1538
846 1564
846 1874
846 1931
846 1987
846 1995
846 2012
846 2017
846 2062
846 2073
846 2089
846 2098
846 2132
846 2161
846 2264
846 2274
846 2281
846 2298
846 2308
847 864
847 883
847 1205
847 1539
847 1750
847 1891
847 2131
848 858
848 860
848 861
848 865
848 875
848 876
848 878
848 883
848 894
848 904
848 906
848 908
848 917
848 924
848 941
848 942
848 944
848 950
848 953
848 961
848 992
848 993
848 998
848 1010
848 1011
848 1036
848 1038
848 1039
848 1048
848 1064
848 1068
848 1070
848 1071
848 1075
848 1095
848 1096
848 1111
848 1117
848 1120
848 1149
848 1152
848 1170
848 1172
848 1177
848 1180
848 1188
848 1193
848 1194
848 1203
848 1210
848 1217
848 1238
848 1244
848 1252
848 1262
848 1265
848 1268
848 1270
848 1274
848 1280
848 1281
848 1283
848 1288
848 1292
848 1297
848 1300
848 1308
848 1321
848 1332
848 1335
848 1355
848 1358
848 1364
848 1369
848 1384
848 1387
848 1394
848 1404
848 1409
848 1411
848 1424
848 1425
848 1432
848 1435
848 1444
848 1474
848 1485
848 1503
848 1512
848 1517
848 1520
848 1556
848 1562
848 1563
848 1564
848 1579
848 1584
848 1619
848 1621
848 1625
848 1628
848 1630
848 1649
848 1650
848 1663
848 1664
848 1668
848 1669
848 1675
848 1676
848 1680
848 1683
848 1708
848 1717
848 1723
848 1738
848 1741
848 1745
848 1746
848 1751
848 1760
848 1767
848 1771
848 1772
848 1776
848 1782
848 1785
848 1793
848 1801
848 1809
848 1835
848 1844
848 1848
848 1859
848 1866
848 1870
848 1873
848 1888
848 1894
848 1908
848 1909
848 1931
848 1938
848 1948
848 1957
848 1959
848 1967
848 1979
848 1991
848 1996
848 2008
848 2012
848 2023
848 2027
848 2043
848 2047
848 2049
848 2062
848 2089
848 2098
848 2125
848 2129
848 2135
848 2145
848 2151
848 2156
848 2164
848 2166
848 2167
848 2177
848 2193
848 2196
848 2198
848 2202
848 2210
848 2212
848 2214
848 2225
848 2232
848 2233
848 2237
848 2240
848 2245
848 2260
848 2261
848 2264
848 2265
848 2268
848 2270
848 2271
848 2272
848 2298
848 2311
848 2312
849 853
849 862
849 864
849 881
849 1004
849 1019
849 1102
849 1125
849 1168
849 1201
849 1208
849 1249
849 1252
849 1258
849 1282
849 1332
849 1339
849 1344
849 1354
849 1364
849 1384
849 1387
849 1389
849 1392
849 1415
849 1451
849 1469
849 1473
849 1520
849 1531
849 1546
849 1554
849 1568
849 1586
849 1612
849 1633
849 1644
849 1646
849 1690
849 1806
849 1815
849 1860
849 1869
849 1926
849 2008
849 2048
849 2066
849 2087
849 2101
849 2182
849 2190
849 2220
849 2271
849 2272
849 2292
850 862
850 871
850 881
850 893
850 906
850 907
850 934
850 938
850 947
850 981
850 1019
850 1029
850 1050
850 1068
850 1075
850 1111
850 1137
850 1208
850 1228
850 1237
850 1265
850 1273
850 1279
850 1280
850 1282
850 1309
850 1337
850 1361
850 1366
850 1375
850 1398
850 1416
850 1421
850 1440
850 1444
850 1488
850 1490
850 1493
850 1504
850 1508
850 1515
850 1561
850 1563
850 1576
850 1600
850 1650
850 1671
850 1700
850 1708
850 1715
850 1755
850 1784
850 1786
850 1790
850 1806
850 1818
850 1831
850 1848
850 1859
850 1874
850 1888
850 1911
850 1921
850 1935
850 1949
850 1953
850 1954
850 1956
850 1957
850 1977
850 1982
850 1984
850 1989
850 2013
850 2023
850 2056
850 2084
850 2111
850 2120
850 2134
850 2141
850 2144
850 2149
850 2150
850 2156
850 2160
850 2177
850 2220
850 2234
850 2248
850 2265
850 2267
850 2288
850 2304
850 2306
850 2308
851 899
851 1131
851 1470
851 1768
851 1912
851 2158
852 884
852 926
852 965
852 970
852 972
852 1023
852 1036
852 1103
852 1115
852 1116
852 1156
852 1164
852 1223
852 1244
852 1315
852 1325
852 1334
852 1336
852 1401
852 1403
852 1435
852 1460
852 1495
852 1560
852 1575
852 1580
852 1598
852 1639
852 1659
852 1843
852 1873
852 1948
852 1971
852 1987
852 1994
852 2036
852 2093
852 2106
852 2115
852 2174
852 2175
852 2213
852 2231
852 2303
852 2307
853 861
853 868
853 879
853 883
853 893
853 924
853 930
853 954
853 969
853 1048
853 1049
853 1062
853 1067
853 1071
853 1094
853 1102
853 1105
853 1125
853 1156
853 1158
853 1177
853 1223
853 1268
853 1281
853 1305
853 1326
853 1334
853 1380
853 1387
853 1392
853 1411
853 1415
853 1424
853 1443
853 1460
853 1491
853 1511
853 1512
853 1513
853 1521
853 1540
853 1554
853 1568
853 1580
853 1586
853 1612
853 1626
853 1640
853 1663
853 1674
853 1713
853 1742
853 1760
853 1775
853 1802
853 1843
853 1863
853 1873
853 1894
853 1926
853 1971
853 1974
853 1990
853 1994
853 2087
853 2106
853 2122
853 2174
853 2183
853 2301
854 867
854 876
854 883
854 914
854 925
854 943
854 967
854 995
854 1052
854 1065
854 1123
854 1134
854 1180
854 1287
854 1290
854 1292
854 1306
854 1307
854 1424
854 1485
854 1486
854 1527
854 1536
854 1559
854 1636
854 1716
854 1720
854 1739
854 1828
854 1846
854 1870
854 1873
854 1922
854 1930
854 1938
854 1952
854 2044
854 2077
854 2164
854 2186
854 2198
854 2210
854 2295
855 893
855 949
855 1002
855 1019
855 1020
855 1082
855 1133
855 1203
855 1228
855 1265
855 1304
855 1309
855 1335
855 1378
855 1387
855 1394
855 1448
855 1458
855 1492
855 1520
855 1575
855 1586
855 1633
855 1635
855 1684
855 1717
855 1741
855 1743
855 1767
855 1769
855 1834
855 1894
855 1906
855 1950
855 1979
855 1995
855 2016
855 2063
855 2066
855 2073
855 2154
855 2208
856 914
856 940
856 946
856 953
856 974
856 989
856 1052
856 1080
856 1134
856 1140
856 1183
856 1287
856 1290
856 1307
856 1320
856 1342
856 1364
856 1394
856 1417
856 1472
856 1480
856 1501
856 1574
856 1594
856 1613
856 1656
856 1696
856 1722
856 1756
856 1801
856 1937
856 1952
856 2001
856 2044
856 2164
857 896
857 925
857 1076
857 1192
857 1231
857 1237
857 1239
857 1243
857 1295
857 1374
857 1543
857 1555
857 1838
857 2006
857 2119
857 2253
858 888
858 903
858 915
858 980
858 981
858 986
858 991
858 1029
858 1035
858 1038
858 1039
858 1073
858 1077
858 1086
858 1089
858 1175
858 1184
858 1236
858 1258
858 1288
858 1340
858 1358
858 1390
858 1421
858 1451
858 1490
858 1499
858 1510
858 1513
858 1515
858 1573
858 1578
858 1588
858 1643
858 1724
858 1771
858 1782
858 1786
858 1802
858 1825
858 1874
858 1880
858 1911
858 1919
858 1921
858 1961
858 2023
858 2042
858 2135
858 2141
858 2151
858 2154
858 2156
858 2175
858 2204
858 2220
858 2223
858 2240
858 2252
858 2269
858 2277
858 2304
858 2311
859 870
859 979
859 1047
859 1083
859 1114
859 1381
859 1534
859 1592
859 1662
859 1685
859 1739
859 1791
859 1797
859 1898
859 2020
859 2044
859 2178
859 2199
860 876
860 902
860 920
860 924
860 946
860 960
860 991
860 1003
860 1010
860 1015
860 1042
860 1071
860 1086
860 1092
860 1095
860 1110
860 1177
860 1210
860 1241
860 1254
860 1268
860 1281
860 1312
860 1333
860 1348
860 1364
860 1371
860 1409
860 1411
860 1420
860 1421
860 1578
860 1579
860 1588
860 1615
860 1621
860 1675
860 1684
860 1690
860 1702
860 1709
860 1751
860 1771
860 1801
860 1802
860 1816
860 1836
860 1880
860 1896
860 1910
860 1915
860 1957
860 1961
860 1963
860 1977
860 1980
860 2023
860 2051
860 2058
860 2059
860 2072
860 2147
860 2151
860 2195
860 2210
860 2214
860 2220
860 2240
860 2272
860 2303
860 2311
861 863
861 865
861 866
861 874
861 879
861 888
861 893
861 894
861 898
861 913
861 915
861 919
861 928
861 932
861 935
861 969
861 970
861 982
861 984
861 1004
861 1049
861 1062
861 1063
861 1071
861 1089
861 1102
861 1111
861 1118
861 1153
861 1156
861 1158
861 1168
861 1170
861 1176
861 1177
861 1184
861 1204
861 1210
861 1218
861 1221
861 1225
861 1234
861 1244
861 1280
861 1281
861 1297
861 1305
861 1308
861 1318
861 1326
861 1327
861 1332
861 1334
861 1337
861 1343
861 1355
861 1358
861 1372
861 1394
861 1401
861 1411
861 1415
861 1425
861 1443
861 1444
861 1459
861 1465
861 1496
861 1499
861 1500
861 1502
861 1511
861 1513
861 1514
861 1521
861 1530
861 1537
861 1538
861 1540
861 1546
861 1554
861 1564
861 1581
861 1583
861 1598
861 1620
861 1625
861 1626
861 1630
861 1643
861 1650
861 1703
861 1713
861 1716
861 1717
861 1723
861 1738
861 1760
861 1775
861 1799
861 1803
861 1824
861 1825
861 1843
861 1848
861 1849
861 1854
861 1873
861 1908
861 1913
861 1921
861 1926
861 1927
861 1931
861 1951
861 1963
861 1974
861 1979
861 1984
861 1992
861 2011
861 2012
861 2046
861 2055
861 2058
861 2066
861 2067
861 2069
861 2103
861 2156
861 2163
861 2175
861 2177
861 2206
861 2219
861 2235
861 2236
861 2237
861 2260
861 2261
861 2264
861 2270
861 2274
861 2295
861 2306
862 938
862 960
862 979
862 1009
862 1087
862 1133
862 1146
862 1155
862 1252
862 1281
862 1309
862 1348
862 1354
862 1357
862 1371
862 1378
862 1385
862 1398
862 1429
862 1493
862 1515
862 1522
862 1550
862 1617
862 1676
862 1755
862 1771
862 1804
862 1880
862 1915
862 1956
862 1977
862 1999
862 2043
862 2058
862 2123
862 2144
862 2273
862 2304
862 2306
863 883
863 889
863 898
863 924
863 941
863 963
863 978
863 1008
863 1011
863 1025
863 1067
863 1071
863 1090
863 1092
863 1103
863 1133
863 1163
863 1177
863 1219
863 1246
863 1270
863 1272
863 1274
863 1275
863 1281
863 1283
863 1297
863 1331
863 1332
863 1347
863 1348
863 1356
863 1364
863 1396
863 1405
863 1411
863 1424
863 1449
863 1461
863 1477
863 1485
863 1489
863 1513
863 1542
863 1557
863 1559
863 1580
863 1640
863 1663
863 1694
863 1697
863 1716
863 1749
863 1751
863 1754
863 1763
863 1846
863 1864
863 1920
863 1963
863 1966
863 1987
863 2020
863 2058
863 2062
863 2073
863 2143
863 2147
863 2178
863 2183
863 2192
863 2196
863 2210
863 2212
863 2225
863 2233
863 2309
864 874
864 884
864 888
864 919
864 954
864 956
864 961
864 965
864 972
864 1013
864 1020
864 1049
864 1051
864 1063
864 1078
864 1120
864 1148
864 1152
864 1170
864 1184
864 1205
864 1233
864 1245
864 1265
864 1280
864 1348
864 1372
864 1373
864 1377
864 1384
864 1387
864 1392
864 1415
864 1423
864 1458
864 1465
864 1518
864 1521
864 1539
864 1546
864 1554
864 1564
864 1598
864 1625
864 1629
864 1634
864 1650
864 1663
864 1669
864 1689
864 1706
864 1717
864 1726
864 1732
864 1740
864 1745
864 1746
864 1750
864 1783
864 1798
864 1799
864 1815
864 1834
864 1857
864 1866
864 1870
864 1873
864 1874
864 1879
864 1885
864 1888
864 1891
864 1928
864 1948
864 1974
864 2008
864 2015
864 2016
864 2054
864 2066
864 2088
864 2089
864 2101
864 2113
864 2117
864 2128
864 2190
864 2203
864 2232
864 2242
864 2251
864 2257
864 2258
864 2266
864 2274
865 878
865 910
865 924
865 932
865 949
865 982
865 998
865 1064
865 1072
865 1102
865 1149
865 1152
865 1193
865 1238
865 1244
865 1262
865 1297
865 1300
865 1326
865 1358
865 1364
865 1377
865 1384
865 1394
865 1400
865 1485
865 1520
865 1538
865 1554
865 1556
865 1562
865 1578
865 1619
865 1621
865 1663
865 1676
865 1738
865 1760
865 1793
865 1795
865 1809
865 1870
865 1873
865 1957
865 2017
865 2027
865 2069
865 2089
865 2098
865 2146
865 2212
865 2225
865 2260
865 2264
866 912
866 956
866 971
866 1089
866 1148
866 1225
866 1232
866 1430
866 1439
866 1451
866 1537
866 1598
866 1630
866 1643
866 1650
866 1658
866 1713
866 1738
866 1740
866 1748
866 1831
866 1870
866 1885
866 1951
866 1968
866 1992
866 2017
866 2037
866 2055
866 2067
866 2170
866 2262
866 2270
866 2286
867 882
867 914
867 943
867 946
867 957
867 962
867 987
867 1052
867 1099
867 1114
867 1126
867 1131
867 1133
867 1146
867 1183
867 1192
867 1197
867 1199
867 1226
867 1235
867 1239
867 1240
867 1243
867 1272
867 1293
867 1306
867 1313
867 1346
867 1374
867 1395
867 1402
867 1404
867 1452
867 1534
867 1589
867 1610
867 1665
867 1666
867 1696
867 1711
867 1720
867 1721
867 1729
867 1733
867 1736
867 1759
867 1819
867 1830
867 1847
867 1855
867 1889
867 1898
867 1930
867 1947
867 2001
867 2041
867 2044
867 2052
867 2053
867 2077
867 2091
867 2114
867 2152
867 2153
867 2178
867 2199
867 2256
867 2287
867 2294
867 2297
867 2302
868 879
868 883
868 893
868 954
868 972
868 1064
868 1125
868 1166
868 1191
868 1305
868 1326
868 1368
868 1411
868 1423
868 1491
868 1500
868 1521
868 1564
868 1626
868 1640
868 1680
868 1744
868 2069
868 2073
868 2110
868 2124
868 2248
869 1093
869 1345
869 1963
870 889
870 895
870 979
870 1025
870 1083
870 1107
870 1114
870 1157
870 1190
870 1192
870 1239
870 1306
870 1374
870 1381
870 1477
870 1534
870 1592
870 1604
870 1610
870 1647
870 1662
870 1665
870 1696
870 1710
870 1719
870 1758
870 1791
870 1794
870 1801
870 1847
870 1861
870 1943
870 2001
870 2006
870 2011
870 2020
870 2091
870 2178
870 2199
870 2230
871 900
871 906
871 980
871 981
871 983
871 1029
871 1063
871 1068
871 1073
871 1077
871 1084
871 1104
871 1133
871 1139
871 1142
871 1145
871 1150
871 1159
871 1168
871 1171
871 1194
871 1208
871 1236
871 1258
871 1270
871 1281
871 1301
871 1344
871 1363
871 1366
871 1375
871 1378
871 1425
871 1440
871 1493
871 1499
871 1504
871 1561
871 1590
871 1600
871 1634
871 1650
871 1667
871 1669
871 1677
871 1690
871 1703
871 1724
871 1727
871 1743
871 1779
871 1786
871 1796
871 1803
871 1848
871 1849
871 1851
871 1918
871 1921
871 1931
871 1966
871 1969
871 2037
871 2045
871 2068
871 2101
871 2128
871 2156
871 2203
871 2204
871 2215
871 2225
871 2242
871 2261
871 2265
871 2304
872 884
872 930
872 954
872 965
872 972
872 975
872 1023
872 1085
872 1164
872 1165
872 1169
872 1175
872 1233
872 1244
872 1248
872 1265
872 1267
872 1277
872 1315
872 1325
872 1352
872 1435
872 1460
872 1485
872 1503
872 1512
872 1546
872 1564
872 1595
872 1623
872 1642
872 1663
872 1668
872 1672
872 1697
872 1717
872 1726
872 1776
872 1814
872 1835
872 1873
872 1879
872 1922
872 1999
872 2008
872 2025
872 2057
872 2060
872 2089
872 2105
872 2116
872 2129
872 2143
872 2172
872 2268
873 945
873 997
873 1003
873 1058
873 1066
873 1074
873 1171
873 1200
873 1236
873 1366
873 1451
873 1587
873 1751
873 1785
873 1810
873 1825
873 1827
873 1924
873 2068
873 2141
873 2146
873 2171
873 2176
873 2234
873 2242
873 2254
873 2267
873 2276
874 883
874 924
874 926
874 928
874 932
874 936
874 937
874 958
874 1009
874 1015
874 1042
874 1043
874 1045
874 1046
874 1062
874 1063
874 1094
874 1120
874 1123
874 1143
874 1182
874 1203
874 1271
874 1275
874 1289
874 1327
874 1344
874 1405
874 1458
874 1475
874 1485
874 1503
874 1538
874 1549
874 1554
874 1563
874 1564
874 1569
874 1583
874 1605
874 1612
874 1620
874 1625
874 1646
874 1668
874 1731
874 1745
874 1792
874 1798
874 1815
874 1843
874 1847
874 1858
874 1859
874 1873
874 1879
874 1908
874 1931
874 1948
874 1955
874 1974
874 1987
874 1997
874 2008
874 2064
874 2072
874 2078
874 2079
874 2088
874 2110
874 2117
874 2221
874 2230
875 919
875 942
875 950
875 990
875 1113
875 1193
875 1238
875 1244
875 1321
875 1377
875 1383
875 1409
875 1423
875 1520
875 1621
875 1649
875 1680
875 1683
875 1699
875 1821
875 1828
875 1845
875 1870
875 1901
875 1928
875 2062
875 2089
875 2145
875 2212
876 878
876 892
876 894
876 898
876 920
876 925
876 930
876 931
876 946
876 950
876 955
876 980
876 1003
876 1029
876 1053
876 1062
876 1063
876 1064
876 1080
876 1084
876 1086
876 1095
876 1096
876 1122
876 1142
876 1170
876 1171
876 1177
876 1180
876 1198
876 1241
876 1247
876 1256
876 1269
876 1280
876 1281
876 1283
876 1287
876 1288
876 1292
876 1316
876 1345
876 1361
876 1364
876 1375
876 1387
876 1391
876 1409
876 1417
876 1421
876 1425
876 1428
876 1450
876 1488
876 1499
876 1512
876 1517
876 1556
876 1559
876 1578
876 1579
876 1590
876 1615
876 1619
876 1621
876 1625
876 1633
876 1650
876 1664
876 1667
876 1676
876 1679
876 1697
876 1708
876 1716
876 1725
876 1738
876 1751
876 1771
876 1782
876 1787
876 1793
876 1803
876 1806
876 1809
876 1816
876 1825
876 1848
876 1874
876 1908
876 1909
876 1913
876 1931
876 1938
876 1939
876 1940
876 1950
876 1953
876 1957
876 1959
876 1963
876 1993
876 2012
876 2023
876 2040
876 2060
876 2068
876 2097
876 2127
876 2130
876 2133
876 2151
876 2154
876 2156
876 2164
876 2166
876 2167
876 2177
876 2202
876 2204
876 2210
876 2225
876 2227
876 2234
876 2240
876 2261
876 2263
876 2274
876 2311
877 883
877 900
877 928
877 930
877 937
877 951
877 960
877 991
877 1009
877 1046
877 1074
877 1075
877 1092
877 1110
877 1142
877 1143
877 1177
877 1198
877 1200
877 1211
877 1225
877 1254
877 1271
877 1333
877 1348
877 1371
877 1392
877 1411
877 1424
877 1427
877 1430
877 1433
877 1455
877 1457
877 1511
877 1513
877 1537
877 1559
877 1563
877 1576
877 1650
877 1658
877 1676
877 1709
877 1713
877 1779
877 1802
877 1812
877 1834
877 1840
877 1845
877 1852
877 1863
877 1886
877 1907
877 1918
877 1919
877 1956
877 1966
877 2003
877 2021
877 2024
877 2037
877 2055
877 2060
877 2062
877 2067
877 2104
877 2143
877 2187
877 2212
877 2273
877 2306
878 894
878 931
878 950
878 998
878 1064
878 1095
878 1149
878 1152
878 1158
878 1210
878 1217
878 1238
878 1274
878 1288
878 1358
878 1364
878 1372
878 1409
878 1415
878 1485
878 1517
878 1556
878 1579
878 1615
878 1619
878 1621
878 1625
878 1654
878 1663
878 1664
878 1676
878 1697
878 1751
878 1793
878 1809
878 1870
878 1909
878 1957
878 1996
878 2047
878 2095
878 2098
878 2130
878 2151
878 2164
878 2166
878 2167
878 2193
878 2210
878 2225
878 2240
878 2289
879 886
879 893
879 898
879 901
879 930
879 938
879 954
879 969
879 1048
879 1062
879 1094
879 1095
879 1110
879 1121
879 1125
879 1166
879 1174
879 1191
879 1268
879 1281
879 1283
879 1299
879 1305
879 1310
879 1326
879 1399
879 1411
879 1423
879 1424
879 1485
879 1491
879 1500
879 1513
879 1521
879 1540
879 1546
879 1564
879 1580
879 1610
879 1626
879 1640
879 1675
879 1680
879 1713
879 1744
879 1760
879 1765
879 1775
879 1806
879 1863
879 1888
879 1890
879 1891
879 1894
879 1940
879 1971
879 1990
879 2046
879 2055
879 2073
879 2110
879 2174
879 2183
879 2245
879 2281
880 1044
880 1394
880 1442
880 1451
880 1495
880 1513
880 1521
880 1772
880 1784
880 1848
880 1921
880 1984
880 2060
880 2067
881 906
881 920
881 948
881 965
881 981
881 1009
881 1050
881 1063
881 1075
881 1142
881 1150
881 1196
881 1208
881 1220
881 1233
881 1258
881 1279
881 1281
881 1282
881 1289
881 1297
881 1304
881 1352
881 1355
881 1390
881 1448
881 1475
881 1485
881 1493
881 1508
881 1531
881 1547
881 1561
881 1563
881 1578
881 1635
881 1646
881 1657
881 1690
881 1713
881 1717
881 1755
881 1779
881 1790
881 1796
881 1803
881 1825
881 1848
881 1860
881 1869
881 1893
881 1903
881 1913
881 1926
881 1953
881 1954
881 1989
881 2023
881 2037
881 2049
881 2055
881 2056
881 2066
881 2101
881 2110
881 2111
881 2117
881 2120
881 2149
881 2220
881 2259
881 2272
881 2295
881 2304
882 943
882 999
882 1126
882 1192
882 1197
882 1202
882 1306
882 1350
882 1374
882 1412
882 1592
882 1720
882 1731
882 1824
882 1934
882 2001
882 2026
882 2256
883 898
883 904
883 909
883 914
883 923
883 924
883 925
883 928
883 937
883 953
883 959
883 960
883 967
883 978
883 991
883 996
883 1001
883 1009
883 1010
883 1015
883 1020
883 1042
883 1054
883 1056
883 1063
883 1064
883 1071
883 1074
883 1090
883 1092
883 1094
883 1096
883 1103
883 1110
883 1115
883 1125
883 1134
883 1140
883 1143
883 1149
883 1150
883 1151
883 1152
883 1156
883 1159
883 1173
883 1174
883 1177
883 1180
883 1185
883 1188
883 1193
883 1194
883 1203
883 1205
883 1238
883 1244
883 1246
883 1251
883 1252
883 1253
883 1254
883 1259
883 1269
883 1270
883 1271
883 1274
883 1275
883 1281
883 1287
883 1292
883 1293
883 1298
883 1323
883 1325
883 1331
883 1334
883 1347
883 1362
883 1364
883 1371
883 1373
883 1387
883 1392
883 1394
883 1396
883 1405
883 1407
883 1411
883 1420
883 1424
883 1427
883 1429
883 1434
883 1437
883 1469
883 1485
883 1487
883 1489
883 1493
883 1499
883 1539
883 1542
883 1550
883 1559
883 1563
883 1565
883 1566
883 1568
883 1569
883 1570
883 1576
883 1579
883 1580
883 1584
883 1594
883 1599
883 1605
883 1612
883 1615
883 1618
883 1621
883 1633
883 1638
883 1646
883 1655
883 1670
883 1672
883 1674
883 1676
883 1684
883 1685
883 1699
883 1716
883 1732
883 1734
883 1769
883 1778
883 1802
883 1815
883 1824
883 1828
883 1834
883 1841
883 1843
883 1845
883 1852
883 1870
883 1874
883 1890
883 1907
883 1908
883 1909
883 1910
883 1918
883 1956
883 1959
883 1963
883 1966
883 1977
883 1986
883 1987
883 1988
883 1994
883 1999
883 2005
883 2007
883 2016
883 2024
883 2034
883 2036
883 2043
883 2051
883 2058
883 2062
883 2063
883 2065
883 2073
883 2082
883 2104
883 2110
883 2112
883 2116
883 2125
883 2132
883 2140
883 2143
883 2164
883 2175
883 2177
883 2187
883 2192
883 2195
883 2198
883 2202
883 2209
883 2210
883 2212
883 2214
883 2225
883 2227
883 2232
883 2233
883 2241
883 2246
883 2248
883 2251
883 2268
883 2273
883 2284
883 2295
883 2304
883 2307
883 2310
884 893
884 902
884 923
884 949
884 950
884 954
884 958
884 965
884 969
884 972
884 996
884 1020
884 1072
884 1091
884 1094
884 1103
884 1108
884 1110
884 1122
884 1125
884 1144
884 1156
884 1209
884 1211
884 1214
884 1223
884 1244
884 1252
884 1253
884 1260
884 1277
884 1282
884 1297
884 1332
884 1334
884 1335
884 1336
884 1355
884 1364
884 1372
884 1377
884 1384
884 1387
884 1406
884 1412
884 1435
884 1451
884 1459
884 1460
884 1465
884 1485
884 1491
884 1513
884 1538
884 1560
884 1564
884 1568
884 1586
884 1620
884 1621
884 1640
884 1642
884 1657
884 1668
884 1672
884 1717
884 1723
884 1726
884 1732
884 1741
884 1742
884 1743
884 1744
884 1769
884 1770
884 1777
884 1824
884 1829
884 1843
884 1872
884 1873
884 1879
884 1894
884 1901
884 1913
884 1916
884 1958
884 1963
884 1964
884 1971
884 1987
884 1994
884 1995
884 2008
884 2016
884 2034
884 2051
884 2056
884 2070
884 2073
884 2089
884 2100
884 2108
884 2115
884 2123
884 2129
884 2174
884 2175
884 2181
884 2187
884 2197
884 2200
884 2212
884 2231
884 2264
884 2270
884 2271
884 2274
884 2303
884 2307
885 1119
885 1838
886 923
886 930
886 954
886 970
886 1024
886 1102
886 1103
886 1125
886 1174
886 1281
886 1399
886 1404
886 1405
886 1411
886 1415
886 1474
886 1485
886 1538
886 1544
886 1554
886 1580
886 1620
886 1806
886 1890
886 1891
886 1986
886 1987
886 2027
886 2036
886 2079
886 2089
886 2143
886 2202
886 2225
886 2298
886 2307
886 2312
887 1003
887 1031
887 1092
887 1160
887 1198
887 1309
887 1483
887 1504
887 1508
887 1790
887 1896
887 1932
887 1953
887 2101
887 2104
887 2134
887 2277
888 908
888 930
888 932
888 954
888 961
888 975
888 1038
888 1048
888 1051
888 1070
888 1089
888 1117
888 1152
888 1168
888 1170
888 1205
888 1256
888 1265
888 1268
888 1281
888 1283
888 1324
888 1358
888 1372
888 1423
888 1439
888 1502
888 1518
888 1520
888 1533
888 1546
888 1556
888 1568
888 1573
888 1649
888 1663
888 1667
888 1689
888 1706
888 1724
888 1804
888 1809
888 1815
888 1857
888 1879
888 1888
888 1908
888 1921
888 1965
888 1974
888 1979
888 1984
888 1986
888 2008
888 2014
888 2049
888 2054
888 2069
888 2089
888 2160
888 2162
888 2177
888 2182
888 2237
888 2249
888 2264
888 2274
889 943
889 979
889 1025
889 1063
889 1265
889 1272
889 1374
889 1468
889 1527
889 1534
889 1613
889 1616
889 1694
889 1846
889 1864
889 2011
889 2020
889 2044
889 2077
889 2120
889 2178
890 931
890 1071
890 1362
890 1364
890 1405
890 1574
890 1594
890 1621
890 1776
890 1845
890 1896
890 2196
890 2214
890 2225
890 2233
891 914
891 1052
891 1100
891 1146
891 1157
891 1231
891 1278
891 1374
891 1402
891 1405
891 1477
891 1543
891 1592
891 1665
891 1720
891 1791
891 1846
891 1847
891 1898
891 2001
891 2038
891 2044
891 2052
891 2064
891 2142
891 2199
891 2277
891 2283
891 2287
892 915
892 932
892 947
892 980
892 1003
892 1058
892 1073
892 1075
892 1086
892 1092
892 1159
892 1171
892 1184
892 1189
892 1200
892 1232
892 1233
892 1258
892 1265
892 1273
892 1281
892 1312
892 1318
892 1329
892 1340
892 1361
892 1392
892 1416
892 1421
892 1428
892 1433
892 1437
892 1463
892 1505
892 1573
892 1578
892 1587
892 1590
892 1611
892 1650
892 1669
892 1677
892 1724
892 1734
892 1748
892 1755
892 1786
892 1787
892 1812
892 1815
892 1825
892 1827
892 1844
892 1848
892 1852
892 1874
892 1888
892 1918
892 1921
892 1931
892 1982
892 1984
892 1992
892 2021
892 2023
892 2024
892 2049
892 2066
892 2069
892 2070
892 2089
892 2097
892 2104
892 2156
892 2171
892 2177
892 2203
892 2215
892 2219
892 2227
892 2234
892 2240
892 2242
892 2245
892 2254
892 2258
892 2280
892 2306
892 2311
893 930
893 941
893 949
893 950
893 951
893 954
893 958
893 969
893 972
893 996
893 1006
893 1023
893 1036
893 1049
893 1091
893 1094
893 1102
893 1116
893 1139
893 1156
893 1158
893 1164
893 1172
893 1194
893 1203
893 1228
893 1242
893 1270
893 1281
893 1283
893 1289
893 1296
893 1305
893 1310
893 1325
893 1326
893 1334
893 1335
893 1336
893 1355
893 1363
893 1392
893 1399
893 1411
893 1421
893 1424
893 1451
893 1458
893 1460
893 1491
893 1499
893 1520
893 1521
893 1538
893 1539
893 1560
893 1564
893 1580
893 1586
893 1626
893 1637
893 1640
893 1659
893 1672
893 1676
893 1732
893 1741
893 1742
893 1743
893 1744
893 1751
893 1755
893 1767
893 1782
893 1795
893 1806
893 1829
893 1851
893 1853
893 1854
893 1873
893 1891
893 1894
893 1963
893 1964
893 1974
893 1979
893 1986
893 2007
893 2008
893 2013
893 2020
893 2022
893 2036
893 2063
893 2070
893 2071
893 2096
893 2100
893 2107
893 2130
893 2140
893 2162
893 2165
893 2174
893 2182
893 2185
893 2197
893 2225
893 2303
893 2304
894 898
894 914
894 920
894 937
894 940
894 946
894 948
894 955
894 974
894 998
894 1064
894 1071
894 1080
894 1082
894 1084
894 1086
894 1092
894 1095
894 1122
894 1124
894 1140
894 1142
894 1150
894 1152
894 1181
894 1188
894 1219
894 1238
894 1262
894 1268
894 1269
894 1274
894 1281
894 1288
894 1290
894 1296
894 1297
894 1304
894 1308
894 1320
894 1332
894 1358
894 1364
894 1375
894 1391
894 1394
894 1404
894 1409
894 1417
894 1424
894 1433
894 1448
894 1499
894 1512
894 1520
894 1556
894 1562
894 1564
894 1565
894 1571
894 1578
894 1579
894 1598
894 1615
894 1619
894 1621
894 1625
894 1633
894 1634
894 1664
894 1676
894 1689
894 1697
894 1703
894 1716
894 1727
894 1751
894 1776
894 1782
894 1785
894 1793
894 1809
894 1844
894 1848
894 1874
894 1893
894 1899
894 1909
894 1919
894 1931
894 1940
894 1946
894 1950
894 1952
894 1957
894 1958
894 1974
894 1991
894 1993
894 1996
894 2008
894 2040
894 2098
894 2127
894 2128
894 2130
894 2151
894 2154
894 2156
894 2164
894 2166
894 2199
894 2200
894 2202
894 2214
894 2225
894 2232
894 2234
894 2240
894 2248
894 2252
894 2255
894 2268
894 2312
895 943
895 1033
895 1034
895 1088
895 1183
895 1266
895 1365
895 1374
895 1391
895 1395
895 1477
895 1527
895 1532
895 1553
895 1592
895 1610
895 1686
895 1797
895 1898
895 1934
895 2002
895 2004
895 2038
895 2044
895 2052
895 2053
895 2077
895 2199
895 2239
895 2294
896 957
896 995
896 1046
896 1076
896 1088
896 1099
896 1107
896 1131
896 1141
896 1197
896 1226
896 1237
896 1240
896 1243
896 1286
896 1306
896 1313
896 1346
896 1351
896 1365
896 1402
896 1417
896 1453
896 1589
896 1592
896 1593
896 1610
896 1665
896 1731
896 1736
896 1759
896 1791
896 1816
896 1819
896 1861
896 1947
896 1981
896 2001
896 2002
896 2052
896 2119
896 2137
896 2152
896 2199
896 2230
896 2287
896 2297
896 2302
897 1726
898 919
898 930
898 941
898 950
898 970
898 998
898 1011
898 1054
898 1062
898 1071
898 1092
898 1094
898 1102
898 1110
898 1121
898 1122
898 1149
898 1164
898 1166
898 1177
898 1184
898 1194
898 1211
898 1218
898 1234
898 1244
898 1268
898 1274
898 1308
898 1310
898 1327
898 1344
898 1348
898 1355
898 1358
898 1364
898 1377
898 1378
898 1387
898 1394
898 1399
898 1404
898 1411
898 1438
898 1449
898 1464
898 1485
898 1503
898 1513
898 1521
898 1538
898 1564
898 1583
898 1598
898 1621
898 1628
898 1668
898 1676
898 1679
898 1680
898 1697
898 1713
898 1717
898 1723
898 1746
898 1760
898 1795
898 1805
898 1806
898 1809
898 1853
898 1857
898 1859
898 1863
898 1870
898 1874
898 1891
898 1909
898 1931
898 1948
898 1957
898 1974
898 1995
898 2022
898 2027
898 2055
898 2069
898 2089
898 2164
898 2166
898 2175
898 2183
898 2185
898 2210
898 2225
898 2252
898 2268
898 2271
898 2289
898 2298
898 2307
899 987
899 1018
899 1114
899 1131
899 1223
899 1666
899 1739
899 1970
899 2018
899 2158
900 924
900 951
900 952
900 960
900 983
900 1074
900 1084
900 1110
900 1145
900 1200
900 1236
900 1253
900 1271
900 1301
900 1303
900 1333
900 1433
900 1451
900 1457
900 1483
900 1525
900 1542
900 1551
900 1563
900 1576
900 1593
900 1633
900 1690
900 1702
900 1709
900 1724
900 1727
900 1779
900 1812
900 1825
900 1830
900 1839
900 1840
900 1845
900 1848
900 1874
900 1898
900 1911
900 1918
900 1921
900 1924
900 1931
900 1949
900 1974
900 1998
900 2024
900 2044
900 2045
900 2051
900 2060
900 2062
900 2072
900 2104
900 2120
900 2128
900 2202
900 2214
900 2215
900 2254
900 2265
900 2272
900 2277
900 2295
901 1094
901 1125
901 1174
901 1252
901 1259
901 1275
901 1326
901 1424
901 1491
901 1513
901 1570
901 1580
901 1685
901 1699
901 1795
901 1890
901 2030
901 2129
901 2307
902 920
902 969
902 1072
902 1095
902 1118
902 1165
902 1169
902 1201
902 1260
902 1262
902 1281
902 1298
902 1300
902 1348
902 1380
902 1394
902 1400
902 1411
902 1424
902 1435
902 1459
902 1469
902 1473
902 1554
902 1578
902 1777
902 1880
902 1908
902 1936
902 2016
902 2027
902 2048
902 2088
902 2201
902 2238
902 2264
903 907
903 915
903 945
903 981
903 986
903 1003
903 1021
903 1073
903 1161
903 1258
903 1333
903 1375
903 1413
903 1416
903 1504
903 1554
903 1564
903 1724
903 1748
903 1789
903 1825
903 1953
903 1961
903 1984
903 2101
903 2215
903 2223
903 2232
903 2277
903 2304
904 923
904 924
904 937
904 959
904 960
904 996
904 1009
904 1015
904 1016
904 1042
904 1071
904 1094
904 1103
904 1130
904 1151
904 1156
904 1177
904 1194
904 1210
904 1259
904 1275
904 1309
904 1355
904 1358
904 1405
904 1489
904 1570
904 1594
904 1603
904 1612
904 1618
904 1655
904 1675
904 1685
904 1697
904 1769
904 1809
904 1828
904 1890
904 1948
904 1956
904 1966
904 1987
904 2027
904 2034
904 2051
904 2060
904 2062
904 2078
904 2095
904 2123
904 2143
904 2147
904 2198
904 2210
904 2240
904 2241
905 1507
905 1828
905 2173
906 924
906 932
906 947
906 1063
906 1066
906 1068
906 1075
906 1084
906 1142
906 1145
906 1150
906 1168
906 1171
906 1184
906 1208
906 1237
906 1337
906 1352
906 1398
906 1416
906 1432
906 1433
906 1440
906 1444
906 1508
906 1561
906 1563
906 1576
906 1606
906 1650
906 1669
906 1708
906 1755
906 1790
906 1825
906 1848
906 1866
906 1874
906 1888
906 1893
906 1913
906 1921
906 1931
906 1969
906 1982
906 1984
906 2007
906 2037
906 2068
906 2076
906 2101
906 2111
906 2120
906 2128
906 2146
906 2156
906 2234
906 2252
906 2254
906 2265
906 2274
907 947
907 955
907 980
907 981
907 991
907 997
907 1015
907 1029
907 1035
907 1050
907 1053
907 1161
907 1196
907 1256
907 1303
907 1345
907 1375
907 1398
907 1428
907 1440
907 1463
907 1493
907 1499
907 1504
907 1508
907 1512
907 1547
907 1548
907 1564
907 1588
907 1677
907 1679
907 1754
907 1755
907 1763
907 1789
907 1803
907 1810
907 1874
907 1939
907 1953
907 1954
907 1974
907 1977
907 1980
907 1993
907 2024
907 2147
907 2149
907 2184
907 2190
907 2204
907 2220
907 2223
907 2232
907 2244
907 2272
907 2277
907 2304
907 2311
908 912
908 916
908 919
908 935
908 936
908 951
908 956
908 977
908 988
908 993
908 1021
908 1049
908 1105
908 1117
908 1118
908 1164
908 1176
908 1221
908 1233
908 1245
908 1256
908 1268
908 1280
908 1383
908 1401
908 1444
908 1451
908 1496
908 1502
908 1503
908 1520
908 1535
908 1537
908 1539
908 1556
908 1563
908 1621
908 1630
908 1663
908 1688
908 1724
908 1774
908 1804
908 1845
908 1854
908 1857
908 1860
908 1864
908 1897
908 1926
908 1946
908 1979
908 1983
908 2007
908 2014
908 2025
908 2049
908 2060
908 2067
908 2089
908 2104
908 2138
908 2162
908 2235
908 2260
909 924
909 937
909 939
909 947
909 959
909 986
909 1009
909 1029
909 1032
909 1039
909 1052
909 1053
909 1074
909 1092
909 1185
909 1198
909 1200
909 1222
909 1253
909 1259
909 1262
909 1281
909 1309
909 1312
909 1366
909 1385
909 1398
909 1413
909 1420
909 1433
909 1447
909 1466
909 1469
909 1489
909 1493
909 1563
909 1579
909 1580
909 1612
909 1645
909 1670
909 1679
909 1763
909 1799
909 1804
909 1810
909 1812
909 1822
909 1828
909 1841
909 1843
909 1845
909 1852
909 1869
909 1878
909 1880
909 1883
909 1896
909 1907
909 1915
909 1924
909 1928
909 1949
909 1953
909 1956
909 1963
909 1977
909 1984
909 2003
909 2013
909 2019
909 2021
909 2073
909 2074
909 2086
909 2094
909 2104
909 2141
909 2148
909 2171
909 2176
909 2177
909 2187
909 2195
909 2234
909 2244
909 2305
910 982
910 984
910 1072
910 1093
910 1102
910 1116
910 1156
910 1244
910 1305
910 1326
910 1344
910 1384
910 1387
910 1394
910 1503
910 1512
910 1521
910 1538
910 1539
910 1554
910 1577
910 1650
910 1658
910 1713
910 1772
910 1774
910 1799
910 1911
910 1931
910 1968
910 2016
910 2017
910 2055
910 2067
910 2069
910 2071
910 2106
910 2118
910 2170
910 2183
911 1109
911 1195
911 1222
911 1257
911 1289
911 1352
911 1381
911 1412
911 1468
911 1470
911 1574
911 1585
911 1592
911 1610
911 1666
911 1892
911 1905
911 1947
911 1981
911 2077
911 2188
911 2199
911 2230
911 2294
912 936
912 971
912 990
912 1041
912 1044
912 1117
912 1135
912 1143
912 1186
912 1219
912 1270
912 1280
912 1332
912 1354
912 1387
912 1401
912 1448
912 1529
912 1554
912 1568
912 1625
912 1650
912 1663
912 1687
912 1748
912 1802
912 1857
912 1870
912 1931
912 2017
912 2046
912 2089
912 2095
912 2146
912 2161
912 2215
912 2232
912 2237
912 2267
912 2286
913 961
913 968
913 969
913 986
913 1004
913 1138
913 1201
913 1318
913 1344
913 1482
913 1500
913 1554
913 1626
913 1630
913 1669
913 1761
913 1835
913 1903
913 1927
913 1979
913 2012
913 2025
913 2081
913 2087
913 2159
913 2182
913 2236
914 940
914 943
914 946
914 962
914 967
914 974
914 979
914 989
914 999
914 1025
914 1047
914 1050
914 1052
914 1080
914 1100
914 1102
914 1114
914 1122
914 1123
914 1126
914 1131
914 1134
914 1140
914 1146
914 1183
914 1190
914 1197
914 1202
914 1213
914 1226
914 1230
914 1239
914 1243
914 1266
914 1290
914 1293
914 1306
914 1342
914 1352
914 1364
914 1374
914 1391
914 1394
914 1402
914 1412
914 1417
914 1452
914 1468
914 1472
914 1477
914 1486
914 1527
914 1532
914 1543
914 1551
914 1574
914 1591
914 1592
914 1602
914 1610
914 1613
914 1656
914 1661
914 1666
914 1670
914 1678
914 1682
914 1696
914 1720
914 1721
914 1722
914 1729
914 1733
914 1736
914 1757
914 1758
914 1759
914 1790
914 1791
914 1801
914 1816
914 1819
914 1846
914 1847
914 1855
914 1862
914 1889
914 1898
914 1947
914 1952
914 1963
914 1970
914 1978
914 1981
914 2001
914 2002
914 2041
914 2044
914 2052
914 2053
914 2061
914 2077
914 2149
914 2152
914 2153
914 2163
914 2164
914 2199
914 2218
914 2243
914 2295
914 2302
915 926
915 935
915 945
915 947
915 981
915 983
915 986
915 1003
915 1039
915 1060
915 1073
915 1086
915 1111
915 1118
915 1136
915 1161
915 1168
915 1176
915 1184
915 1208
915 1220
915 1221
915 1232
915 1233
915 1265
915 1270
915 1280
915 1282
915 1308
915 1318
915 1337
915 1352
915 1354
915 1366
915 1390
915 1401
915 1413
915 1416
915 1421
915 1428
915 1440
915 1444
915 1451
915 1463
915 1469
915 1482
915 1490
915 1493
915 1500
915 1503
915 1504
915 1505
915 1508
915 1515
915 1520
915 1537
915 1540
915 1561
915 1573
915 1578
915 1625
915 1630
915 1669
915 1675
915 1677
915 1708
915 1767
915 1772
915 1787
915 1789
915 1790
915 1799
915 1825
915 1836
915 1851
915 1859
915 1860
915 1874
915 1878
915 1885
915 1893
915 1897
915 1911
915 1926
915 1931
915 1932
915 1953
915 1961
915 1982
915 1984
915 2007
915 2008
915 2012
915 2023
915 2025
915 2027
915 2101
915 2111
915 2117
915 2141
915 2171
915 2177
915 2180
915 2203
915 2223
915 2227
915 2232
915 2240
915 2269
915 2274
915 2277
916 961
916 977
916 1128
916 1176
916 1221
916 1264
916 1305
916 1318
916 1354
916 1385
916 1500
916 1535
916 1581
916 1583
916 1645
916 1677
916 1703
916 1775
916 1903
916 1926
916 1945
916 2025
916 2260
916 2277
917 922
917 944
917 945
917 952
917 956
917 965
917 978
917 1008
917 1101
917 1125
917 1181
917 1254
917 1280
917 1354
917 1444
917 1448
917 1451
917 1482
917 1485
917 1511
917 1520
917 1550
917 1566
917 1703
917 1709
917 1738
917 1802
917 1845
917 1857
917 1869
917 1873
917 1874
917 1999
917 2017
917 2046
917 2067
917 2251
917 2296
918 932
918 961
918 1070
918 1089
918 1168
918 1368
918 1387
918 1394
918 1425
918 1479
918 1520
918 1533
918 1535
918 1590
918 1643
918 1667
918 1717
918 1752
918 1783
918 1825
918 1849
918 1860
918 1864
918 1866
918 1879
918 1986
918 2066
918 2100
918 2261
918 2308
919 954
919 956
919 968
919 972
919 984
919 988
919 998
919 1051
919 1055
919 1057
919 1063
919 1070
919 1132
919 1147
919 1164
919 1166
919 1167
919 1170
919 1191
919 1224
919 1233
919 1244
919 1249
919 1335
919 1344
919 1372
919 1383
919 1415
919 1451
919 1459
919 1471
919 1485
919 1512
919 1520
919 1523
919 1531
919 1533
919 1535
919 1557
919 1581
919 1620
919 1621
919 1630
919 1639
919 1675
919 1706
919 1717
919 1726
919 1738
919 1745
919 1746
919 1751
919 1752
919 1774
919 1775
919 1798
919 1842
919 1864
919 1870
919 1872
919 1879
919 1909
919 1927
919 1928
919 1946
919 1951
919 1967
919 1986
919 1995
919 2008
919 2049
919 2066
919 2100
919 2103
919 2105
919 2115
919 2124
919 2185
919 2271
920 980
920 998
920 1064
920 1067
920 1086
920 1092
920 1096
920 1189
920 1196
920 1233
920 1268
920 1274
920 1364
920 1421
920 1490
920 1556
920 1573
920 1578
920 1590
920 1619
920 1621
920 1623
920 1625
920 1677
920 1689
920 1771
920 1802
920 1836
920 1874
920 1880
920 1896
920 1909
920 1921
920 1950
920 1963
920 1993
920 2023
920 2049
920 2066
920 2070
920 2116
920 2147
920 2151
920 2164
920 2220
920 2225
920 2240
920 2252
920 2295
920 2311
921 1133
921 1150
921 1235
921 1243
921 1532
921 1796
921 1851
921 2038
921 2199
921 2294
922 944
922 971
922 1024
922 1044
922 1118
922 1142
922 1143
922 1151
922 1170
922 1191
922 1211
922 1281
922 1354
922 1427
922 1430
922 1467
922 1471
922 1485
922 1499
922 1511
922 1520
922 1571
922 1580
922 1583
922 1598
922 1600
922 1634
922 1680
922 1713
922 1753
922 1765
922 1825
922 1880
922 1898
922 1931
922 1951
922 1967
922 2046
922 2110
922 2175
922 2185
922 2237
922 2255
922 2259
922 2276
922 2306
923 924
923 928
923 937
923 954
923 959
923 960
923 969
923 993
923 996
923 998
923 1004
923 1045
923 1063
923 1079
923 1090
923 1091
923 1092
923 1094
923 1096
923 1101
923 1103
923 1110
923 1133
923 1139
923 1143
923 1151
923 1186
923 1203
923 1252
923 1253
923 1259
923 1271
923 1275
923 1281
923 1300
923 1310
923 1311
923 1332
923 1347
923 1348
923 1355
923 1371
923 1384
923 1385
923 1387
923 1392
923 1394
923 1405
923 1411
923 1423
923 1424
923 1425
923 1435
923 1459
923 1469
923 1485
923 1487
923 1489
923 1492
923 1496
923 1511
923 1513
923 1560
923 1564
923 1570
923 1576
923 1580
923 1586
923 1595
923 1598
923 1605
923 1612
923 1638
923 1674
923 1685
923 1702
923 1713
923 1741
923 1769
923 1780
923 1781
923 1817
923 1828
923 1864
923 1873
923 1907
923 1913
923 1920
923 1949
923 1956
923 1962
923 1963
923 1964
923 1974
923 1999
923 2003
923 2005
923 2034
923 2037
923 2051
923 2062
923 2070
923 2073
923 2081
923 2082
923 2093
923 2104
923 2115
923 2140
923 2143
923 2163
923 2187
923 2192
923 2198
923 2202
923 2212
923 2213
923 2214
923 2225
923 2233
923 2236
923 2246
923 2271
923 2273
923 2284
923 2295
923 2309
924 926
924 937
924 946
924 951
924 960
924 992
924 998
924 1009
924 1010
924 1011
924 1015
924 1042
924 1046
924 1051
924 1067
924 1071
924 1080
924 1094
924 1095
924 1096
924 1140
924 1143
924 1149
924 1177
924 1180
924 1198
924 1200
924 1212
924 1217
924 1254
924 1259
924 1262
924 1265
924 1268
924 1269
924 1274
924 1275
924 1280
924 1281
924 1297
924 1303
924 1308
924 1309
924 1310
924 1312
924 1332
924 1334
924 1337
924 1340
924 1355
924 1358
924 1362
924 1364
924 1371
924 1378
924 1385
924 1388
924 1398
924 1410
924 1411
924 1424
924 1437
924 1456
924 1511
924 1512
924 1520
924 1556
924 1563
924 1566
924 1570
924 1576
924 1579
924 1594
924 1606
924 1611
924 1612
924 1615
924 1618
924 1621
924 1623
924 1625
924 1638
924 1646
924 1655
924 1663
924 1674
924 1675
924 1676
924 1685
924 1697
924 1709
924 1716
924 1727
924 1751
924 1754
924 1760
924 1767
924 1768
924 1778
924 1782
924 1801
924 1802
924 1804
924 1812
924 1816
924 1822
924 1828
924 1845
924 1848
924 1852
924 1869
924 1873
924 1880
924 1890
924 1896
924 1919
924 1956
924 1957
924 1959
924 1963
924 1977
924 1983
924 1984
924 1989
924 1998
924 2034
924 2049
924 2051
924 2060
924 2062
924 2065
924 2073
924 2086
924 2104
924 2120
924 2143
924 2147
924 2151
924 2156
924 2160
924 2164
924 2166
924 2195
924 2196
924 2198
924 2202
924 2204
924 2210
924 2214
924 2225
924 2233
924 2241
924 2252
924 2265
924 2284
924 2303
924 2306
924 2309
924 2312
925 943
925 967
925 1050
925 1052
925 1100
925 1126
925 1146
925 1180
925 1192
925 1269
925 1284
925 1287
925 1306
925 1307
925 1313
925 1391
925 1412
925 1472
925 1477
925 1498
925 1552
925 1559
925 1574
925 1589
925 1666
925 1716
925 1729
925 1733
925 1757
925 1846
925 1889
925 1938
925 2002
925 2006
925 2009
925 2044
925 2052
925 2053
925 2199
925 2243
926 932
926 935
926 936
926 945
926 972
926 1003
926 1021
926 1039
926 1049
926 1117
926 1120
926 1153
926 1164
926 1245
926 1271
926 1300
926 1308
926 1368
926 1401
926 1451
926 1469
926 1482
926 1485
926 1494
926 1503
926 1520
926 1521
926 1537
926 1612
926 1634
926 1639
926 1723
926 1842
926 1908
926 1910
926 1974
926 1987
926 2007
926 2032
926 2048
926 2089
926 2180
926 2190
926 2257
926 2266
927 1162
927 2098
928 937
928 938
928 959
928 960
928 978
928 983
928 993
928 1008
928 1009
928 1020
928 1045
928 1053
928 1071
928 1085
928 1110
928 1117
928 1130
928 1133
928 1139
928 1143
928 1149
928 1164
928 1175
928 1177
928 1181
928 1199
928 1200
928 1203
928 1205
928 1222
928 1253
928 1254
928 1269
928 1271
928 1281
928 1308
928 1309
928 1312
928 1331
928 1348
928 1364
928 1371
928 1373
928 1385
928 1388
928 1392
928 1393
928 1396
928 1398
928 1405
928 1424
928 1429
928 1434
928 1448
928 1455
928 1457
928 1466
928 1469
928 1482
928 1492
928 1502
928 1513
928 1518
928 1521
928 1550
928 1559
928 1563
928 1566
928 1569
928 1576
928 1583
928 1586
928 1612
928 1615
928 1638
928 1645
928 1646
928 1648
928 1676
928 1690
928 1709
928 1716
928 1741
928 1778
928 1780
928 1796
928 1802
928 1804
928 1806
928 1817
928 1845
928 1849
928 1852
928 1857
928 1868
928 1869
928 1906
928 1907
928 1910
928 1915
928 1920
928 1949
928 1956
928 1963
928 1977
928 1987
928 2013
928 2021
928 2029
928 2045
928 2058
928 2060
928 2062
928 2073
928 2074
928 2075
928 2104
928 2115
928 2123
928 2143
928 2144
928 2163
928 2187
928 2195
928 2244
928 2246
928 2272
928 2273
928 2284
928 2295
928 2296
928 2303
928 2304
929 943
929 957
929 962
929 973
929 1052
929 1107
929 1109
929 1154
929 1226
929 1230
929 1239
929 1251
929 1293
929 1350
929 1351
929 1374
929 1417
929 1470
929 1522
929 1534
929 1543
929 1571
929 1589
929 1720
929 1721
929 1736
929 1791
929 1816
929 1846
929 1847
929 1862
929 1898
929 1899
929 1938
929 1970
929 2001
929 2044
929 2052
929 2053
929 2152
929 2178
929 2188
929 2243
929 2287
930 932
930 954
930 961
930 965
930 968
930 969
930 970
930 975
930 989
930 991
930 1023
930 1048
930 1049
930 1050
930 1062
930 1070
930 1071
930 1094
930 1096
930 1103
930 1125
930 1130
930 1156
930 1164
930 1165
930 1169
930 1175
930 1177
930 1186
930 1209
930 1233
930 1239
930 1251
930 1265
930 1274
930 1277
930 1281
930 1282
930 1288
930 1296
930 1300
930 1305
930 1315
930 1326
930 1334
930 1352
930 1355
930 1358
930 1378
930 1380
930 1387
930 1411
930 1415
930 1424
930 1427
930 1443
930 1460
930 1462
930 1468
930 1485
930 1491
930 1503
930 1511
930 1512
930 1513
930 1520
930 1521
930 1538
930 1542
930 1544
930 1557
930 1564
930 1566
930 1598
930 1625
930 1632
930 1640
930 1663
930 1668
930 1672
930 1697
930 1717
930 1721
930 1726
930 1746
930 1775
930 1777
930 1784
930 1806
930 1809
930 1814
930 1821
930 1822
930 1824
930 1825
930 1834
930 1863
930 1867
930 1868
930 1873
930 1886
930 1908
930 1931
930 1965
930 1990
930 2012
930 2027
930 2043
930 2055
930 2057
930 2062
930 2082
930 2089
930 2116
930 2129
930 2143
930 2146
930 2147
930 2161
930 2187
930 2192
930 2212
930 2237
930 2258
930 2264
930 2268
930 2274
930 2281
930 2289
930 2298
931 953
931 1064
931 1067
931 1095
931 1149
931 1152
931 1238
931 1281
931 1364
931 1579
931 1625
931 1767
931 1770
931 1793
931 1996
931 2089
931 2151
931 2166
931 2196
931 2225
931 2252
931 2268
932 934
932 961
932 986
932 998
932 1002
932 1038
932 1039
932 1046
932 1048
932 1062
932 1063
932 1070
932 1073
932 1085
932 1089
932 1091
932 1117
932 1118
932 1120
932 1137
932 1147
932 1148
932 1164
932 1170
932 1176
932 1177
932 1189
932 1222
932 1245
932 1265
932 1271
932 1273
932 1282
932 1283
932 1300
932 1308
932 1318
932 1325
932 1335
932 1340
932 1341
932 1343
932 1344
932 1355
932 1372
932 1425
932 1433
932 1451
932 1465
932 1485
932 1499
932 1503
932 1513
932 1520
932 1539
932 1558
932 1564
932 1573
932 1583
932 1590
932 1598
932 1605
932 1606
932 1611
932 1612
932 1657
932 1671
932 1708
932 1717
932 1723
932 1724
932 1741
932 1745
932 1787
932 1792
932 1796
932 1825
932 1839
932 1844
932 1849
932 1858
932 1859
932 1864
932 1872
932 1873
932 1874
932 1879
932 1908
932 1921
932 1925
932 1927
932 1931
932 1951
932 1964
932 1974
932 1983
932 1986
932 1987
932 1990
932 1995
932 1999
932 2007
932 2013
932 2015
932 2025
932 2037
932 2049
932 2062
932 2063
932 2066
932 2070
932 2072
932 2087
932 2088
932 2089
932 2094
932 2108
932 2115
932 2121
932 2123
932 2124
932 2135
932 2160
932 2161
932 2177
932 2189
932 2206
932 2222
932 2237
932 2245
932 2258
932 2260
932 2261
932 2266
932 2269
932 2272
932 2274
932 2289
933 1604
933 1710
933 2102
934 947
934 981
934 1011
934 1057
934 1062
934 1066
934 1075
934 1085
934 1086
934 1120
934 1158
934 1176
934 1221
934 1279
934 1308
934 1318
934 1354
934 1401
934 1410
934 1419
934 1444
934 1451
934 1489
934 1496
934 1502
934 1512
934 1523
934 1537
934 1539
934 1572
934 1625
934 1630
934 1646
934 1650
934 1660
934 1676
934 1700
934 1723
934 1751
934 1755
934 1760
934 1761
934 1776
934 1783
934 1785
934 1805
934 1863
934 1871
934 1897
934 1903
934 1927
934 1935
934 1946
934 1953
934 1983
934 1987
934 2037
934 2046
934 2049
934 2073
934 2103
934 2195
934 2280
934 2295
934 2308
934 2310
935 986
935 988
935 1021
935 1093
935 1104
935 1176
935 1220
935 1221
935 1232
935 1265
935 1318
935 1383
935 1401
935 1442
935 1444
935 1482
935 1500
935 1502
935 1521
935 1538
935 1540
935 1549
935 1626
935 1775
935 1926
935 1974
935 2025
935 2138
935 2184
936 941
936 972
936 1164
936 1186
936 1355
936 1401
936 1501
936 1503
936 1549
936 1881
936 1915
936 1983
936 2106
936 2108
936 2129
936 2212
936 2221
936 2225
937 946
937 960
937 1009
937 1015
937 1042
937 1053
937 1090
937 1094
937 1101
937 1133
937 1194
937 1198
937 1200
937 1206
937 1210
937 1247
937 1254
937 1259
937 1275
937 1281
937 1283
937 1309
937 1312
937 1331
937 1358
937 1371
937 1378
937 1385
937 1388
937 1396
937 1398
937 1405
937 1410
937 1424
937 1437
937 1469
937 1487
937 1489
937 1493
937 1563
937 1566
937 1569
937 1570
937 1594
937 1598
937 1612
937 1645
937 1646
937 1655
937 1676
937 1679
937 1685
937 1709
937 1763
937 1769
937 1778
937 1780
937 1802
937 1806
937 1824
937 1828
937 1834
937 1852
937 1890
937 1924
937 1949
937 1950
937 1956
937 1958
937 1963
937 1977
937 1980
937 1987
937 2013
937 2065
937 2074
937 2086
937 2104
937 2112
937 2144
937 2164
937 2187
937 2208
937 2210
937 2241
937 2246
937 2259
937 2303
937 2306
938 960
938 1009
938 1062
938 1125
938 1133
938 1146
938 1198
938 1308
938 1309
938 1326
938 1357
938 1385
938 1398
938 1450
938 1483
938 1493
938 1515
938 1552
938 1563
938 1576
938 1670
938 1676
938 1755
938 1771
938 1804
938 1812
938 1932
938 1949
938 1953
938 1956
938 1977
938 2104
938 2120
938 2134
938 2144
938 2228
938 2248
938 2273
938 2306
939 947
939 986
939 1029
939 1038
939 1039
939 1058
939 1066
939 1077
939 1092
939 1171
939 1200
939 1220
939 1236
939 1276
939 1329
939 1428
939 1528
939 1567
939 1587
939 1650
939 1724
939 1793
939 1799
939 1810
939 1825
939 1848
939 1878
939 1888
939 1924
939 1953
939 1982
939 1984
939 2013
939 2046
939 2094
939 2109
939 2112
939 2120
939 2141
939 2148
939 2156
939 2171
939 2176
939 2213
939 2232
939 2234
939 2242
939 2244
939 2245
939 2254
939 2260
940 946
940 974
940 989
940 1052
940 1080
940 1140
940 1187
940 1210
940 1278
940 1290
940 1292
940 1307
940 1316
940 1320
940 1342
940 1351
940 1364
940 1391
940 1394
940 1417
940 1472
940 1574
940 1591
940 1602
940 1625
940 1656
940 1722
940 1725
940 1733
940 1801
940 1816
940 1952
940 2044
940 2151
940 2164
940 2196
940 2199
941 954
941 1057
941 1071
941 1095
941 1121
941 1152
941 1188
941 1219
941 1233
941 1238
941 1270
941 1274
941 1281
941 1325
941 1356
941 1364
941 1369
941 1409
941 1485
941 1512
941 1520
941 1530
941 1539
941 1556
941 1564
941 1584
941 1598
941 1628
941 1751
941 1799
941 1859
941 1870
941 2062
941 2088
941 2117
941 2125
941 2182
941 2196
941 2212
941 2221
941 2268
941 2289
941 2299
942 984
942 1113
942 1149
942 1181
942 1194
942 1219
942 1270
942 1281
942 1285
942 1325
942 1362
942 1364
942 1405
942 1570
942 1594
942 1680
942 1767
942 1821
942 1880
942 1948
942 1963
942 2069
942 2096
942 2125
942 2130
942 2145
942 2175
942 2209
942 2212
942 2268
943 946
943 979
943 987
943 1025
943 1047
943 1100
943 1107
943 1109
943 1114
943 1134
943 1157
943 1179
943 1183
943 1192
943 1199
943 1226
943 1227
943 1231
943 1240
943 1257
943 1266
943 1287
943 1290
943 1306
943 1313
943 1342
943 1386
943 1395
943 1417
943 1468
943 1477
943 1486
943 1507
943 1534
943 1536
943 1551
943 1552
943 1592
943 1604
943 1613
943 1661
943 1665
943 1682
943 1686
943 1696
943 1705
943 1739
943 1820
943 1832
943 1846
943 1889
943 1892
943 1898
943 1905
943 1930
943 2001
943 2011
943 2028
943 2041
943 2044
943 2053
943 2077
943 2142
943 2173
943 2199
943 2230
943 2239
943 2256
944 961
944 982
944 1044
944 1050
944 1062
944 1092
944 1135
944 1138
944 1143
944 1191
944 1201
944 1274
944 1281
944 1308
944 1311
944 1337
944 1339
944 1354
944 1358
944 1368
944 1378
944 1387
944 1432
944 1485
944 1495
944 1503
944 1521
944 1537
944 1538
944 1583
944 1620
944 1625
944 1723
944 1737
944 1765
944 1774
944 1776
944 1798
944 1806
944 1821
944 1854
944 1866
944 1874
944 1879
944 1931
944 1951
944 1967
944 2027
944 2036
944 2046
944 2089
944 2202
944 2221
944 2260
945 952
945 956
945 986
945 1021
945 1039
945 1125
945 1136
945 1137
945 1142
945 1150
945 1220
945 1221
945 1225
945 1232
945 1256
945 1265
945 1280
945 1281
945 1318
945 1337
945 1401
945 1413
945 1416
945 1439
945 1442
945 1444
945 1448
945 1451
945 1482
945 1515
945 1537
945 1563
945 1581
945 1590
945 1598
945 1611
945 1634
945 1650
945 1701
945 1703
945 1713
945 1738
945 1740
945 1748
945 1799
945 1825
945 1851
945 1878
945 1904
945 1921
945 1926
945 1931
945 1951
945 1956
945 1982
945 1984
945 1992
945 2007
945 2017
945 2037
945 2055
945 2067
945 2094
945 2101
945 2109
945 2148
945 2171
945 2260
945 2306
946 950
946 967
946 974
946 989
946 1052
946 1080
946 1140
946 1180
946 1202
946 1230
946 1266
946 1278
946 1281
946 1287
946 1290
946 1292
946 1307
946 1316
946 1320
946 1364
946 1391
946 1394
946 1408
946 1417
946 1472
946 1490
946 1507
946 1525
946 1534
946 1536
946 1543
946 1574
946 1579
946 1602
946 1621
946 1625
946 1656
946 1664
946 1711
946 1721
946 1722
946 1725
946 1736
946 1771
946 1791
946 1793
946 1801
946 1816
946 1847
946 1862
946 1938
946 1952
946 1961
946 2006
946 2041
946 2052
946 2099
946 2151
946 2164
946 2166
946 2188
946 2199
946 2202
946 2214
946 2239
946 2294
947 980
947 981
947 986
947 997
947 1029
947 1032
947 1039
947 1066
947 1074
947 1075
947 1084
947 1110
947 1127
947 1145
947 1150
947 1159
947 1171
947 1176
947 1220
947 1276
947 1345
947 1361
947 1366
947 1413
947 1440
947 1493
947 1508
947 1561
947 1666
947 1676
947 1723
947 1727
947 1755
947 1779
947 1786
947 1799
947 1803
947 1810
947 1848
947 1874
947 1878
947 1918
947 1924
947 1939
947 1953
947 1969
947 2013
947 2037
947 2068
947 2076
947 2086
947 2094
947 2097
947 2101
947 2109
947 2112
947 2113
947 2128
947 2141
947 2148
947 2150
947 2171
947 2176
947 2204
947 2234
947 2242
947 2244
947 2265
948 971
948 1009
948 1066
948 1130
948 1211
948 1289
948 1304
948 1336
948 1378
948 1393
948 1448
948 1475
948 1580
948 1612
948 1697
948 1713
948 1756
948 1899
948 2055
948 2056
948 2110
948 2111
948 2175
948 2220
948 2231
948 2252
948 2259
948 2289
948 2295
949 958
949 970
949 980
949 1090
949 1094
949 1142
949 1145
949 1214
949 1252
949 1282
949 1297
949 1355
949 1358
949 1372
949 1403
949 1406
949 1435
949 1458
949 1469
949 1485
949 1491
949 1493
949 1496
949 1514
949 1521
949 1635
949 1732
949 1743
949 1744
949 1752
949 1809
949 1846
949 1873
949 1911
949 2022
949 2115
949 2117
949 2175
949 2212
949 2237
949 2303
950 998
950 1064
950 1067
950 1071
950 1092
950 1124
950 1149
950 1177
950 1180
950 1203
950 1219
950 1246
950 1274
950 1281
950 1288
950 1292
950 1297
950 1347
950 1358
950 1364
950 1377
950 1378
950 1380
950 1387
950 1405
950 1411
950 1432
950 1485
950 1513
950 1517
950 1538
950 1556
950 1564
950 1579
950 1615
950 1621
950 1663
950 1680
950 1716
950 1741
950 1763
950 1767
950 1793
950 1806
950 1809
950 1866
950 1867
950 1870
950 1874
950 1899
950 1908
950 1948
950 1963
950 2012
950 2027
950 2130
950 2151
950 2166
950 2192
950 2209
950 2210
950 2214
950 2225
950 2277
950 2298
950 2299
951 952
951 983
951 1046
951 1110
951 1117
951 1143
951 1181
951 1246
951 1253
951 1333
951 1411
951 1421
951 1455
951 1457
951 1482
951 1511
951 1513
951 1563
951 1576
951 1588
951 1685
951 1690
951 1702
951 1724
951 1763
951 1812
951 1845
951 1852
951 1869
951 1907
951 1963
951 2045
951 2060
951 2072
951 2187
951 2191
951 2273
952 983
952 1037
952 1073
952 1077
952 1138
952 1145
952 1171
952 1184
952 1236
952 1329
952 1448
952 1451
952 1581
952 1648
952 1724
952 1808
952 1839
952 1845
952 1849
952 1857
952 1921
952 2097
952 2151
952 2177
952 2242
952 2245
952 2254
953 1023
953 1122
953 1134
953 1140
953 1169
953 1362
953 1364
953 1371
953 1380
953 1501
953 1594
953 1613
953 1621
953 1623
953 1680
953 1683
953 1896
953 2096
953 2205
953 2212
954 965
954 1024
954 1058
954 1061
954 1078
954 1079
954 1086
954 1118
954 1124
954 1144
954 1177
954 1220
954 1265
954 1281
954 1334
954 1358
954 1368
954 1369
954 1384
954 1387
954 1404
954 1411
954 1421
954 1435
954 1491
954 1544
954 1564
954 1565
954 1584
954 1595
954 1599
954 1620
954 1626
954 1639
954 1649
954 1673
954 1675
954 1704
954 1717
954 1723
954 1726
954 1744
954 1746
954 1767
954 1782
954 1835
954 1842
954 1859
954 1879
954 1928
954 1946
954 1962
954 2000
954 2008
954 2016
954 2054
954 2062
954 2089
954 2105
954 2174
954 2177
954 2212
954 2221
954 2223
954 2258
954 2274
954 2281
954 2301
954 2309
955 998
955 1058
955 1074
955 1084
955 1171
955 1200
955 1345
955 1364
955 1517
955 1528
955 1567
955 1587
955 1621
955 1650
955 1727
955 1751
955 1793
955 1809
955 1848
955 1918
955 1924
955 1939
955 1949
955 1953
955 1957
955 2068
955 2151
955 2164
955 2166
955 2171
955 2197
955 2225
955 2234
955 2242
955 2263
955 2289
956 961
956 988
956 990
956 1004
956 1013
956 1023
956 1039
956 1046
956 1048
956 1049
956 1089
956 1120
956 1148
956 1176
956 1177
956 1188
956 1205
956 1208
956 1221
956 1274
956 1358
956 1364
956 1409
956 1451
956 1465
956 1467
956 1481
956 1496
956 1529
956 1539
956 1546
956 1583
956 1634
956 1663
956 1683
956 1740
956 1748
956 1774
956 1793
956 1799
956 1815
956 1831
956 1837
956 1844
956 1854
956 1885
956 1927
956 1931
956 1936
956 1951
956 1992
956 2014
956 2017
956 2054
956 2067
956 2095
956 2103
956 2146
956 2161
956 2175
956 2177
956 2180
956 2185
956 2215
956 2219
956 2236
956 2245
956 2262
956 2266
956 2267
956 2288
956 2299
957 962
957 978
957 1013
957 1052
957 1099
957 1107
957 1123
957 1126
957 1141
957 1146
957 1154
957 1183
957 1190
957 1205
957 1226
957 1230
957 1237
957 1256
957 1306
957 1351
957 1452
957 1453
957 1477
957 1487
957 1507
957 1522
957 1534
957 1543
957 1551
957 1589
957 1592
957 1593
957 1610
957 1665
957 1700
957 1705
957 1720
957 1736
957 1758
957 1865
957 1898
957 1930
957 1934
957 1974
957 1981
957 1999
957 2001
957 2038
957 2044
957 2080
957 2188
957 2199
957 2218
957 2243
957 2302
958 965
958 970
958 975
958 998
958 1023
958 1091
958 1156
958 1175
958 1186
958 1201
958 1223
958 1274
958 1277
958 1281
958 1334
958 1435
958 1499
958 1564
958 1598
958 1640
958 1663
958 1668
958 1726
958 1741
958 1814
958 1835
958 1843
958 1858
958 1873
958 1950
958 1964
958 1994
958 1995
958 2057
958 2122
958 2129
959 972
959 978
959 993
959 996
959 1008
959 1013
959 1015
959 1042
959 1056
959 1090
959 1103
959 1133
959 1186
959 1203
959 1205
959 1233
959 1251
959 1259
959 1275
959 1304
959 1308
959 1334
959 1347
959 1371
959 1373
959 1392
959 1420
959 1424
959 1429
959 1447
959 1455
959 1469
959 1487
959 1492
959 1550
959 1566
959 1570
959 1580
959 1670
959 1685
959 1763
959 1769
959 1799
959 1822
959 1828
959 1883
959 1886
959 1890
959 1910
959 1920
959 1963
959 1974
959 1988
959 2029
959 2043
959 2058
959 2062
959 2073
959 2075
959 2103
959 2112
959 2202
959 2210
959 2273
959 2296
959 2305
959 2309
960 981
960 997
960 1008
960 1009
960 1027
960 1033
960 1039
960 1042
960 1044
960 1074
960 1087
960 1101
960 1103
960 1104
960 1110
960 1139
960 1142
960 1143
960 1151
960 1155
960 1194
960 1198
960 1200
960 1220
960 1225
960 1232
960 1252
960 1253
960 1254
960 1259
960 1271
960 1275
960 1281
960 1303
960 1309
960 1331
960 1332
960 1334
960 1345
960 1352
960 1354
960 1363
960 1366
960 1375
960 1385
960 1396
960 1398
960 1424
960 1437
960 1455
960 1466
960 1475
960 1483
960 1493
960 1504
960 1508
960 1511
960 1520
960 1543
960 1563
960 1569
960 1570
960 1571
960 1580
960 1598
960 1646
960 1650
960 1660
960 1676
960 1679
960 1685
960 1709
960 1713
960 1755
960 1763
960 1779
960 1780
960 1790
960 1797
960 1802
960 1804
960 1822
960 1847
960 1852
960 1869
960 1878
960 1890
960 1918
960 1919
960 1924
960 1932
960 1939
960 1949
960 1951
960 1954
960 1956
960 1958
960 1966
960 1977
960 1987
960 1999
960 2004
960 2013
960 2037
960 2043
960 2045
960 2055
960 2058
960 2060
960 2062
960 2067
960 2074
960 2082
960 2086
960 2093
960 2094
960 2104
960 2110
960 2120
960 2134
960 2143
960 2144
960 2149
960 2156
960 2175
960 2184
960 2187
960 2195
960 2198
960 2223
960 2232
960 2244
960 2248
960 2259
960 2263
960 2276
960 2277
960 2295
960 2304
960 2306
960 2310
960 2312
961 971
961 1016
961 1036
961 1038
961 1043
961 1049
961 1050
961 1062
961 1063
961 1070
961 1084
961 1086
961 1089
961 1093
961 1116
961 1135
961 1138
961 1161
961 1189
961 1220
961 1225
961 1236
961 1264
961 1265
961 1268
961 1273
961 1276
961 1299
961 1305
961 1327
961 1329
961 1340
961 1343
961 1355
961 1368
961 1387
961 1421
961 1425
961 1438
961 1439
961 1444
961 1462
961 1464
961 1465
961 1485
961 1502
961 1510
961 1513
961 1519
961 1539
961 1564
961 1571
961 1581
961 1583
961 1587
961 1590
961 1611
961 1620
961 1625
961 1643
961 1689
961 1727
961 1734
961 1740
961 1746
961 1748
961 1753
961 1774
961 1777
961 1786
961 1792
961 1799
961 1825
961 1831
961 1844
961 1853
961 1857
961 1866
961 1871
961 1874
961 1876
961 1878
961 1879
961 1882
961 1885
961 1903
961 1925
961 1927
961 1931
961 1935
961 1936
961 1945
961 1951
961 1964
961 1969
961 1991
961 1992
961 2008
961 2012
961 2015
961 2017
961 2025
961 2054
961 2056
961 2066
961 2076
961 2088
961 2089
961 2092
961 2094
961 2109
961 2113
961 2118
961 2127
961 2129
961 2135
961 2146
961 2151
961 2161
961 2170
961 2183
961 2185
961 2189
961 2206
961 2219
961 2221
961 2222
961 2237
961 2245
961 2258
961 2260
961 2262
961 2289
961 2308
962 1052
962 1053
962 1099
962 1107
962 1146
962 1154
962 1192
962 1226
962 1230
962 1266
962 1293
962 1313
962 1374
962 1396
962 1414
962 1452
962 1477
962 1486
962 1527
962 1534
962 1536
962 1604
962 1610
962 1720
962 1721
962 1736
962 1757
962 1759
962 1791
962 1819
962 1889
962 1898
962 1981
962 2001
962 2044
962 2188
962 2199
962 2218
962 2230
962 2243
962 2283
962 2287
962 2294
963 1194
963 1356
963 2106
964 1026
964 1134
964 1476
964 1498
964 1613
965 969
965 972
965 975
965 1020
965 1023
965 1047
965 1091
965 1143
965 1158
965 1165
965 1169
965 1175
965 1203
965 1223
965 1233
965 1256
965 1277
965 1281
965 1334
965 1336
965 1352
965 1380
965 1435
965 1458
965 1460
965 1470
965 1485
965 1493
965 1499
965 1511
965 1521
965 1564
965 1571
965 1586
965 1598
965 1640
965 1642
965 1668
965 1697
965 1717
965 1723
965 1726
965 1741
965 1742
965 1743
965 1760
965 1803
965 1814
965 1824
965 1834
965 1843
965 1873
965 1894
965 1916
965 1922
965 1964
965 1969
965 1971
965 1974
965 1994
965 2008
965 2037
965 2073
965 2115
965 2116
965 2122
965 2128
965 2129
965 2175
965 2187
965 2252
965 2289
965 2303
965 2307
966 1239
966 1275
966 2082
967 1047
967 1052
967 1152
967 1180
967 1183
967 1259
967 1266
967 1287
967 1292
967 1307
967 1320
967 1364
967 1374
967 1391
967 1424
967 1485
967 1559
967 1574
967 1579
967 1592
967 1696
967 1716
967 1751
967 1757
967 1791
967 1816
967 1828
967 1846
967 1898
967 1938
967 1959
967 2044
967 2053
967 2151
967 2173
967 2178
967 2217
967 2253
968 982
968 988
968 996
968 1102
968 1125
968 1163
968 1188
968 1232
968 1260
968 1281
968 1299
968 1332
968 1344
968 1387
968 1459
968 1520
968 1535
968 1554
968 1557
968 1700
968 1706
968 1741
968 1752
968 1777
968 1864
968 1891
968 1909
968 2087
968 2159
968 2271
969 971
969 975
969 1036
969 1093
969 1094
969 1102
969 1125
969 1156
969 1158
969 1165
969 1175
969 1225
969 1234
969 1244
969 1256
969 1268
969 1300
969 1305
969 1326
969 1334
969 1340
969 1387
969 1411
969 1415
969 1424
969 1491
969 1496
969 1500
969 1513
969 1521
969 1540
969 1554
969 1580
969 1581
969 1583
969 1626
969 1637
969 1663
969 1668
969 1713
969 1774
969 1775
969 1777
969 1815
969 1853
969 1854
969 1873
969 1882
969 1885
969 1973
969 1974
969 1984
969 2017
969 2055
969 2057
969 2081
969 2087
969 2129
969 2183
969 2185
969 2260
970 975
970 990
970 998
970 1006
970 1023
970 1054
970 1115
970 1158
970 1175
970 1177
970 1211
970 1244
970 1270
970 1274
970 1285
970 1296
970 1315
970 1325
970 1403
970 1404
970 1427
970 1430
970 1467
970 1485
970 1490
970 1508
970 1539
970 1560
970 1580
970 1598
970 1628
970 1640
970 1659
970 1668
970 1676
970 1697
970 1713
970 1723
970 1734
970 1760
970 1813
970 1821
970 1825
970 1844
970 1858
970 1873
970 1899
970 1908
970 1948
970 1964
970 2037
970 2089
970 2154
970 2175
970 2193
970 2196
970 2221
970 2225
970 2231
970 2268
970 2289
970 2303
970 2307
971 975
971 986
971 1044
971 1078
971 1084
971 1138
971 1155
971 1191
971 1211
971 1214
971 1225
971 1236
971 1246
971 1267
971 1280
971 1281
971 1299
971 1334
971 1428
971 1430
971 1463
971 1495
971 1571
971 1598
971 1625
971 1634
971 1650
971 1658
971 1668
971 1672
971 1676
971 1713
971 1738
971 1774
971 1803
971 1814
971 1825
971 1835
971 1843
971 1853
971 1854
971 1866
971 1882
971 1899
971 1931
971 1951
971 1974
971 1991
971 2043
971 2046
971 2067
971 2110
971 2118
971 2146
971 2168
971 2185
971 2206
971 2211
971 2215
971 2219
971 2221
971 2255
971 2276
972 984
972 996
972 998
972 1024
972 1051
972 1063
972 1082
972 1102
972 1153
972 1164
972 1166
972 1167
972 1186
972 1224
972 1238
972 1259
972 1277
972 1304
972 1311
972 1355
972 1371
972 1372
972 1377
972 1380
972 1384
972 1387
972 1392
972 1394
972 1399
972 1401
972 1406
972 1415
972 1425
972 1485
972 1533
972 1544
972 1557
972 1568
972 1584
972 1586
972 1590
972 1595
972 1612
972 1633
972 1639
972 1667
972 1680
972 1717
972 1738
972 1741
972 1745
972 1746
972 1752
972 1767
972 1798
972 1815
972 1828
972 1842
972 1858
972 1864
972 1870
972 1879
972 1885
972 1909
972 1921
972 1928
972 1951
972 1962
972 1964
972 1986
972 2008
972 2015
972 2016
972 2036
972 2057
972 2066
972 2089
972 2100
972 2124
972 2125
972 2130
972 2162
972 2172
972 2221
972 2271
973 1047
973 1100
973 1123
973 1126
973 1199
973 1230
973 1284
973 1295
973 1306
973 1374
973 1376
973 1445
973 1461
973 1476
973 1616
973 1648
973 1678
973 1733
973 1736
973 1757
973 1773
973 1816
973 1830
973 1933
973 1934
973 1948
973 1972
973 2053
973 2287
974 989
974 1080
974 1122
974 1140
974 1187
974 1278
974 1281
974 1290
974 1307
974 1320
974 1342
974 1364
974 1394
974 1417
974 1472
974 1574
974 1602
974 1656
974 1722
974 1801
974 1816
974 2199
975 1023
975 1069
975 1093
975 1152
975 1164
975 1165
975 1166
975 1175
975 1186
975 1234
975 1265
975 1277
975 1296
975 1317
975 1353
975 1462
975 1590
975 1625
975 1668
975 1717
975 1726
975 1814
975 1835
975 1873
975 1879
975 1965
975 2015
975 2057
975 2089
975 2100
975 2129
975 2245
976 1037
976 1044
976 1232
976 1328
976 1459
976 1537
976 1637
976 1728
977 1016
977 1063
977 1098
977 1104
977 1111
977 1117
977 1142
977 1143
977 1168
977 1170
977 1208
977 1225
977 1297
977 1318
977 1325
977 1337
977 1425
977 1439
977 1487
977 1500
977 1502
977 1505
977 1518
977 1528
977 1535
977 1564
977 1581
977 1583
977 1590
977 1606
977 1637
977 1667
977 1669
977 1792
977 1844
977 1849
977 1853
977 1879
977 1907
977 1913
977 1921
977 1951
977 1964
977 2023
977 2025
977 2046
977 2049
977 2056
977 2062
977 2066
977 2103
977 2150
977 2185
977 2221
977 2225
977 2260
977 2274
978 1008
978 1013
978 1016
978 1020
978 1056
978 1110
978 1130
978 1133
978 1177
978 1203
978 1205
978 1251
978 1254
978 1281
978 1332
978 1334
978 1348
978 1371
978 1373
978 1424
978 1429
978 1434
978 1457
978 1485
978 1487
978 1513
978 1539
978 1546
978 1550
978 1566
978 1576
978 1586
978 1670
978 1684
978 1690
978 1696
978 1721
978 1834
978 1868
978 1869
978 1886
978 1891
978 1898
978 1906
978 1907
978 1910
978 1919
978 1920
978 1963
978 1970
978 1974
978 1980
978 2003
978 2029
978 2030
978 2043
978 2058
978 2059
978 2062
978 2073
978 2075
978 2140
978 2147
978 2251
978 2272
978 2273
978 2296
979 999
979 1047
979 1052
979 1065
979 1131
979 1157
979 1183
979 1223
979 1293
979 1306
979 1346
979 1374
979 1477
979 1486
979 1522
979 1543
979 1592
979 1608
979 1617
979 1662
979 1696
979 1711
979 1712
979 1721
979 1757
979 1786
979 1791
979 1826
979 1847
979 1861
979 1889
979 1892
979 1898
979 1930
979 1972
979 2001
979 2009
979 2011
979 2020
979 2044
979 2052
979 2178
980 981
980 986
980 991
980 1015
980 1029
980 1035
980 1038
980 1053
980 1084
980 1086
980 1095
980 1127
980 1129
980 1142
980 1150
980 1177
980 1215
980 1256
980 1268
980 1281
980 1303
980 1308
980 1357
980 1361
980 1375
980 1390
980 1425
980 1440
980 1488
980 1493
980 1499
980 1504
980 1508
980 1512
980 1547
980 1548
980 1558
980 1561
980 1573
980 1578
980 1588
980 1650
980 1677
980 1679
980 1743
980 1754
980 1760
980 1763
980 1782
980 1786
980 1789
980 1803
980 1812
980 1836
980 1859
980 1867
980 1874
980 1906
980 1908
980 1919
980 1921
980 1927
980 1953
980 1954
980 1961
980 1974
980 1980
980 1991
980 2024
980 2042
980 2049
980 2068
980 2147
980 2149
980 2151
980 2154
980 2156
980 2167
980 2190
980 2191
980 2204
980 2228
980 2240
980 2244
980 2258
980 2263
980 2274
980 2280
980 2304
980 2311
981 983
981 1009
981 1029
981 1039
981 1050
981 1064
981 1066
981 1075
981 1136
981 1139
981 1161
981 1180
981 1198
981 1256
981 1309
981 1361
981 1375
981 1385
981 1398
981 1413
981 1428
981 1440
981 1463
981 1490
981 1493
981 1504
981 1559
981 1561
981 1563
981 1650
981 1697
981 1755
981 1780
981 1786
981 1790
981 1792
981 1802
981 1803
981 1825
981 1848
981 1874
981 1878
981 1908
981 1949
981 1953
981 1954
981 1956
981 1977
981 1982
981 1984
981 2023
981 2037
981 2056
981 2068
981 2101
981 2119
981 2144
981 2147
981 2149
981 2156
981 2177
981 2204
981 2220
981 2223
981 2225
981 2232
981 2234
981 2265
981 2272
981 2277
981 2295
981 2304
981 2308
981 2311
982 993
982 1004
982 1049
982 1063
982 1072
982 1102
982 1105
982 1125
982 1143
982 1158
982 1176
982 1220
982 1221
982 1232
982 1244
982 1280
982 1300
982 1308
982 1326
982 1344
982 1354
982 1384
982 1387
982 1394
982 1415
982 1485
982 1537
982 1538
982 1554
982 1620
982 1658
982 1663
982 1738
982 1795
982 1799
982 1968
982 2016
982 2017
982 2027
982 2067
982 2069
982 2232
983 1009
983 1027
983 1031
983 1050
983 1053
983 1063
983 1073
983 1074
983 1077
983 1084
983 1110
983 1133
983 1139
983 1145
983 1150
983 1161
983 1194
983 1198
983 1212
983 1222
983 1253
983 1254
983 1269
983 1271
983 1273
983 1281
983 1301
983 1304
983 1333
983 1344
983 1392
983 1398
983 1439
983 1457
983 1466
983 1469
983 1482
983 1483
983 1489
983 1548
983 1559
983 1561
983 1563
983 1569
983 1588
983 1645
983 1679
983 1690
983 1702
983 1703
983 1716
983 1724
983 1743
983 1754
983 1771
983 1780
983 1792
983 1796
983 1804
983 1834
983 1839
983 1840
983 1845
983 1849
983 1851
983 1868
983 1869
983 1895
983 1906
983 1907
983 1915
983 1918
983 1924
983 1932
983 1949
983 1953
983 1963
983 1966
983 1969
983 1980
983 2045
983 2056
983 2059
983 2072
983 2097
983 2104
983 2128
983 2149
983 2191
983 2203
983 2228
983 2244
983 2254
983 2265
983 2269
983 2272
983 2277
983 2296
984 1164
984 1181
984 1186
984 1223
984 1244
984 1315
984 1394
984 1446
984 1449
984 1474
984 1530
984 1546
984 1575
984 1595
984 1640
984 1703
984 1717
984 1738
984 1742
984 1821
984 1843
984 1928
984 1962
984 2069
984 2105
984 2122
984 2252
984 2264
984 2303
985 1387
985 1644
986 1003
986 1009
986 1010
986 1021
986 1029
986 1039
986 1050
986 1060
986 1089
986 1136
986 1137
986 1220
986 1232
986 1233
986 1256
986 1258
986 1265
986 1268
986 1273
986 1276
986 1280
986 1282
986 1318
986 1340
986 1354
986 1366
986 1390
986 1396
986 1413
986 1415
986 1416
986 1438
986 1442
986 1451
986 1482
986 1493
986 1495
986 1496
986 1497
986 1499
986 1500
986 1505
986 1515
986 1519
986 1537
986 1539
986 1540
986 1563
986 1578
986 1590
986 1611
986 1626
986 1634
986 1650
986 1663
986 1677
986 1701
986 1703
986 1748
986 1784
986 1787
986 1789
986 1799
986 1803
986 1810
986 1825
986 1827
986 1831
986 1874
986 1878
986 1888
986 1897
986 1904
986 1911
986 1921
986 1924
986 1931
986 1935
986 1961
986 1982
986 1984
986 1992
986 2012
986 2025
986 2027
986 2037
986 2043
986 2067
986 2084
986 2086
986 2101
986 2109
986 2112
986 2113
986 2120
986 2141
986 2146
986 2148
986 2156
986 2171
986 2177
986 2179
986 2215
986 2219
986 2232
986 2234
986 2242
986 2277
987 1107
987 1534
987 1543
987 1589
987 1739
987 1820
987 1847
987 1873
987 1938
987 2001
987 2044
987 2287
988 1039
988 1104
988 1105
988 1111
988 1118
988 1128
988 1176
988 1221
988 1245
988 1411
988 1415
988 1444
988 1451
988 1500
988 1520
988 1535
988 1583
988 1624
988 1626
988 1630
988 1663
988 1770
988 1774
988 1909
988 1911
988 1926
988 1931
988 1946
988 1963
988 1984
988 2007
988 2138
988 2146
988 2164
988 2186
988 2229
988 2235
988 2236
988 2286
989 1034
989 1080
989 1122
989 1140
989 1263
989 1290
989 1307
989 1320
989 1342
989 1364
989 1370
989 1380
989 1391
989 1394
989 1417
989 1453
989 1472
989 1485
989 1574
989 1602
989 1610
989 1613
989 1656
989 1722
989 1725
989 1756
989 1800
989 1801
989 1816
989 1914
989 1943
989 1952
989 2077
989 2164
990 1023
990 1048
990 1102
990 1112
990 1188
990 1193
990 1229
990 1238
990 1274
990 1282
990 1285
990 1322
990 1324
990 1364
990 1409
990 1467
990 1565
990 1680
990 1770
990 1771
990 1837
990 1967
990 2089
990 2098
990 2125
990 2135
990 2151
990 2161
990 2172
990 2182
990 2189
990 2249
990 2268
990 2299
991 1008
991 1015
991 1029
991 1035
991 1046
991 1053
991 1092
991 1101
991 1143
991 1177
991 1246
991 1252
991 1256
991 1281
991 1345
991 1357
991 1390
991 1392
991 1420
991 1455
991 1485
991 1512
991 1513
991 1542
991 1548
991 1573
991 1588
991 1638
991 1655
991 1674
991 1677
991 1679
991 1684
991 1702
991 1754
991 1760
991 1763
991 1769
991 1802
991 1812
991 1834
991 1841
991 1845
991 1859
991 1906
991 1922
991 1961
991 1963
991 1974
991 1980
991 2024
991 2060
991 2143
991 2147
991 2154
991 2190
991 2191
991 2204
991 2228
991 2304
991 2311
992 1011
992 1092
992 1096
992 1143
992 1177
992 1211
992 1296
992 1310
992 1355
992 1411
992 1460
992 1571
992 1600
992 1621
992 1812
992 1874
992 1880
992 1899
992 1931
992 2058
992 2225
992 2248
992 2309
993 1010
993 1071
993 1079
993 1090
993 1094
993 1103
993 1130
993 1177
993 1200
993 1203
993 1252
993 1254
993 1259
993 1281
993 1330
993 1332
993 1347
993 1373
993 1405
993 1411
993 1424
993 1440
993 1443
993 1492
993 1520
993 1550
993 1563
993 1566
993 1580
993 1599
993 1621
993 1638
993 1672
993 1693
993 1716
993 1724
993 1741
993 1806
993 1828
993 1900
993 1906
993 1907
993 1915
993 1963
993 1979
993 2005
993 2049
993 2062
993 2073
993 2108
993 2123
993 2140
993 2143
993 2162
993 2195
993 2233
993 2284
993 2309
994 1529
994 1643
994 2067
995 1088
995 1107
995 1109
995 1223
995 1226
995 1237
995 1239
995 1257
995 1365
995 1402
995 1525
995 1608
995 1646
995 1651
995 1665
995 1714
995 1720
995 1736
995 1816
995 1889
995 1943
995 2002
995 2077
995 2091
995 2107
995 2119
995 2137
996 1013
996 1027
996 1054
996 1082
996 1102
996 1104
996 1133
996 1164
996 1242
996 1252
996 1259
996 1265
996 1270
996 1308
996 1332
996 1335
996 1344
996 1347
996 1355
996 1364
996 1372
996 1387
996 1392
996 1399
996 1404
996 1406
996 1471
996 1491
996 1492
996 1503
996 1586
996 1621
996 1672
996 1676
996 1697
996 1700
996 1706
996 1723
996 1741
996 1745
996 1752
996 1767
996 1795
996 1806
996 1828
996 1864
996 1906
996 1958
996 2027
996 2120
996 2130
996 2154
996 2210
996 2225
996 2252
996 2264
996 2271
996 2272
996 2284
997 1032
997 1039
997 1058
997 1066
997 1068
997 1074
997 1142
997 1171
997 1200
997 1345
997 1361
997 1375
997 1514
997 1561
997 1567
997 1587
997 1650
997 1669
997 1755
997 1793
997 1810
997 1848
997 1918
997 1924
997 1939
997 1949
997 1982
997 2037
997 2046
997 2060
997 2068
997 2112
997 2128
997 2171
997 2220
997 2234
997 2242
997 2263
997 2265
998 1004
998 1023
998 1031
998 1036
998 1038
998 1048
998 1062
998 1063
998 1070
998 1091
998 1092
998 1095
998 1104
998 1148
998 1149
998 1168
998 1171
998 1177
998 1184
998 1186
998 1189
998 1217
998 1219
998 1225
998 1238
998 1245
998 1253
998 1262
998 1268
998 1271
998 1274
998 1277
998 1281
998 1288
998 1292
998 1300
998 1308
998 1310
998 1311
998 1337
998 1355
998 1358
998 1364
998 1371
998 1377
998 1383
998 1387
998 1423
998 1435
998 1485
998 1499
998 1513
998 1514
998 1556
998 1562
998 1563
998 1595
998 1598
998 1615
998 1619
998 1621
998 1625
998 1657
998 1669
998 1676
998 1703
998 1708
998 1717
998 1741
998 1746
998 1751
998 1782
998 1792
998 1793
998 1809
998 1839
998 1844
998 1849
998 1864
998 1870
998 1873
998 1879
998 1927
998 1957
998 1964
998 1974
998 1990
998 1995
998 1996
998 2007
998 2027
998 2037
998 2047
998 2062
998 2070
998 2081
998 2088
998 2089
998 2098
998 2121
998 2122
998 2125
998 2130
998 2135
998 2140
998 2151
998 2154
998 2163
998 2167
998 2175
998 2177
998 2184
998 2192
998 2213
998 2225
998 2236
998 2240
998 2254
998 2261
998 2266
998 2269
998 2289
999 1047
999 1052
999 1107
999 1109
999 1146
999 1157
999 1192
999 1202
999 1230
999 1346
999 1350
999 1374
999 1381
999 1382
999 1431
999 1452
999 1469
999 1486
999 1527
999 1534
999 1580
999 1620
999 1647
999 1666
999 1711
999 1832
999 1846
999 1898
999 2001
999 2044
999 2256
1000 1165
1001 1103
1001 1129
1001 1130
1001 1133
1001 1143
1001 1177
1001 1200
1001 1251
1001 1254
1001 1312
1001 1323
1001 1411
1001 1424
1001 1434
1001 1437
1001 1511
1001 1513
1001 1563
1001 1576
1001 1580
1001 1605
1001 1612
1001 1672
1001 1679
1001 1690
1001 1709
1001 1763
1001 1824
1001 1852
1001 1869
1001 1896
1001 1988
1001 2030
1001 2045
1001 2051
1001 2065
1001 2073
1001 2074
1001 2123
1001 2195
1001 2198
1001 2202
1001 2295
1002 1144
1002 1203
1002 1586
1002 1743
1002 1995
1003 1035
1003 1039
1003 1053
1003 1060
1003 1073
1003 1077
1003 1130
1003 1136
1003 1145
1003 1168
1003 1171
1003 1184
1003 1208
1003 1220
1003 1282
1003 1354
1003 1358
1003 1390
1003 1401
1003 1413
1003 1421
1003 1428
1003 1451
1003 1469
1003 1482
1003 1483
1003 1490
1003 1503
1003 1504
1003 1508
1003 1520
1003 1548
1003 1573
1003 1578
1003 1588
1003 1643
1003 1669
1003 1675
1003 1677
1003 1679
1003 1771
1003 1785
1003 1789
1003 1790
1003 1796
1003 1799
1003 1809
1003 1836
1003 1859
1003 1860
1003 1874
1003 1878
1003 1908
1003 1911
1003 1921
1003 1928
1003 1931
1003 1932
1003 1953
1003 1961
1003 1980
1003 1984
1003 1989
1003 2023
1003 2042
1003 2045
1003 2081
1003 2101
1003 2111
1003 2127
1003 2134
1003 2151
1003 2154
1003 2171
1003 2177
1003 2203
1003 2215
1003 2223
1003 2232
1003 2240
1003 2260
1003 2277
1003 2311
1004 1021
1004 1036
1004 1091
1004 1105
1004 1116
1004 1128
1004 1196
1004 1219
1004 1232
1004 1250
1004 1253
1004 1256
1004 1271
1004 1281
1004 1311
1004 1327
1004 1340
1004 1354
1004 1355
1004 1389
1004 1413
1004 1459
1004 1467
1004 1496
1004 1514
1004 1521
1004 1535
1004 1537
1004 1539
1004 1540
1004 1560
1004 1595
1004 1598
1004 1606
1004 1630
1004 1658
1004 1702
1004 1713
1004 1741
1004 1748
1004 1774
1004 1799
1004 1815
1004 1825
1004 1831
1004 1844
1004 1873
1004 1903
1004 1925
1004 1926
1004 1931
1004 1940
1004 1951
1004 1953
1004 1958
1004 1964
1004 1974
1004 1992
1004 2012
1004 2037
1004 2054
1004 2067
1004 2081
1004 2089
1004 2135
1004 2138
1004 2148
1004 2163
1004 2175
1004 2204
1004 2206
1004 2211
1004 2213
1004 2225
1004 2236
1004 2255
1004 2279
1004 2295
1005 1159
1005 1433
1006 1151
1006 1228
1006 1616
1006 1628
1006 1868
1006 2147
1006 2175
1007 2073
1008 1016
1008 1056
1008 1071
1008 1103
1008 1110
1008 1117
1008 1139
1008 1177
1008 1181
1008 1199
1008 1203
1008 1251
1008 1253
1008 1271
1008 1281
1008 1299
1008 1334
1008 1348
1008 1371
1008 1373
1008 1405
1008 1424
1008 1429
1008 1434
1008 1448
1008 1466
1008 1469
1008 1482
1008 1487
1008 1489
1008 1495
1008 1518
1008 1520
1008 1521
1008 1550
1008 1569
1008 1576
1008 1606
1008 1645
1008 1648
1008 1670
1008 1690
1008 1699
1008 1701
1008 1716
1008 1804
1008 1857
1008 1868
1008 1886
1008 1895
1008 1907
1008 1910
1008 1913
1008 1920
1008 1921
1008 1963
1008 1974
1008 2022
1008 2029
1008 2043
1008 2058
1008 2059
1008 2062
1008 2075
1008 2104
1008 2187
1008 2225
1008 2248
1008 2273
1008 2275
1008 2284
1008 2295
1008 2296
1009 1042
1009 1053
1009 1057
1009 1071
1009 1082
1009 1194
1009 1200
1009 1203
1009 1225
1009 1232
1009 1251
1009 1254
1009 1259
1009 1275
1009 1281
1009 1283
1009 1289
1009 1309
1009 1331
1009 1371
1009 1385
1009 1388
1009 1392
1009 1396
1009 1398
1009 1410
1009 1411
1009 1415
1009 1432
1009 1485
1009 1489
1009 1493
1009 1537
1009 1538
1009 1564
1009 1566
1009 1612
1009 1637
1009 1650
1009 1676
1009 1679
1009 1713
1009 1778
1009 1804
1009 1815
1009 1824
1009 1845
1009 1890
1009 1949
1009 1950
1009 1956
1009 1963
1009 1987
1009 2003
1009 2037
1009 2055
1009 2056
1009 2067
1009 2116
1009 2144
1009 2163
1009 2259
1009 2295
1009 2304
1009 2306
1010 1044
1010 1064
1010 1095
1010 1096
1010 1122
1010 1140
1010 1149
1010 1151
1010 1169
1010 1177
1010 1180
1010 1194
1010 1203
1010 1210
1010 1262
1010 1268
1010 1271
1010 1274
1010 1275
1010 1281
1010 1292
1010 1310
1010 1347
1010 1356
1010 1358
1010 1362
1010 1364
1010 1392
1010 1405
1010 1411
1010 1443
1010 1449
1010 1485
1010 1492
1010 1563
1010 1579
1010 1612
1010 1615
1010 1623
1010 1672
1010 1683
1010 1699
1010 1778
1010 1782
1010 1793
1010 1796
1010 1809
1010 1813
1010 1828
1010 1896
1010 1918
1010 1963
1010 1983
1010 2005
1010 2027
1010 2062
1010 2104
1010 2106
1010 2130
1010 2143
1010 2164
1010 2174
1010 2209
1010 2210
1010 2233
1010 2269
1010 2312
1011 1071
1011 1092
1011 1103
1011 1121
1011 1137
1011 1140
1011 1164
1011 1175
1011 1177
1011 1193
1011 1206
1011 1219
1011 1238
1011 1277
1011 1279
1011 1283
1011 1324
1011 1348
1011 1355
1011 1383
1011 1404
1011 1409
1011 1411
1011 1449
1011 1485
1011 1503
1011 1520
1011 1521
1011 1556
1011 1577
1011 1642
1011 1675
1011 1676
1011 1680
1011 1723
1011 1809
1011 1825
1011 1835
1011 1870
1011 1880
1011 1931
1011 1965
1011 1974
1011 1983
1011 2089
1011 2106
1011 2117
1011 2174
1011 2182
1011 2221
1011 2277
1012 1358
1012 1361
1012 1561
1012 1578
1012 1755
1012 1825
1012 1848
1012 1921
1012 1984
1012 2089
1012 2240
1012 2265
1013 1020
1013 1040
1013 1056
1013 1074
1013 1104
1013 1108
1013 1120
1013 1139
1013 1143
1013 1205
1013 1251
1013 1254
1013 1265
1013 1332
1013 1334
1013 1348
1013 1355
1013 1371
1013 1373
1013 1404
1013 1429
1013 1485
1013 1487
1013 1489
1013 1511
1013 1521
1013 1539
1013 1546
1013 1550
1013 1566
1013 1650
1013 1670
1013 1700
1013 1709
1013 1759
1013 1779
1013 1780
1013 1802
1013 1815
1013 1834
1013 1835
1013 1886
1013 1891
1013 1906
1013 1910
1013 1920
1013 1949
1013 1963
1013 1974
1013 1977
1013 2029
1013 2043
1013 2060
1013 2065
1013 2073
1013 2088
1013 2104
1013 2120
1013 2132
1013 2140
1013 2159
1013 2190
1013 2251
1013 2273
1013 2284
1013 2305
1013 2306
1014 1660
1015 1029
1015 1042
1015 1053
1015 1072
1015 1090
1015 1093
1015 1103
1015 1110
1015 1129
1015 1177
1015 1244
1015 1256
1015 1259
1015 1268
1015 1275
1015 1345
1015 1348
1015 1357
1015 1375
1015 1390
1015 1512
1015 1514
1015 1538
1015 1548
1015 1588
1015 1646
1015 1672
1015 1677
1015 1679
1015 1716
1015 1754
1015 1760
1015 1763
1015 1789
1015 1828
1015 1859
1015 1878
1015 1890
1015 1980
1015 2013
1015 2022
1015 2024
1015 2034
1015 2051
1015 2058
1015 2062
1015 2068
1015 2079
1015 2116
1015 2147
1015 2151
1015 2163
1015 2190
1015 2191
1015 2198
1015 2204
1015 2209
1015 2210
1015 2241
1015 2244
1015 2275
1015 2304
1016 1036
1016 1046
1016 1056
1016 1071
1016 1085
1016 1116
1016 1130
1016 1133
1016 1212
1016 1265
1016 1270
1016 1274
1016 1275
1016 1281
1016 1305
1016 1336
1016 1368
1016 1380
1016 1388
1016 1405
1016 1424
1016 1455
1016 1502
1016 1521
1016 1538
1016 1539
1016 1571
1016 1575
1016 1606
1016 1650
1016 1670
1016 1684
1016 1690
1016 1697
1016 1718
1016 1835
1016 1853
1016 1899
1016 1913
1016 1945
1016 1963
1016 1974
1016 1999
1016 2022
1016 2025
1016 2034
1016 2056
1016 2093
1016 2147
1016 2163
1016 2225
1016 2295
1018 1154
1018 1240
1018 1284
1018 1350
1018 1726
1018 1757
1018 1905
1018 2018
1018 2239
1019 1208
1019 1282
1019 1296
1019 1325
1019 1335
1019 1355
1019 1398
1019 1485
1019 1523
1019 1741
1019 1755
1019 1806
1019 1956
1019 1977
1019 2056
1019 2144
1019 2154
1019 2156
1019 2220
1019 2252
1019 2304
1020 1049
1020 1062
1020 1078
1020 1120
1020 1130
1020 1133
1020 1151
1020 1203
1020 1205
1020 1241
1020 1256
1020 1265
1020 1274
1020 1297
1020 1305
1020 1335
1020 1339
1020 1348
1020 1355
1020 1364
1020 1373
1020 1378
1020 1388
1020 1421
1020 1424
1020 1435
1020 1458
1020 1485
1020 1503
1020 1521
1020 1538
1020 1539
1020 1544
1020 1546
1020 1564
1020 1571
1020 1575
1020 1638
1020 1676
1020 1690
1020 1697
1020 1732
1020 1741
1020 1743
1020 1750
1020 1760
1020 1769
1020 1771
1020 1780
1020 1815
1020 1829
1020 1834
1020 1873
1020 1874
1020 1891
1020 1894
1020 1913
1020 1931
1020 1948
1020 1953
1020 1963
1020 1974
1020 1987
1020 1995
1020 2037
1020 2043
1020 2055
1020 2060
1020 2073
1020 2079
1020 2093
1020 2124
1020 2190
1020 2208
1020 2213
1020 2251
1020 2298
1020 2311
1021 1039
1021 1060
1021 1073
1021 1105
1021 1128
1021 1137
1021 1175
1021 1176
1021 1189
1021 1220
1021 1221
1021 1256
1021 1258
1021 1280
1021 1299
1021 1340
1021 1390
1021 1398
1021 1401
1021 1413
1021 1416
1021 1438
1021 1442
1021 1444
1021 1482
1021 1499
1021 1500
1021 1520
1021 1535
1021 1578
1021 1587
1021 1593
1021 1611
1021 1634
1021 1645
1021 1724
1021 1730
1021 1784
1021 1787
1021 1789
1021 1878
1021 1903
1021 1911
1021 1925
1021 1931
1021 1982
1021 1984
1021 1992
1021 2027
1021 2043
1021 2067
1021 2138
1021 2146
1021 2171
1021 2177
1021 2186
1021 2215
1021 2232
1021 2235
1021 2236
1021 2277
1022 1046
1022 1281
1022 1312
1022 1331
1022 1396
1022 1437
1022 1438
1022 1736
1022 1852
1022 2029
1022 2069
1022 2147
1022 2246
1023 1036
1023 1055
1023 1071
1023 1165
1023 1169
1023 1175
1023 1177
1023 1188
1023 1270
1023 1274
1023 1277
1023 1296
1023 1364
1023 1369
1023 1404
1023 1409
1023 1411
1023 1460
1023 1485
1023 1538
1023 1560
1023 1628
1023 1642
1023 1659
1023 1663
1023 1668
1023 1680
1023 1688
1023 1717
1023 1726
1023 1767
1023 1790
1023 1814
1023 1834
1023 1873
1023 1922
1023 1949
1023 1964
1023 1971
1023 2062
1023 2082
1023 2116
1023 2125
1023 2129
1023 2130
1023 2212
1023 2220
1023 2268
1023 2306
1023 2307
1024 1079
1024 1102
1024 1103
1024 1118
1024 1244
1024 1251
1024 1252
1024 1281
1024 1339
1024 1404
1024 1405
1024 1471
1024 1544
1024 1554
1024 1675
1024 1781
1024 1806
1024 2105
1024 2129
1024 2174
1024 2175
1024 2196
1024 2237
1024 2259
1024 2309
1025 1100
1025 1107
1025 1127
1025 1157
1025 1183
1025 1199
1025 1207
1025 1272
1025 1295
1025 1374
1025 1417
1025 1477
1025 1566
1025 1576
1025 1604
1025 1616
1025 1625
1025 1662
1025 1666
1025 1672
1025 1694
1025 1721
1025 1794
1025 1812
1025 1819
1025 1846
1025 1875
1025 1984
1025 2011
1025 2020
1025 2044
1025 2077
1025 2120
1025 2294
1026 1028
1026 1100
1026 1461
1026 1476
1026 1582
1026 1613
1026 1682
1026 1739
1026 1873
1026 1933
1027 1143
1027 1163
1027 1194
1027 1252
1027 1281
1027 1332
1027 1396
1027 1455
1027 1471
1027 1485
1027 1492
1027 1580
1027 1584
1027 1595
1027 1603
1027 1693
1027 1700
1027 1706
1027 1709
1027 1745
1027 1822
1027 1864
1027 1928
1027 1932
1027 1949
1027 1999
1027 2059
1027 2062
1027 2082
1027 2083
1027 2093
1027 2104
1027 2144
1027 2147
1027 2198
1027 2272
1027 2284
1027 2296
1027 2304
1028 1157
1028 1223
1028 1485
1028 1604
1028 1647
1028 1739
1028 1820
1029 1032
1029 1035
1029 1039
1029 1046
1029 1053
1029 1074
1029 1086
1029 1127
1029 1142
1029 1215
1029 1222
1029 1256
1029 1276
1029 1297
1029 1303
1029 1345
1029 1357
1029 1361
1029 1366
1029 1375
1029 1390
1029 1413
1029 1425
1029 1493
1029 1499
1029 1512
1029 1528
1029 1548
1029 1573
1029 1588
1029 1598
1029 1670
1029 1677
1029 1679
1029 1697
1029 1754
1029 1755
1029 1760
1029 1763
1029 1782
1029 1786
1029 1790
1029 1799
1029 1810
1029 1859
1029 1867
1029 1872
1029 1874
1029 1878
1029 1908
1029 1913
1029 1921
1029 1924
1029 1953
1029 1961
1029 1980
1029 1989
1029 2013
1029 2024
1029 2037
1029 2060
1029 2068
1029 2086
1029 2094
1029 2109
1029 2110
1029 2111
1029 2112
1029 2147
1029 2148
1029 2151
1029 2154
1029 2156
1029 2167
1029 2176
1029 2190
1029 2191
1029 2204
1029 2220
1029 2228
1029 2234
1029 2240
1029 2244
1029 2272
1029 2304
1029 2311
1030 1275
1030 1285
1030 1290
1030 1356
1030 1362
1030 1405
1030 1675
1030 1680
1030 1890
1030 2062
1030 2145
1030 2312
1031 1062
1031 1075
1031 1092
1031 1136
1031 1142
1031 1160
1031 1171
1031 1233
1031 1281
1031 1308
1031 1309
1031 1421
1031 1455
1031 1483
1031 1508
1031 1573
1031 1578
1031 1643
1031 1650
1031 1671
1031 1708
1031 1715
1031 1771
1031 1790
1031 1803
1031 1818
1031 1885
1031 1932
1031 1949
1031 1953
1031 1954
1031 2015
1031 2019
1031 2023
1031 2037
1031 2046
1031 2055
1031 2101
1031 2104
1031 2151
1031 2220
1031 2223
1031 2227
1031 2240
1031 2269
1031 2270
1031 2277
1031 2306
1031 2311
1032 1039
1032 1171
1032 1220
1032 1226
1032 1329
1032 1493
1032 1741
1032 1799
1032 1827
1032 1848
1032 1874
1032 1924
1032 1935
1032 1953
1032 2013
1032 2094
1032 2148
1032 2234
1032 2242
1032 2244
1033 1065
1033 1083
1033 1190
1033 1230
1033 1290
1033 1291
1033 1351
1033 1506
1033 1543
1033 1553
1033 1589
1033 1591
1033 1592
1033 1608
1033 1620
1033 1647
1033 1847
1033 1873
1033 1943
1033 2020
1033 2053
1033 2232
1033 2287
1034 1107
1034 1287
1034 1290
1034 1320
1034 1414
1034 1453
1034 1485
1034 1486
1034 1521
1034 1625
1034 1665
1034 2077
1034 2091
1035 1062
1035 1086
1035 1150
1035 1233
1035 1256
1035 1390
1035 1414
1035 1512
1035 1558
1035 1573
1035 1588
1035 1677
1035 1679
1035 1754
1035 1836
1035 1859
1035 1874
1035 1961
1035 1974
1035 1980
1035 2024
1035 2049
1035 2068
1035 2147
1035 2151
1035 2154
1035 2171
1035 2190
1035 2191
1035 2204
1035 2240
1035 2244
1035 2280
1035 2304
1035 2311
1036 1116
1036 1130
1036 1134
1036 1160
1036 1181
1036 1218
1036 1225
1036 1234
1036 1253
1036 1271
1036 1274
1036 1438
1036 1459
1036 1469
1036 1471
1036 1485
1036 1505
1036 1521
1036 1557
1036 1571
1036 1575
1036 1583
1036 1598
1036 1600
1036 1606
1036 1621
1036 1637
1036 1639
1036 1690
1036 1713
1036 1730
1036 1741
1036 1842
1036 1844
1036 1853
1036 1854
1036 1860
1036 1864
1036 1866
1036 1882
1036 1899
1036 1937
1036 1940
1036 1967
1036 1991
1036 1995
1036 2022
1036 2023
1036 2046
1036 2059
1036 2125
1036 2185
1036 2192
1036 2225
1036 2236
1036 2240
1036 2279
1037 1044
1037 1204
1037 1267
1037 1337
1037 1459
1037 1495
1037 1637
1037 1658
1037 1728
1037 1821
1037 1871
1037 2039
1037 2067
1037 2118
1037 2156
1037 2260
1038 1070
1038 1078
1038 1086
1038 1089
1038 1095
1038 1111
1038 1118
1038 1124
1038 1147
1038 1148
1038 1156
1038 1170
1038 1204
1038 1249
1038 1265
1038 1268
1038 1270
1038 1280
1038 1281
1038 1308
1038 1327
1038 1334
1038 1343
1038 1372
1038 1428
1038 1485
1038 1520
1038 1521
1038 1528
1038 1540
1038 1643
1038 1663
1038 1760
1038 1771
1038 1782
1038 1805
1038 1813
1038 1825
1038 1873
1038 1908
1038 1974
1038 2037
1038 2094
1038 2103
1038 2120
1038 2237
1038 2242
1038 2245
1038 2274
1038 2308
1039 1049
1039 1050
1039 1060
1039 1063
1039 1068
1039 1073
1039 1074
1039 1077
1039 1084
1039 1105
1039 1111
1039 1136
1039 1147
1039 1168
1039 1171
1039 1176
1039 1184
1039 1200
1039 1208
1039 1220
1039 1221
1039 1232
1039 1249
1039 1258
1039 1267
1039 1276
1039 1279
1039 1280
1039 1281
1039 1300
1039 1303
1039 1354
1039 1361
1039 1366
1039 1401
1039 1413
1039 1439
1039 1442
1039 1444
1039 1451
1039 1482
1039 1493
1039 1508
1039 1528
1039 1537
1039 1541
1039 1561
1039 1563
1039 1564
1039 1583
1039 1611
1039 1634
1039 1643
1039 1669
1039 1703
1039 1724
1039 1751
1039 1755
1039 1761
1039 1772
1039 1787
1039 1799
1039 1810
1039 1825
1039 1844
1039 1845
1039 1849
1039 1851
1039 1878
1039 1903
1039 1911
1039 1921
1039 1924
1039 1925
1039 1926
1039 1931
1039 1936
1039 1949
1039 1953
1039 1984
1039 1992
1039 2013
1039 2027
1039 2032
1039 2068
1039 2081
1039 2086
1039 2094
1039 2097
1039 2101
1039 2104
1039 2109
1039 2112
1039 2113
1039 2141
1039 2148
1039 2156
1039 2171
1039 2176
1039 2177
1039 2180
1039 2203
1039 2215
1039 2232
1039 2234
1039 2242
1039 2244
1039 2254
1039 2258
1039 2260
1039 2261
1039 2288
1039 2304
1040 1048
1040 1205
1040 1539
1040 1750
1040 1891
1040 1974
1040 2054
1041 1327
1041 1572
1041 1644
1042 1047
1042 1072
1042 1103
1042 1177
1042 1251
1042 1259
1042 1262
1042 1275
1042 1323
1042 1385
1042 1400
1042 1404
1042 1415
1042 1424
1042 1434
1042 1442
1042 1566
1042 1612
1042 1618
1042 1655
1042 1737
1042 1778
1042 1793
1042 1824
1042 1890
1042 2051
1042 2062
1042 2074
1042 2210
1042 2241
1043 1089
1043 1118
1043 1264
1043 1305
1043 1318
1043 1385
1043 1438
1043 1500
1043 1502
1043 1590
1043 1643
1043 1752
1043 1775
1043 1831
1043 1858
1043 1913
1043 1945
1043 2066
1043 2219
1043 2260
1044 1143
1044 1155
1044 1191
1044 1251
1044 1267
1044 1281
1044 1337
1044 1339
1044 1424
1044 1485
1044 1495
1044 1496
1044 1583
1044 1587
1044 1625
1044 1663
1044 1676
1044 1753
1044 1765
1044 1772
1044 1808
1044 1821
1044 1857
1044 1882
1044 1899
1044 1908
1044 1951
1044 2043
1044 2046
1044 2118
1044 2219
1044 2237
1044 2255
1044 2276
1044 2312
1045 1079
1045 1090
1045 1092
1045 1103
1045 1151
1045 1281
1045 1331
1045 1347
1045 1396
1045 1405
1045 1443
1045 1606
1045 1672
1045 1716
1045 1778
1045 1845
1045 2022
1045 2088
1045 2163
1045 2192
1045 2295
1045 2309
1046 1050
1046 1074
1046 1076
1046 1079
1046 1101
1046 1110
1046 1143
1046 1198
1046 1200
1046 1254
1046 1271
1046 1345
1046 1371
1046 1411
1046 1427
1046 1455
1046 1483
1046 1511
1046 1513
1046 1563
1046 1566
1046 1576
1046 1650
1046 1697
1046 1709
1046 1779
1046 1802
1046 1812
1046 1833
1046 1845
1046 1863
1046 1886
1046 1908
1046 1918
1046 1919
1046 1949
1046 1956
1046 2003
1046 2060
1046 2088
1046 2104
1046 2143
1046 2187
1046 2204
1046 2209
1046 2306
1047 1052
1047 1146
1047 1202
1047 1259
1047 1306
1047 1313
1047 1346
1047 1347
1047 1348
1047 1374
1047 1392
1047 1412
1047 1452
1047 1486
1047 1525
1047 1534
1047 1543
1047 1592
1047 1597
1047 1661
1047 1665
1047 1678
1047 1682
1047 1720
1047 1736
1047 1758
1047 1794
1047 1816
1047 1819
1047 1828
1047 1830
1047 1838
1047 1847
1047 1898
1047 1933
1047 1934
1047 1981
1047 2004
1047 2011
1047 2041
1047 2044
1047 2052
1047 2053
1047 2077
1047 2173
1047 2178
1047 2253
1047 2256
1047 2287
1047 2302
1048 1072
1048 1097
1048 1120
1048 1125
1048 1148
1048 1156
1048 1162
1048 1165
1048 1189
1048 1245
1048 1268
1048 1277
1048 1300
1048 1322
1048 1326
1048 1394
1048 1485
1048 1491
1048 1510
1048 1513
1048 1521
1048 1539
1048 1554
1048 1556
1048 1562
1048 1577
1048 1625
1048 1663
1048 1668
1048 1723
1048 1738
1048 1741
1048 1750
1048 1775
1048 1815
1048 1825
1048 1881
1048 1927
1048 1931
1048 1964
1048 1968
1048 1990
1048 2007
1048 2032
1048 2033
1048 2057
1048 2070
1048 2088
1048 2089
1048 2095
1048 2121
1048 2167
1048 2180
1048 2183
1048 2189
1048 2206
1048 2257
1048 2262
1048 2266
1048 2269
1048 2271
1048 2286
1048 2289
1049 1050
1049 1072
1049 1125
1049 1136
1049 1156
1049 1158
1049 1164
1049 1245
1049 1256
1049 1300
1049 1305
1049 1308
1049 1326
1049 1334
1049 1355
1049 1368
1049 1384
1049 1387
1049 1394
1049 1401
1049 1411
1049 1415
1049 1435
1049 1451
1049 1496
1049 1500
1049 1521
1049 1538
1049 1539
1049 1546
1049 1554
1049 1558
1049 1562
1049 1564
1049 1577
1049 1578
1049 1626
1049 1630
1049 1650
1049 1703
1049 1723
1049 1742
1049 1750
1049 1770
1049 1775
1049 1815
1049 1843
1049 1854
1049 1871
1049 1885
1049 1891
1049 1894
1049 1931
1049 1974
1049 2007
1049 2016
1049 2027
1049 2067
1049 2079
1049 2161
1049 2180
1049 2190
1049 2292
1050 1062
1050 1063
1050 1069
1050 1092
1050 1111
1050 1136
1050 1139
1050 1160
1050 1168
1050 1184
1050 1189
1050 1196
1050 1204
1050 1213
1050 1233
1050 1240
1050 1253
1050 1276
1050 1313
1050 1329
1050 1337
1050 1352
1050 1361
1050 1413
1050 1425
1050 1428
1050 1455
1050 1463
1050 1483
1050 1485
1050 1493
1050 1503
1050 1504
1050 1508
1050 1514
1050 1520
1050 1537
1050 1538
1050 1561
1050 1563
1050 1564
1050 1581
1050 1590
1050 1595
1050 1605
1050 1620
1050 1671
1050 1674
1050 1721
1050 1790
1050 1792
1050 1796
1050 1799
1050 1833
1050 1845
1050 1878
1050 1896
1050 1932
1050 1949
1050 1953
1050 1954
1050 1964
1050 1982
1050 1984
1050 1987
1050 1989
1050 2012
1050 2013
1050 2037
1050 2049
1050 2089
1050 2094
1050 2101
1050 2103
1050 2104
1050 2107
1050 2109
1050 2123
1050 2144
1050 2148
1050 2150
1050 2151
1050 2163
1050 2220
1050 2223
1050 2227
1050 2244
1050 2245
1050 2269
1050 2270
1050 2272
1050 2274
1050 2277
1050 2281
1050 2287
1050 2295
1050 2304
1050 2306
1050 2308
1051 1056
1051 1070
1051 1082
1051 1093
1051 1153
1051 1167
1051 1170
1051 1186
1051 1194
1051 1247
1051 1251
1051 1315
1051 1330
1051 1334
1051 1335
1051 1368
1051 1371
1051 1372
1051 1378
1051 1384
1051 1387
1051 1392
1051 1406
1051 1415
1051 1439
1051 1462
1051 1485
1051 1493
1051 1521
1051 1533
1051 1546
1051 1566
1051 1568
1051 1581
1051 1582
1051 1583
1051 1612
1051 1633
1051 1637
1051 1639
1051 1718
1051 1723
1051 1778
1051 1806
1051 1809
1051 1815
1051 1829
1051 1842
1051 1858
1051 1866
1051 1873
1051 1879
1051 1885
1051 1886
1051 1963
1051 1968
1051 1974
1051 1986
1051 1999
1051 2012
1051 2015
1051 2016
1051 2023
1051 2056
1051 2057
1051 2089
1051 2105
1051 2140
1051 2151
1051 2162
1051 2174
1051 2182
1051 2259
1051 2264
1051 2275
1051 2311
1052 1063
1052 1123
1052 1126
1052 1131
1052 1146
1052 1180
1052 1182
1052 1183
1052 1192
1052 1199
1052 1226
1052 1230
1052 1240
1052 1243
1052 1262
1052 1266
1052 1278
1052 1287
1052 1306
1052 1320
1052 1350
1052 1365
1052 1374
1052 1382
1052 1391
1052 1412
1052 1417
1052 1431
1052 1452
1052 1477
1052 1486
1052 1506
1052 1507
1052 1534
1052 1536
1052 1574
1052 1579
1052 1589
1052 1592
1052 1610
1052 1613
1052 1616
1052 1656
1052 1666
1052 1670
1052 1686
1052 1720
1052 1721
1052 1725
1052 1729
1052 1736
1052 1739
1052 1757
1052 1791
1052 1794
1052 1801
1052 1816
1052 1819
1052 1846
1052 1861
1052 1898
1052 1930
1052 1938
1052 1947
1052 1978
1052 1981
1052 2002
1052 2011
1052 2018
1052 2041
1052 2044
1052 2052
1052 2077
1052 2091
1052 2151
1052 2152
1052 2188
1052 2199
1052 2230
1052 2239
1052 2256
1052 2283
1052 2294
1052 2297
1052 2302
1053 1086
1053 1110
1053 1180
1053 1200
1053 1215
1053 1222
1053 1256
1053 1268
1053 1269
1053 1309
1053 1345
1053 1357
1053 1390
1053 1396
1053 1398
1053 1457
1053 1488
1053 1508
1053 1512
1053 1548
1053 1559
1053 1563
1053 1573
1053 1588
1053 1645
1053 1677
1053 1679
1053 1716
1053 1754
1053 1760
1053 1763
1053 1804
1053 1859
1053 1906
1053 1907
1053 1921
1053 1954
1053 1961
1053 1980
1053 2013
1053 2024
1053 2068
1053 2112
1053 2147
1053 2151
1053 2154
1053 2163
1053 2190
1053 2191
1053 2204
1053 2228
1053 2240
1053 2244
1053 2272
1053 2304
1053 2311
1054 1081
1054 1094
1054 1211
1054 1219
1054 1246
1054 1270
1054 1273
1054 1281
1054 1319
1054 1335
1054 1386
1054 1411
1054 1424
1054 1474
1054 1538
1054 1572
1054 1592
1054 1628
1054 1659
1054 1668
1054 1751
1054 1760
1054 1762
1054 1806
1054 1824
1054 1858
1054 1870
1054 1886
1054 1928
1054 1948
1054 1963
1054 1974
1054 2025
1054 2041
1054 2056
1054 2154
1054 2181
1054 2198
1054 2231
1054 2268
1054 2305
1055 1143
1055 1188
1055 1238
1055 1274
1055 1523
1055 1625
1055 1675
1055 1680
1055 1746
1055 1752
1055 1825
1055 1842
1055 1844
1055 1870
1055 1951
1055 2089
1055 2177
1055 2274
1056 1116
1056 1205
1056 1251
1056 1330
1056 1331
1056 1332
1056 1334
1056 1348
1056 1371
1056 1373
1056 1388
1056 1429
1056 1487
1056 1513
1056 1538
1056 1550
1056 1606
1056 1638
1056 1670
1056 1672
1056 1743
1056 1824
1056 1834
1056 1869
1056 1886
1056 1910
1056 1920
1056 1999
1056 2029
1056 2030
1056 2034
1056 2043
1056 2058
1056 2060
1056 2073
1056 2082
1056 2093
1056 2195
1056 2273
1057 1066
1057 1071
1057 1120
1057 1165
1057 1189
1057 1280
1057 1308
1057 1335
1057 1381
1057 1404
1057 1410
1057 1419
1057 1446
1057 1476
1057 1502
1057 1512
1057 1523
1057 1585
1057 1612
1057 1630
1057 1646
1057 1660
1057 1736
1057 1760
1057 1762
1057 1771
1057 1774
1057 1776
1057 1785
1057 1805
1057 1863
1057 1879
1057 1962
1057 1967
1057 1987
1057 2023
1057 2037
1057 2116
1057 2117
1057 2143
1057 2147
1057 2172
1057 2195
1057 2221
1057 2249
1057 2285
1057 2301
1057 2310
1058 1062
1058 1066
1058 1069
1058 1074
1058 1078
1058 1084
1058 1086
1058 1144
1058 1171
1058 1200
1058 1215
1058 1236
1058 1256
1058 1276
1058 1280
1058 1329
1058 1333
1058 1345
1058 1366
1058 1428
1058 1433
1058 1444
1058 1463
1058 1528
1058 1541
1058 1558
1058 1567
1058 1587
1058 1634
1058 1677
1058 1727
1058 1730
1058 1793
1058 1803
1058 1810
1058 1825
1058 1827
1058 1839
1058 1844
1058 1848
1058 1860
1058 1904
1058 1931
1058 1939
1058 1940
1058 1982
1058 2037
1058 2049
1058 2068
1058 2069
1058 2089
1058 2097
1058 2113
1058 2141
1058 2168
1058 2171
1058 2176
1058 2177
1058 2223
1058 2225
1058 2234
1058 2242
1058 2254
1058 2261
1058 2265
1058 2272
1058 2274
1058 2295
1059 1094
1059 1169
1059 1281
1059 1565
1059 1580
1059 1604
1059 1618
1059 1623
1059 1699
1059 1781
1059 2132
1059 2198
1060 1073
1060 1077
1060 1120
1060 1137
1060 1159
1060 1168
1060 1171
1060 1176
1060 1220
1060 1232
1060 1258
1060 1265
1060 1279
1060 1280
1060 1309
1060 1340
1060 1354
1060 1425
1060 1437
1060 1438
1060 1442
1060 1444
1060 1495
1060 1500
1060 1505
1060 1515
1060 1537
1060 1590
1060 1611
1060 1667
1060 1669
1060 1724
1060 1734
1060 1737
1060 1784
1060 1787
1060 1825
1060 1844
1060 1849
1060 1852
1060 1874
1060 1878
1060 1903
1060 1911
1060 1921
1060 1926
1060 1931
1060 1984
1060 2049
1060 2066
1060 2133
1060 2138
1060 2177
1060 2206
1060 2245
1060 2261
1061 1186
1061 1265
1061 1377
1061 1423
1061 1570
1061 1675
1061 1680
1061 1974
1061 1994
1061 2000
1061 2105
1061 2106
1061 2274
1062 1111
1062 1120
1062 1125
1062 1136
1062 1189
1062 1265
1062 1268
1062 1281
1062 1282
1062 1283
1062 1305
1062 1308
1062 1326
1062 1335
1062 1340
1062 1355
1062 1358
1062 1378
1062 1390
1062 1411
1062 1423
1062 1428
1062 1442
1062 1485
1062 1491
1062 1500
1062 1503
1062 1505
1062 1512
1062 1520
1062 1521
1062 1523
1062 1535
1062 1538
1062 1540
1062 1558
1062 1580
1062 1590
1062 1620
1062 1626
1062 1630
1062 1660
1062 1669
1062 1671
1062 1706
1062 1713
1062 1715
1062 1737
1062 1742
1062 1751
1062 1760
1062 1775
1062 1776
1062 1785
1062 1787
1062 1792
1062 1798
1062 1806
1062 1825
1062 1864
1062 1874
1062 1891
1062 1894
1062 1911
1062 1921
1062 1931
1062 1951
1062 1966
1062 1971
1062 1974
1062 1995
1062 2012
1062 2024
1062 2027
1062 2037
1062 2049
1062 2055
1062 2066
1062 2089
1062 2105
1062 2115
1062 2116
1062 2126
1062 2133
1062 2135
1062 2146
1062 2147
1062 2151
1062 2177
1062 2183
1062 2195
1062 2222
1062 2280
1062 2295
1062 2298
1062 2308
1063 1070
1063 1085
1063 1095
1063 1104
1063 1111
1063 1133
1063 1139
1063 1150
1063 1176
1063 1181
1063 1194
1063 1218
1063 1224
1063 1249
1063 1279
1063 1280
1063 1283
1063 1289
1063 1304
1063 1318
1063 1334
1063 1339
1063 1343
1063 1344
1063 1350
1063 1390
1063 1394
1063 1399
1063 1411
1063 1425
1063 1482
1063 1502
1063 1520
1063 1523
1063 1538
1063 1561
1063 1569
1063 1578
1063 1583
1063 1590
1063 1653
1063 1663
1063 1679
1063 1703
1063 1706
1063 1708
1063 1717
1063 1723
1063 1743
1063 1745
1063 1790
1063 1796
1063 1798
1063 1806
1063 1821
1063 1825
1063 1829
1063 1848
1063 1849
1063 1851
1063 1854
1063 1864
1063 1872
1063 1873
1063 1878
1063 1879
1063 1885
1063 1887
1063 1903
1063 1908
1063 1913
1063 1931
1063 1963
1063 2036
1063 2043
1063 2056
1063 2066
1063 2067
1063 2079
1063 2089
1063 2094
1063 2109
1063 2117
1063 2120
1063 2124
1063 2146
1063 2148
1063 2151
1063 2174
1063 2192
1063 2259
1063 2260
1063 2261
1063 2262
1063 2265
1063 2269
1063 2277
1063 2279
1063 2295
1063 2304
1064 1067
1064 1071
1064 1091
1064 1095
1064 1096
1064 1110
1064 1122
1064 1124
1064 1149
1064 1152
1064 1180
1064 1217
1064 1238
1064 1262
1064 1268
1064 1269
1064 1274
1064 1281
1064 1288
1064 1292
1064 1364
1064 1380
1064 1405
1064 1424
1064 1517
1064 1579
1064 1615
1064 1619
1064 1621
1064 1625
1064 1676
1064 1716
1064 1751
1064 1760
1064 1767
1064 1793
1064 1809
1064 1908
1064 1909
1064 1935
1064 1957
1064 1959
1064 1996
1064 2034
1064 2040
1064 2098
1064 2151
1064 2164
1064 2166
1064 2167
1064 2192
1064 2196
1064 2202
1064 2210
1064 2214
1064 2225
1064 2230
1064 2233
1064 2268
1065 1114
1065 1190
1065 1506
1065 1507
1065 1536
1065 1591
1065 1592
1065 1608
1065 1647
1065 1665
1065 1721
1065 1739
1065 1756
1065 1813
1065 1846
1065 1943
1065 1999
1065 2218
1065 2239
1066 1074
1066 1075
1066 1084
1066 1120
1066 1145
1066 1165
1066 1171
1066 1200
1066 1256
1066 1276
1066 1308
1066 1335
1066 1345
1066 1366
1066 1375
1066 1393
1066 1410
1066 1419
1066 1430
1066 1440
1066 1448
1066 1512
1066 1528
1066 1558
1066 1561
1066 1567
1066 1571
1066 1587
1066 1590
1066 1630
1066 1649
1066 1650
1066 1734
1066 1751
1066 1760
1066 1771
1066 1785
1066 1793
1066 1803
1066 1805
1066 1810
1066 1827
1066 1848
1066 1872
1066 1924
1066 1939
1066 1950
1066 1967
1066 1969
1066 1995
1066 2037
1066 2068
1066 2113
1066 2128
1066 2141
1066 2143
1066 2147
1066 2156
1066 2171
1066 2176
1066 2215
1066 2234
1066 2242
1066 2259
1066 2263
1066 2265
1066 2285
1066 2310
1067 1096
1067 1118
1067 1121
1067 1124
1067 1177
1067 1238
1067 1270
1067 1274
1067 1281
1067 1310
1067 1325
1067 1356
1067 1520
1067 1542
1067 1579
1067 1723
1067 1751
1067 1816
1067 1828
1067 1890
1067 1983
1067 2062
1067 2225
1067 2268
1068 1075
1068 1092
1068 1142
1068 1145
1068 1150
1068 1181
1068 1198
1068 1256
1068 1361
1068 1411
1068 1433
1068 1440
1068 1485
1068 1504
1068 1561
1068 1563
1068 1571
1068 1677
1068 1697
1068 1713
1068 1734
1068 1743
1068 1755
1068 1779
1068 1803
1068 1848
1068 1859
1068 1874
1068 1899
1068 1921
1068 1931
1068 1939
1068 1974
1068 1982
1068 1984
1068 1995
1068 2068
1068 2076
1068 2111
1068 2120
1068 2171
1068 2225
1068 2226
1068 2234
1068 2252
1068 2265
1068 2277
1068 2304
1069 1168
1069 1171
1069 1184
1069 1208
1069 1299
1069 1329
1069 1337
1069 1340
1069 1418
1069 1421
1069 1425
1069 1428
1069 1439
1069 1463
1069 1590
1069 1648
1069 1667
1069 1669
1069 1706
1069 1724
1069 1730
1069 1825
1069 1839
1069 1844
1069 1849
1069 1888
1069 1921
1069 1926
1069 1936
1069 1957
1069 1982
1069 2084
1069 2103
1069 2129
1069 2150
1069 2156
1069 2177
1069 2215
1069 2227
1069 2242
1069 2245
1069 2254
1069 2261
1070 1085
1070 1117
1070 1147
1070 1170
1070 1189
1070 1204
1070 1249
1070 1265
1070 1281
1070 1339
1070 1372
1070 1424
1070 1462
1070 1485
1070 1503
1070 1513
1070 1520
1070 1535
1070 1752
1070 1776
1070 1783
1070 1860
1070 1864
1070 1879
1070 1885
1070 1891
1070 1908
1070 1974
1070 1986
1070 2049
1070 2070
1070 2088
1070 2103
1070 2120
1070 2135
1070 2182
1070 2222
1070 2237
1070 2240
1070 2258
1070 2274
1070 2311
1071 1079
1071 1090
1071 1092
1071 1094
1071 1096
1071 1103
1071 1110
1071 1133
1071 1143
1071 1149
1071 1151
1071 1164
1071 1169
1071 1175
1071 1177
1071 1194
1071 1203
1071 1252
1071 1262
1071 1265
1071 1268
1071 1272
1071 1275
1071 1281
1071 1282
1071 1283
1071 1298
1071 1299
1071 1330
1071 1331
1071 1347
1071 1355
1071 1356
1071 1364
1071 1396
1071 1404
1071 1405
1071 1411
1071 1424
1071 1437
1071 1442
1071 1449
1071 1467
1071 1485
1071 1520
1071 1521
1071 1538
1071 1540
1071 1542
1071 1554
1071 1559
1071 1566
1071 1594
1071 1599
1071 1638
1071 1640
1071 1663
1071 1670
1071 1672
1071 1697
1071 1716
1071 1754
1071 1760
1071 1769
1071 1778
1071 1824
1071 1863
1071 1864
1071 1870
1071 1906
1071 1956
1071 1966
1071 2013
1071 2022
1071 2034
1071 2051
1071 2058
1071 2062
1071 2093
1071 2104
1071 2123
1071 2143
1071 2147
1071 2167
1071 2192
1071 2210
1071 2225
1071 2233
1071 2260
1071 2277
1071 2307
1071 2309
1072 1090
1072 1102
1072 1110
1072 1116
1072 1125
1072 1149
1072 1158
1072 1162
1072 1201
1072 1244
1072 1260
1072 1300
1072 1326
1072 1384
1072 1387
1072 1394
1072 1424
1072 1435
1072 1459
1072 1469
1072 1538
1072 1546
1072 1554
1072 1562
1072 1697
1072 1777
1072 1795
1072 1881
1072 2016
1072 2017
1072 2027
1072 2048
1072 2067
1072 2069
1072 2264
1073 1077
1073 1084
1073 1138
1073 1145
1073 1171
1073 1176
1073 1184
1073 1220
1073 1236
1073 1258
1073 1413
1073 1482
1073 1505
1073 1703
1073 1724
1073 1784
1073 1787
1073 1789
1073 1825
1073 1839
1073 1849
1073 1851
1073 1854
1073 2097
1073 2141
1073 2156
1073 2171
1073 2203
1073 2215
1073 2232
1073 2242
1073 2254
1074 1084
1074 1085
1074 1185
1074 1200
1074 1281
1074 1333
1074 1366
1074 1392
1074 1493
1074 1521
1074 1561
1074 1563
1074 1576
1074 1587
1074 1702
1074 1779
1074 1799
1074 1810
1074 1827
1074 1840
1074 1845
1074 1848
1074 1869
1074 1878
1074 1907
1074 1918
1074 1919
1074 1924
1074 1939
1074 1949
1074 1953
1074 1974
1074 1982
1074 1998
1074 2013
1074 2019
1074 2024
1074 2045
1074 2072
1074 2094
1074 2104
1074 2148
1074 2171
1074 2234
1074 2239
1074 2242
1074 2244
1074 2256
1074 2263
1075 1084
1075 1143
1075 1144
1075 1150
1075 1159
1075 1171
1075 1181
1075 1198
1075 1211
1075 1233
1075 1250
1075 1254
1075 1270
1075 1273
1075 1281
1075 1299
1075 1301
1075 1308
1075 1352
1075 1361
1075 1366
1075 1388
1075 1421
1075 1430
1075 1433
1075 1450
1075 1488
1075 1497
1075 1505
1075 1514
1075 1520
1075 1538
1075 1558
1075 1561
1075 1576
1075 1590
1075 1600
1075 1650
1075 1713
1075 1730
1075 1734
1075 1738
1075 1755
1075 1760
1075 1790
1075 1803
1075 1805
1075 1813
1075 1818
1075 1825
1075 1844
1075 1845
1075 1848
1075 1874
1075 1921
1075 1931
1075 1932
1075 1953
1075 1969
1075 1982
1075 1992
1075 2003
1075 2037
1075 2049
1075 2055
1075 2068
1075 2089
1075 2101
1075 2120
1075 2146
1075 2149
1075 2151
1075 2156
1075 2177
1075 2206
1075 2227
1075 2248
1075 2252
1075 2255
1075 2263
1075 2265
1075 2269
1075 2280
1075 2303
1075 2304
1076 1107
1076 1237
1076 1351
1076 2001
1076 2002
1076 2119
1077 1084
1077 1104
1077 1138
1077 1145
1077 1171
1077 1184
1077 1220
1077 1236
1077 1258
1077 1276
1077 1301
1077 1333
1077 1361
1077 1451
1077 1504
1077 1508
1077 1513
1077 1515
1077 1724
1077 1727
1077 1730
1077 1738
1077 1772
1077 1784
1077 1787
1077 1789
1077 1825
1077 1839
1077 1848
1077 1849
1077 1851
1077 1878
1077 1911
1077 1921
1077 1944
1077 1969
1077 1984
1077 2051
1077 2060
1077 2097
1077 2101
1077 2109
1077 2120
1077 2128
1077 2134
1077 2141
1077 2146
1077 2156
1077 2160
1077 2171
1077 2176
1077 2184
1077 2203
1077 2215
1077 2232
1077 2242
1077 2254
1077 2277
1078 1086
1078 1144
1078 1171
1078 1204
1078 1208
1078 1225
1078 1234
1078 1265
1078 1276
1078 1283
1078 1343
1078 1372
1078 1428
1078 1459
1078 1463
1078 1567
1078 1581
1078 1583
1078 1625
1078 1637
1078 1771
1078 1776
1078 1792
1078 1793
1078 1842
1078 1844
1078 1854
1078 2023
1078 2066
1078 2089
1078 2097
1078 2113
1078 2121
1078 2133
1078 2151
1078 2156
1078 2185
1078 2237
1078 2242
1078 2254
1078 2258
1078 2260
1078 2274
1078 2311
1079 1090
1079 1094
1079 1103
1079 1110
1079 1151
1079 1259
1079 1262
1079 1281
1079 1332
1079 1341
1079 1347
1079 1405
1079 1411
1079 1443
1079 1492
1079 1521
1079 1599
1079 1613
1079 1618
1079 1675
1079 1744
1079 1781
1079 1812
1079 1834
1079 1845
1079 1920
1079 1987
1079 1999
1079 2005
1079 2051
1079 2062
1079 2073
1079 2174
1079 2209
1079 2309
1080 1140
1080 1149
1080 1272
1080 1281
1080 1287
1080 1290
1080 1307
1080 1316
1080 1320
1080 1342
1080 1364
1080 1391
1080 1394
1080 1417
1080 1452
1080 1472
1080 1574
1080 1579
1080 1591
1080 1592
1080 1602
1080 1613
1080 1625
1080 1656
1080 1691
1080 1725
1080 1801
1080 1816
1080 1938
1080 1952
1080 2051
1080 2080
1080 2164
1080 2167
1080 2294
1081 1157
1081 1226
1081 1266
1081 1316
1081 1346
1081 1374
1081 1386
1081 1452
1081 1453
1081 1477
1081 1485
1081 1534
1081 1651
1081 1729
1081 1820
1081 1889
1081 1902
1081 1978
1081 2011
1081 2020
1081 2044
1081 2077
1081 2091
1081 2137
1081 2199
1081 2302
1082 1091
1082 1097
1082 1167
1082 1186
1082 1200
1082 1214
1082 1254
1082 1289
1082 1304
1082 1308
1082 1354
1082 1364
1082 1371
1082 1378
1082 1384
1082 1392
1082 1415
1082 1432
1082 1448
1082 1492
1082 1533
1082 1538
1082 1566
1082 1568
1082 1586
1082 1612
1082 1633
1082 1639
1082 1648
1082 1684
1082 1693
1082 1718
1082 1723
1082 1743
1082 1744
1082 1778
1082 1798
1082 1815
1082 1825
1082 1829
1082 1834
1082 1854
1082 1864
1082 1873
1082 1885
1082 1893
1082 1951
1082 1963
1082 1986
1082 1999
1082 2008
1082 2056
1082 2057
1082 2066
1082 2110
1082 2111
1082 2116
1082 2140
1082 2162
1082 2197
1082 2259
1082 2275
1082 2295
1082 2304
1083 1114
1083 1157
1083 1179
1083 1386
1083 1417
1083 1534
1083 1555
1083 1604
1083 1613
1083 1794
1083 1797
1083 1892
1083 2004
1083 2011
1083 2020
1083 2044
1083 2080
1083 2195
1084 1138
1084 1145
1084 1159
1084 1171
1084 1181
1084 1236
1084 1281
1084 1301
1084 1327
1084 1329
1084 1333
1084 1340
1084 1345
1084 1361
1084 1433
1084 1440
1084 1450
1084 1488
1084 1503
1084 1576
1084 1697
1084 1724
1084 1727
1084 1734
1084 1755
1084 1774
1084 1779
1084 1786
1084 1793
1084 1825
1084 1848
1084 1849
1084 1866
1084 1874
1084 1925
1084 1931
1084 1936
1084 1969
1084 1974
1084 1998
1084 2068
1084 2072
1084 2076
1084 2089
1084 2113
1084 2120
1084 2128
1084 2146
1084 2215
1084 2234
1084 2242
1084 2248
1084 2252
1084 2254
1084 2263
1084 2265
1085 1091
1085 1092
1085 1120
1085 1167
1085 1177
1085 1189
1085 1222
1085 1252
1085 1253
1085 1281
1085 1282
1085 1308
1085 1315
1085 1341
1085 1355
1085 1392
1085 1466
1085 1485
1085 1513
1085 1527
1085 1550
1085 1563
1085 1594
1085 1595
1085 1633
1085 1637
1085 1639
1085 1674
1085 1685
1085 1702
1085 1723
1085 1739
1085 1741
1085 1753
1085 1761
1085 1783
1085 1806
1085 1829
1085 1842
1085 1858
1085 1868
1085 1872
1085 1906
1085 1918
1085 1949
1085 1963
1085 1999
1085 2005
1085 2013
1085 2022
1085 2035
1085 2043
1085 2065
1085 2071
1085 2074
1085 2088
1085 2094
1085 2103
1085 2108
1085 2115
1085 2120
1085 2140
1085 2143
1085 2213
1085 2240
1085 2259
1085 2277
1085 2304
1085 2306
1086 1095
1086 1144
1086 1159
1086 1161
1086 1196
1086 1215
1086 1241
1086 1268
1086 1270
1086 1308
1086 1358
1086 1401
1086 1417
1086 1421
1086 1424
1086 1450
1086 1482
1086 1485
1086 1488
1086 1499
1086 1503
1086 1508
1086 1547
1086 1572
1086 1573
1086 1578
1086 1588
1086 1590
1086 1615
1086 1625
1086 1650
1086 1669
1086 1677
1086 1689
1086 1703
1086 1708
1086 1715
1086 1756
1086 1771
1086 1782
1086 1786
1086 1825
1086 1836
1086 1844
1086 1849
1086 1866
1086 1874
1086 1896
1086 1908
1086 1915
1086 1921
1086 1940
1086 1954
1086 1961
1086 2023
1086 2030
1086 2042
1086 2049
1086 2079
1086 2089
1086 2151
1086 2156
1086 2160
1086 2167
1086 2177
1086 2206
1086 2220
1086 2223
1086 2227
1086 2237
1086 2258
1086 2261
1086 2269
1086 2274
1086 2277
1086 2311
1087 1135
1087 1178
1087 1252
1087 1354
1087 1378
1087 1469
1087 1529
1087 1665
1087 1759
1087 1854
1087 1974
1087 1999
1087 2093
1087 2110
1087 2232
1087 2304
1088 1107
1088 1241
1088 1457
1088 1490
1088 1492
1088 1525
1088 1665
1088 1771
1088 1816
1088 2002
1088 2038
1088 2107
1088 2239
1089 1148
1089 1245
1089 1264
1089 1352
1089 1354
1089 1390
1089 1401
1089 1421
1089 1425
1089 1438
1089 1465
1089 1482
1089 1499
1089 1502
1089 1510
1089 1539
1089 1549
1089 1609
1089 1625
1089 1634
1089 1643
1089 1677
1089 1687
1089 1703
1089 1740
1089 1775
1089 1831
1089 1859
1089 1885
1089 1908
1089 1927
1089 1961
1089 1968
1089 2023
1089 2025
1089 2042
1089 2127
1089 2167
1089 2170
1089 2177
1089 2189
1089 2222
1089 2258
1089 2260
1089 2261
1089 2262
1089 2270
1089 2274
1089 2288
1090 1094
1090 1096
1090 1103
1090 1151
1090 1174
1090 1193
1090 1203
1090 1275
1090 1281
1090 1331
1090 1347
1090 1396
1090 1405
1090 1424
1090 1443
1090 1467
1090 1469
1090 1491
1090 1492
1090 1503
1090 1566
1090 1580
1090 1685
1090 1693
1090 1716
1090 1769
1090 1778
1090 1781
1090 1873
1090 1950
1090 2022
1090 2062
1090 2163
1090 2174
1090 2192
1090 2198
1090 2212
1090 2214
1090 2295
1090 2307
1090 2309
1091 1102
1091 1133
1091 1142
1091 1167
1091 1214
1091 1222
1091 1253
1091 1271
1091 1281
1091 1282
1091 1297
1091 1308
1091 1325
1091 1336
1091 1341
1091 1355
1091 1364
1091 1368
1091 1406
1091 1411
1091 1430
1091 1435
1091 1469
1091 1485
1091 1513
1091 1550
1091 1598
1091 1640
1091 1657
1091 1693
1091 1702
1091 1723
1091 1732
1091 1741
1091 1744
1091 1796
1091 1806
1091 1829
1091 1843
1091 1853
1091 1858
1091 1872
1091 1880
1091 1913
1091 1915
1091 1927
1091 1963
1091 1964
1091 2005
1091 2022
1091 2025
1091 2070
1091 2081
1091 2085
1091 2103
1091 2108
1091 2115
1091 2124
1091 2163
1091 2174
1091 2175
1091 2181
1091 2197
1091 2213
1091 2236
1091 2271
1091 2275
1091 2292
1091 2295
1091 2303
1092 1095
1092 1101
1092 1130
1092 1133
1092 1136
1092 1139
1092 1143
1092 1169
1092 1177
1092 1180
1092 1189
1092 1213
1092 1238
1092 1252
1092 1254
1092 1262
1092 1268
1092 1281
1092 1283
1092 1297
1092 1348
1092 1358
1092 1359
1092 1362
1092 1400
1092 1411
1092 1434
1092 1437
1092 1455
1092 1466
1092 1483
1092 1485
1092 1489
1092 1511
1092 1513
1092 1559
1092 1563
1092 1566
1092 1576
1092 1579
1092 1590
1092 1615
1092 1645
1092 1674
1092 1679
1092 1702
1092 1716
1092 1736
1092 1741
1092 1754
1092 1769
1092 1782
1092 1792
1092 1804
1092 1809
1092 1852
1092 1859
1092 1869
1092 1873
1092 1896
1092 1909
1092 1920
1092 1949
1092 1957
1092 1963
1092 2002
1092 2013
1092 2019
1092 2052
1092 2062
1092 2073
1092 2086
1092 2104
1092 2151
1092 2164
1092 2167
1092 2192
1092 2202
1092 2214
1092 2233
1092 2240
1092 2269
1092 2284
1092 2306
1092 2312
1093 1102
1093 1110
1093 1244
1093 1274
1093 1305
1093 1318
1093 1326
1093 1368
1093 1384
1093 1394
1093 1500
1093 1502
1093 1538
1093 1554
1093 1577
1093 1583
1093 1626
1093 1706
1093 1738
1093 1775
1093 1795
1093 1857
1093 1866
1093 1871
1093 1873
1093 1879
1093 1945
1093 2016
1093 2025
1093 2058
1093 2067
1093 2069
1093 2084
1093 2109
1093 2167
1093 2225
1093 2260
1094 1103
1094 1108
1094 1110
1094 1125
1094 1174
1094 1177
1094 1246
1094 1251
1094 1252
1094 1254
1094 1259
1094 1268
1094 1275
1094 1296
1094 1325
1094 1332
1094 1341
1094 1347
1094 1348
1094 1372
1094 1373
1094 1377
1094 1399
1094 1400
1094 1411
1094 1424
1094 1427
1094 1435
1094 1443
1094 1449
1094 1469
1094 1471
1094 1485
1094 1491
1094 1492
1094 1511
1094 1513
1094 1520
1094 1521
1094 1570
1094 1580
1094 1612
1094 1626
1094 1663
1094 1680
1094 1685
1094 1699
1094 1703
1094 1760
1094 1769
1094 1795
1094 1804
1094 1821
1094 1828
1094 1863
1094 1873
1094 1884
1094 1886
1094 1890
1094 1894
1094 1963
1094 1971
1094 1977
1094 1988
1094 1999
1094 2051
1094 2062
1094 2073
1094 2082
1094 2104
1094 2132
1094 2143
1094 2183
1094 2198
1094 2212
1094 2213
1094 2232
1094 2306
1094 2307
1095 1122
1095 1124
1095 1149
1095 1188
1095 1217
1095 1246
1095 1268
1095 1274
1095 1280
1095 1288
1095 1292
1095 1297
1095 1299
1095 1329
1095 1343
1095 1348
1095 1358
1095 1364
1095 1391
1095 1400
1095 1409
1095 1417
1095 1485
1095 1517
1095 1556
1095 1557
1095 1573
1095 1615
1095 1619
1095 1621
1095 1625
1095 1676
1095 1697
1095 1708
1095 1716
1095 1725
1095 1746
1095 1751
1095 1771
1095 1793
1095 1809
1095 1836
1095 1848
1095 1849
1095 1870
1095 1874
1095 1880
1095 1908
1095 1913
1095 1957
1095 1963
1095 1974
1095 1996
1095 2023
1095 2027
1095 2047
1095 2089
1095 2095
1095 2130
1095 2151
1095 2156
1095 2164
1095 2167
1095 2193
1095 2206
1095 2210
1095 2225
1095 2236
1095 2237
1095 2240
1095 2268
1095 2289
1096 1143
1096 1149
1096 1177
1096 1193
1096 1246
1096 1262
1096 1274
1096 1281
1096 1310
1096 1332
1096 1347
1096 1364
1096 1392
1096 1396
1096 1411
1096 1424
1096 1485
1096 1558
1096 1592
1096 1603
1096 1672
1096 1723
1096 1751
1096 1767
1096 1809
1096 1816
1096 1828
1096 1880
1096 1886
1096 2027
1096 2082
1096 2083
1096 2166
1096 2210
1096 2225
1096 2271
1096 2289
1096 2295
1097 1186
1097 1415
1097 1520
1097 1546
1097 1568
1097 1586
1097 1856
1097 1885
1097 2015
1097 2057
1097 2162
1097 2190
1098 1117
1098 1170
1098 1274
1098 1458
1098 1518
1098 1573
1098 1625
1098 1785
1098 1857
1098 2049
1098 2066
1098 2103
1098 2261
1099 1126
1099 1141
1099 1154
1099 1157
1099 1183
1099 1197
1099 1226
1099 1237
1099 1293
1099 1306
1099 1374
1099 1376
1099 1395
1099 1414
1099 1436
1099 1452
1099 1453
1099 1522
1099 1536
1099 1589
1099 1593
1099 1604
1099 1666
1099 1720
1099 1721
1099 1731
1099 1736
1099 1756
1099 1790
1099 1898
1099 2065
1099 2120
1099 2152
1099 2156
1099 2188
1099 2256
1099 2283
1099 2287
1100 1123
1100 1178
1100 1183
1100 1199
1100 1231
1100 1243
1100 1286
1100 1370
1100 1376
1100 1395
1100 1405
1100 1436
1100 1445
1100 1476
1100 1527
1100 1543
1100 1555
1100 1582
1100 1678
1100 1682
1100 1710
1100 1739
1100 1830
1100 1933
1100 1934
1100 1999
1100 2004
1100 2044
1100 2142
1100 2230
1101 1251
1101 1254
1101 1281
1101 1330
1101 1343
1101 1354
1101 1371
1101 1412
1101 1424
1101 1427
1101 1437
1101 1469
1101 1511
1101 1525
1101 1550
1101 1566
1101 1576
1101 1598
1101 1638
1101 1650
1101 1672
1101 1674
1101 1693
1101 1709
1101 1802
1101 1817
1101 1824
1101 1830
1101 1834
1101 1852
1101 1869
1101 1883
1101 1949
1101 1956
1101 1999
1101 2051
1101 2055
1101 2059
1101 2073
1101 2082
1101 2093
1101 2143
1101 2195
1101 2295
1102 1103
1102 1122
1102 1125
1102 1143
1102 1156
1102 1188
1102 1214
1102 1233
1102 1244
1102 1260
1102 1281
1102 1293
1102 1297
1102 1308
1102 1315
1102 1325
1102 1326
1102 1334
1102 1344
1102 1352
1102 1355
1102 1364
1102 1384
1102 1387
1102 1394
1102 1399
1102 1404
1102 1405
1102 1406
1102 1424
1102 1469
1102 1485
1102 1491
1102 1538
1102 1544
1102 1546
1102 1554
1102 1565
1102 1580
1102 1595
1102 1633
1102 1657
1102 1693
1102 1741
1102 1760
1102 1777
1102 1790
1102 1795
1102 1796
1102 1858
1102 1873
1102 1893
1102 1913
1102 1971
1102 2016
1102 2027
1102 2048
1102 2058
1102 2067
1102 2069
1102 2130
1102 2144
1102 2163
1102 2167
1102 2175
1102 2197
1102 2203
1102 2225
1102 2264
1102 2268
1102 2271
1102 2284
1102 2289
1102 2295
1102 2307
1103 1130
1103 1133
1103 1139
1103 1143
1103 1144
1103 1151
1103 1177
1103 1200
1103 1212
1103 1251
1103 1252
1103 1259
1103 1271
1103 1275
1103 1281
1103 1298
1103 1308
1103 1321
1103 1323
1103 1330
1103 1341
1103 1347
1103 1348
1103 1355
1103 1371
1103 1377
1103 1392
1103 1396
1103 1405
1103 1424
1103 1429
1103 1434
1103 1437
1103 1443
1103 1485
1103 1487
1103 1489
1103 1491
1103 1492
1103 1496
1103 1511
1103 1531
1103 1542
1103 1550
1103 1563
1103 1565
1103 1566
1103 1570
1103 1599
1103 1605
1103 1625
1103 1638
1103 1672
1103 1679
1103 1685
1103 1699
1103 1716
1103 1764
1103 1769
1103 1780
1103 1781
1103 1824
1103 1828
1103 1873
1103 1890
1103 1900
1103 1907
1103 1928
1103 1949
1103 1963
1103 1974
1103 1988
1103 1999
1103 2003
1103 2034
1103 2062
1103 2072
1103 2073
1103 2078
1103 2082
1103 2093
1103 2123
1103 2132
1103 2140
1103 2143
1103 2163
1103 2187
1103 2198
1103 2202
1103 2210
1103 2246
1103 2295
1103 2296
1103 2304
1103 2307
1103 2309
1104 1147
1104 1168
1104 1171
1104 1249
1104 1265
1104 1274
1104 1292
1104 1299
1104 1318
1104 1332
1104 1337
1104 1364
1104 1375
1104 1416
1104 1425
1104 1459
1104 1500
1104 1520
1104 1535
1104 1557
1104 1583
1104 1590
1104 1637
1104 1667
1104 1697
1104 1728
1104 1745
1104 1825
1104 1844
1104 1849
1104 1860
1104 1879
1104 1908
1104 1919
1104 1921
1104 1944
1104 2046
1104 2060
1104 2066
1104 2097
1104 2151
1104 2159
1104 2171
1104 2245
1104 2252
1104 2260
1104 2261
1104 2274
1104 2306
1105 1125
1105 1128
1105 1221
1105 1318
1105 1400
1105 1444
1105 1451
1105 1500
1105 1535
1105 1578
1105 1624
1105 1630
1105 1634
1105 1658
1105 1761
1105 1774
1105 1784
1105 1799
1105 1891
1105 1903
1105 1911
1105 1926
1105 1974
1105 1984
1105 1992
1105 2012
1105 2081
1105 2138
1105 2235
1105 2236
1105 2303
1106 1236
1106 1549
1106 1587
1106 1634
1106 1787
1106 1831
1106 1931
1106 1984
1106 2171
1106 2288
1107 1114
1107 1141
1107 1183
1107 1226
1107 1230
1107 1243
1107 1257
1107 1266
1107 1293
1107 1351
1107 1365
1107 1374
1107 1382
1107 1402
1107 1414
1107 1452
1107 1477
1107 1525
1107 1527
1107 1534
1107 1543
1107 1585
1107 1589
1107 1592
1107 1610
1107 1684
1107 1711
1107 1720
1107 1721
1107 1731
1107 1736
1107 1756
1107 1794
1107 1801
1107 1820
1107 1830
1107 1847
1107 1855
1107 1861
1107 1898
1107 1947
1107 1981
1107 2002
1107 2028
1107 2044
1107 2052
1107 2053
1107 2077
1107 2099
1107 2107
1107 2119
1107 2137
1107 2142
1107 2195
1107 2230
1107 2239
1107 2294
1107 2297
1108 1205
1108 1281
1108 1485
1108 1599
1108 1719
1108 1741
1108 1896
1108 1974
1108 1977
1108 2140
1108 2143
1108 2251
1109 1179
1109 1202
1109 1350
1109 1374
1109 1376
1109 1381
1109 1412
1109 1506
1109 1551
1109 1599
1109 1604
1109 1651
1109 1686
1109 1736
1109 1756
1109 1862
1109 1905
1109 1930
1109 1943
1109 1970
1109 2004
1109 2009
1109 2044
1109 2304
1110 1125
1110 1133
1110 1139
1110 1177
1110 1203
1110 1212
1110 1241
1110 1253
1110 1262
1110 1268
1110 1271
1110 1283
1110 1299
1110 1326
1110 1333
1110 1335
1110 1348
1110 1371
1110 1388
1110 1392
1110 1411
1110 1424
1110 1437
1110 1443
1110 1457
1110 1458
1110 1466
1110 1485
1110 1487
1110 1489
1110 1491
1110 1508
1110 1513
1110 1514
1110 1521
1110 1538
1110 1540
1110 1542
1110 1584
1110 1588
1110 1606
1110 1633
1110 1638
1110 1645
1110 1646
1110 1670
1110 1676
1110 1679
1110 1702
1110 1709
1110 1713
1110 1769
1110 1778
1110 1780
1110 1802
1110 1804
1110 1812
1110 1817
1110 1834
1110 1845
1110 1852
1110 1863
1110 1906
1110 1907
1110 1920
1110 1956
1110 1963
1110 1966
1110 1988
1110 1995
1110 2003
1110 2034
1110 2045
1110 2055
1110 2058
1110 2059
1110 2060
1110 2062
1110 2068
1110 2072
1110 2073
1110 2074
1110 2075
1110 2079
1110 2104
1110 2117
1110 2167
1110 2187
1110 2191
1110 2195
1110 2202
1110 2209
1110 2214
1110 2272
1110 2277
1110 2296
1110 2305
1110 2310
1110 2312
1111 1118
1111 1120
1111 1168
1111 1176
1111 1184
1111 1188
1111 1208
1111 1220
1111 1265
1111 1279
1111 1280
1111 1337
1111 1361
1111 1415
1111 1416
1111 1444
1111 1502
1111 1533
1111 1561
1111 1573
1111 1581
1111 1590
1111 1643
1111 1669
1111 1671
1111 1679
1111 1708
1111 1715
1111 1746
1111 1755
1111 1792
1111 1798
1111 1825
1111 1831
1111 1837
1111 1844
1111 1848
1111 1849
1111 1874
1111 1878
1111 1888
1111 1903
1111 1908
1111 1911
1111 1921
1111 1931
1111 1951
1111 1982
1111 1984
1111 2023
1111 2046
1111 2049
1111 2104
1111 2125
1111 2148
1111 2151
1111 2156
1111 2160
1111 2203
1111 2206
1111 2226
1111 2242
1111 2245
1111 2252
1111 2260
1111 2261
1111 2265
1111 2274
1112 1188
1113 1193
1113 1238
1113 1285
1113 1321
1113 1362
1113 1400
1113 1501
1113 1680
1113 1683
1113 1809
1113 1821
1113 1870
1113 2106
1113 2145
1113 2212
1114 1157
1114 1205
1114 1248
1114 1290
1114 1306
1114 1374
1114 1477
1114 1509
1114 1543
1114 1591
1114 1647
1114 1661
1114 1678
1114 1705
1114 1720
1114 1820
1114 1828
1114 1846
1114 1847
1114 1875
1114 1892
1114 1898
1114 1905
1114 1930
1114 1943
1114 1952
1114 2009
1114 2011
1114 2020
1114 2044
1114 2287
1115 1140
1115 1244
1115 1364
1115 1406
1115 1467
1115 1474
1115 1538
1115 1560
1115 1580
1115 1598
1115 1659
1115 1697
1115 1799
1115 1873
1115 1890
1115 1948
1115 1964
1115 2132
1115 2145
1115 2175
1115 2268
1115 2289
1115 2307
1116 1181
1116 1355
1116 1365
1116 1393
1116 1471
1116 1475
1116 1514
1116 1521
1116 1560
1116 1571
1116 1575
1116 1587
1116 1598
1116 1600
1116 1606
1116 1650
1116 1684
1116 1713
1116 1803
1116 1835
1116 1853
1116 1854
1116 1873
1116 1899
1116 1958
1116 1974
1116 1979
1116 2022
1116 2046
1116 2055
1116 2067
1116 2069
1116 2071
1116 2192
1116 2225
1116 2231
1117 1150
1117 1156
1117 1164
1117 1168
1117 1170
1117 1181
1117 1215
1117 1280
1117 1337
1117 1339
1117 1351
1117 1354
1117 1372
1117 1393
1117 1401
1117 1415
1117 1425
1117 1448
1117 1462
1117 1482
1117 1485
1117 1503
1117 1518
1117 1535
1117 1573
1117 1590
1117 1645
1117 1648
1117 1667
1117 1669
1117 1687
1117 1703
1117 1738
1117 1785
1117 1845
1117 1849
1117 1853
1117 1857
1117 1860
1117 1885
1117 1895
1117 1908
1117 1951
1117 1976
1117 2015
1117 2046
1117 2066
1117 2089
1117 2100
1117 2113
1117 2129
1117 2135
1117 2180
1117 2185
1117 2187
1117 2189
1117 2240
1117 2261
1117 2270
1117 2274
1117 2296
1117 2298
1118 1121
1118 1166
1118 1218
1118 1234
1118 1281
1118 1299
1118 1315
1118 1329
1118 1343
1118 1411
1118 1443
1118 1459
1118 1467
1118 1520
1118 1546
1118 1554
1118 1739
1118 1751
1118 1787
1118 1839
1118 1858
1118 1907
1118 1908
1118 1911
1118 1928
1118 1931
1118 2105
1118 2120
1118 2174
1118 2186
1118 2221
1118 2237
1118 2255
1118 2258
1118 2274
1120 1133
1120 1161
1120 1176
1120 1205
1120 1221
1120 1222
1120 1253
1120 1270
1120 1283
1120 1308
1120 1335
1120 1401
1120 1410
1120 1419
1120 1439
1120 1451
1120 1496
1120 1503
1120 1512
1120 1520
1120 1523
1120 1530
1120 1537
1120 1539
1120 1558
1120 1579
1120 1612
1120 1630
1120 1646
1120 1650
1120 1660
1120 1663
1120 1676
1120 1700
1120 1723
1120 1736
1120 1745
1120 1751
1120 1760
1120 1771
1120 1774
1120 1776
1120 1782
1120 1785
1120 1799
1120 1804
1120 1805
1120 1863
1120 1879
1120 1885
1120 1891
1120 1903
1120 1931
1120 1967
1120 1974
1120 1975
1120 1987
1120 1995
1120 2014
1120 2015
1120 2031
1120 2037
1120 2049
1120 2054
1120 2057
1120 2073
1120 2116
1120 2117
1120 2146
1120 2147
1120 2161
1120 2190
1120 2195
1120 2280
1120 2285
1120 2310
1121 1124
1121 1125
1121 1156
1121 1188
1121 1268
1121 1305
1121 1324
1121 1411
1121 1521
1121 1540
1121 1546
1121 1584
1121 1628
1121 1775
1121 1870
1121 1909
1121 2000
1121 2089
1121 2125
1121 2183
1121 2221
1121 2249
1122 1140
1122 1149
1122 1160
1122 1238
1122 1281
1122 1310
1122 1320
1122 1364
1122 1377
1122 1380
1122 1387
1122 1391
1122 1394
1122 1400
1122 1485
1122 1538
1122 1556
1122 1615
1122 1620
1122 1621
1122 1664
1122 1793
1122 1809
1122 1870
1122 1873
1122 2027
1122 2040
1122 2098
1122 2164
1122 2166
1122 2174
1122 2225
1122 2252
1122 2289
1122 2298
1123 1126
1123 1146
1123 1154
1123 1183
1123 1199
1123 1286
1123 1295
1123 1306
1123 1354
1123 1370
1123 1374
1123 1376
1123 1443
1123 1445
1123 1487
1123 1589
1123 1616
1123 1648
1123 1684
1123 1696
1123 1720
1123 1721
1123 1757
1123 1798
1123 1819
1123 1832
1123 1846
1123 1898
1123 1905
1123 1918
1123 1972
1123 1981
1123 2001
1123 2044
1123 2199
1123 2239
1123 2287
1124 1219
1124 1238
1124 1265
1124 1274
1124 1283
1124 1288
1124 1308
1124 1310
1124 1329
1124 1377
1124 1409
1124 1520
1124 1583
1124 1619
1124 1676
1124 1723
1124 1776
1124 1793
1124 1814
1124 1835
1124 1866
1124 1870
1124 1957
1124 1965
1124 1983
1124 2089
1124 2125
1124 2151
1124 2167
1124 2214
1124 2225
1124 2252
1124 2268
1125 1137
1125 1156
1125 1158
1125 1174
1125 1244
1125 1260
1125 1268
1125 1296
1125 1299
1125 1305
1125 1326
1125 1334
1125 1344
1125 1387
1125 1394
1125 1400
1125 1411
1125 1415
1125 1424
1125 1435
1125 1443
1125 1451
1125 1460
1125 1482
1125 1491
1125 1500
1125 1512
1125 1513
1125 1520
1125 1521
1125 1540
1125 1546
1125 1554
1125 1580
1125 1626
1125 1640
1125 1713
1125 1760
1125 1777
1125 1806
1125 1809
1125 1815
1125 1863
1125 1891
1125 1894
1125 1896
1125 1909
1125 2008
1125 2087
1125 2118
1125 2132
1125 2159
1125 2183
1125 2264
1125 2271
1125 2307
1126 1239
1126 1240
1126 1243
1126 1286
1126 1287
1126 1293
1126 1306
1126 1313
1126 1350
1126 1370
1126 1374
1126 1445
1126 1452
1126 1507
1126 1509
1126 1527
1126 1555
1126 1589
1126 1592
1126 1608
1126 1720
1126 1721
1126 1729
1126 1756
1126 1819
1126 1846
1126 1865
1126 1875
1126 1883
1126 1898
1126 1934
1126 1978
1126 2001
1126 2026
1126 2044
1126 2052
1126 2077
1126 2199
1126 2256
1126 2278
1126 2283
1126 2287
1126 2302
1127 1128
1127 1225
1127 1256
1127 1267
1127 1279
1127 1308
1127 1495
1127 1539
1127 1554
1127 1700
1127 1724
1127 1812
1127 1815
1127 1903
1127 2068
1127 2204
1128 1137
1128 1176
1128 1245
1128 1268
1128 1279
1128 1308
1128 1400
1128 1401
1128 1444
1128 1535
1128 1598
1128 1611
1128 1624
1128 1634
1128 1703
1128 1770
1128 1784
1128 1799
1128 1836
1128 1891
1128 1903
1128 1911
1128 1926
1128 1982
1128 2067
1128 2081
1128 2138
1128 2235
1128 2236
1128 2277
1129 1227
1129 1309
1129 1375
1129 1428
1129 1437
1129 1504
1129 1508
1129 1513
1129 1755
1129 1763
1129 1852
1129 1977
1129 2076
1129 2147
1129 2149
1129 2156
1129 2190
1129 2232
1129 2244
1129 2277
1129 2304
1130 1133
1130 1145
1130 1156
1130 1168
1130 1197
1130 1203
1130 1237
1130 1241
1130 1253
1130 1254
1130 1281
1130 1323
1130 1371
1130 1388
1130 1392
1130 1429
1130 1434
1130 1448
1130 1469
1130 1563
1130 1606
1130 1674
1130 1690
1130 1739
1130 1847
1130 1893
1130 1896
1130 1911
1130 1963
1130 2007
1130 2013
1130 2045
1130 2065
1130 2093
1130 2111
1130 2120
1130 2123
1130 2163
1130 2295
1131 1146
1131 1195
1131 1239
1131 1286
1131 1374
1131 1388
1131 1468
1131 1470
1131 1477
1131 1534
1131 1543
1131 1721
1131 1819
1131 1873
1131 1898
1131 1947
1131 2002
1131 2029
1131 2044
1131 2158
1131 2178
1131 2192
1131 2273
1132 1186
1132 1471
1132 1535
1132 1700
1132 1745
1132 1752
1132 1762
1132 1962
1132 2036
1132 2252
1132 2292
1133 1139
1133 1150
1133 1160
1133 1164
1133 1194
1133 1203
1133 1214
1133 1222
1133 1235
1133 1241
1133 1243
1133 1252
1133 1253
1133 1259
1133 1262
1133 1271
1133 1281
1133 1304
1133 1308
1133 1344
1133 1347
1133 1348
1133 1371
1133 1378
1133 1388
1133 1392
1133 1398
1133 1406
1133 1420
1133 1424
1133 1429
1133 1434
1133 1435
1133 1457
1133 1458
1133 1466
1133 1482
1133 1487
1133 1492
1133 1513
1133 1522
1133 1550
1133 1561
1133 1566
1133 1569
1133 1576
1133 1586
1133 1638
1133 1674
1133 1676
1133 1685
1133 1690
1133 1693
1133 1703
1133 1732
1133 1743
1133 1744
1133 1763
1133 1769
1133 1771
1133 1780
1133 1781
1133 1796
1133 1802
1133 1822
1133 1829
1133 1834
1133 1849
1133 1851
1133 1852
1133 1868
1133 1869
1133 1872
1133 1883
1133 1895
1133 1907
1133 1910
1133 1919
1133 1920
1133 1963
1133 1966
1133 1995
1133 2003
1133 2019
1133 2021
1133 2030
1133 2034
1133 2056
1133 2060
1133 2062
1133 2065
1133 2073
1133 2074
1133 2097
1133 2115
1133 2123
1133 2140
1133 2142
1133 2143
1133 2144
1133 2147
1133 2154
1133 2178
1133 2191
1133 2195
1133 2240
1133 2246
1133 2259
1133 2265
1133 2272
1133 2284
1133 2295
1133 2304
1133 2309
1134 1183
1134 1194
1134 1263
1134 1306
1134 1498
1134 1501
1134 1592
1134 1608
1134 1613
1134 1625
1134 1791
1134 1828
1134 1873
1134 1937
1134 2044
1134 2205
1134 2209
1135 1236
1135 1308
1135 1360
1135 1529
1135 1748
1135 1774
1135 1831
1135 1866
1135 1925
1135 1968
1135 2017
1135 2032
1135 2054
1135 2269
1135 2290
1136 1160
1136 1161
1136 1164
1136 1198
1136 1232
1136 1233
1136 1253
1136 1256
1136 1308
1136 1327
1136 1352
1136 1368
1136 1375
1136 1413
1136 1423
1136 1455
1136 1483
1136 1496
1136 1508
1136 1537
1136 1558
1136 1563
1136 1650
1136 1671
1136 1674
1136 1770
1136 1790
1136 1792
1136 1818
1136 1828
1136 1875
1136 1896
1136 1915
1136 1932
1136 1953
1136 1954
1136 1982
1136 1984
1136 1992
1136 2023
1136 2030
1136 2037
1136 2101
1136 2104
1136 2135
1136 2149
1136 2151
1136 2166
1136 2180
1136 2223
1136 2227
1136 2269
1136 2277
1136 2295
1136 2304
1136 2308
1137 1159
1137 1232
1137 1233
1137 1273
1137 1308
1137 1340
1137 1416
1137 1433
1137 1438
1137 1442
1137 1496
1137 1505
1137 1539
1137 1611
1137 1634
1137 1650
1137 1734
1137 1748
1137 1755
1137 1787
1137 1803
1137 1813
1137 1825
1137 1839
1137 1844
1137 1848
1137 1852
1137 1874
1137 1921
1137 1931
1137 1935
1137 1982
1137 1984
1137 1992
1137 2043
1137 2120
1137 2206
1137 2219
1137 2232
1137 2258
1137 2261
1137 2265
1138 1145
1138 1171
1138 1184
1138 1225
1138 1236
1138 1258
1138 1276
1138 1329
1138 1337
1138 1340
1138 1497
1138 1567
1138 1590
1138 1669
1138 1709
1138 1724
1138 1727
1138 1765
1138 1808
1138 1825
1138 1839
1138 1844
1138 1845
1138 1848
1138 1849
1138 1857
1138 1866
1138 1878
1138 1931
1138 1969
1138 2046
1138 2066
1138 2076
1138 2089
1138 2097
1138 2103
1138 2113
1138 2128
1138 2133
1138 2168
1138 2177
1138 2203
1138 2215
1138 2242
1138 2254
1138 2265
1139 1150
1139 1194
1139 1205
1139 1253
1139 1273
1139 1385
1139 1388
1139 1402
1139 1433
1139 1457
1139 1466
1139 1482
1139 1483
1139 1499
1139 1521
1139 1569
1139 1606
1139 1674
1139 1703
1139 1780
1139 1796
1139 1802
1139 1804
1139 1849
1139 1851
1139 1907
1139 1949
1139 1963
1139 1966
1139 1974
1139 1977
1139 2043
1139 2045
1139 2056
1139 2059
1139 2104
1139 2120
1139 2140
1139 2187
1139 2195
1139 2265
1139 2272
1139 2277
1139 2304
1140 1169
1140 1177
1140 1189
1140 1238
1140 1274
1140 1281
1140 1287
1140 1290
1140 1307
1140 1308
1140 1312
1140 1316
1140 1320
1140 1321
1140 1342
1140 1358
1140 1362
1140 1364
1140 1391
1140 1394
1140 1404
1140 1409
1140 1417
1140 1424
1140 1472
1140 1480
1140 1501
1140 1574
1140 1579
1140 1594
1140 1595
1140 1602
1140 1615
1140 1623
1140 1656
1140 1683
1140 1699
1140 1722
1140 1751
1140 1767
1140 1782
1140 1785
1140 1801
1140 1816
1140 1846
1140 1896
1140 1952
1140 1967
1140 2013
1140 2030
1140 2062
1140 2096
1140 2132
1140 2143
1140 2164
1140 2174
1140 2182
1140 2199
1140 2205
1140 2210
1140 2233
1140 2268
1141 1226
1141 1243
1141 1313
1141 1349
1141 1374
1141 1532
1141 1534
1141 1536
1141 1589
1141 1592
1141 1593
1141 1610
1141 1616
1141 1736
1141 1739
1141 1813
1141 1861
1141 1892
1141 1947
1141 2013
1141 2038
1141 2044
1141 2155
1141 2188
1141 2287
1141 2294
1142 1150
1142 1225
1142 1234
1142 1250
1142 1254
1142 1270
1142 1289
1142 1297
1142 1304
1142 1308
1142 1352
1142 1375
1142 1413
1142 1430
1142 1440
1142 1448
1142 1458
1142 1475
1142 1500
1142 1504
1142 1514
1142 1571
1142 1590
1142 1598
1142 1600
1142 1633
1142 1648
1142 1650
1142 1700
1142 1713
1142 1779
1142 1790
1142 1796
1142 1803
1142 1810
1142 1873
1142 1880
1142 1893
1142 1895
1142 1899
1142 1911
1142 1931
1142 1950
1142 1951
1142 1953
1142 1956
1142 1984
1142 2003
1142 2037
1142 2055
1142 2067
1142 2068
1142 2074
1142 2076
1142 2101
1142 2108
1142 2111
1142 2120
1142 2151
1142 2154
1142 2175
1142 2204
1142 2220
1142 2248
1142 2252
1142 2259
1142 2306
1143 1169
1143 1181
1143 1205
1143 1211
1143 1232
1143 1251
1143 1252
1143 1254
1143 1259
1143 1275
1143 1281
1143 1298
1143 1310
1143 1315
1143 1331
1143 1337
1143 1358
1143 1364
1143 1371
1143 1392
1143 1396
1143 1405
1143 1411
1143 1430
1143 1455
1143 1466
1143 1489
1143 1495
1143 1499
1143 1511
1143 1513
1143 1521
1143 1523
1143 1534
1143 1537
1143 1560
1143 1563
1143 1565
1143 1571
1143 1578
1143 1580
1143 1595
1143 1600
1143 1612
1143 1617
1143 1638
1143 1645
1143 1650
1143 1672
1143 1676
1143 1680
1143 1713
1143 1716
1143 1753
1143 1763
1143 1805
1143 1824
1143 1845
1143 1854
1143 1873
1143 1880
1143 1882
1143 1899
1143 1956
1143 1974
1143 2003
1143 2029
1143 2037
1143 2043
1143 2046
1143 2055
1143 2060
1143 2062
1143 2067
1143 2082
1143 2115
1143 2143
1143 2175
1143 2185
1143 2198
1143 2210
1143 2225
1143 2231
1143 2248
1143 2255
1143 2276
1143 2295
1143 2303
1143 2306
1144 1181
1144 1211
1144 1238
1144 1247
1144 1335
1144 1352
1144 1404
1144 1499
1144 1538
1144 1571
1144 1633
1144 1675
1144 1713
1144 1760
1144 1823
1144 1864
1144 1940
1144 1958
1144 2013
1144 2037
1144 2055
1144 2089
1144 2181
1144 2208
1144 2213
1144 2223
1144 2248
1144 2258
1144 2274
1144 2304
1145 1150
1145 1159
1145 1168
1145 1171
1145 1184
1145 1197
1145 1236
1145 1237
1145 1258
1145 1279
1145 1301
1145 1361
1145 1366
1145 1433
1145 1440
1145 1450
1145 1469
1145 1493
1145 1561
1145 1576
1145 1650
1145 1666
1145 1669
1145 1690
1145 1702
1145 1721
1145 1724
1145 1727
1145 1755
1145 1786
1145 1803
1145 1825
1145 1839
1145 1847
1145 1848
1145 1849
1145 1851
1145 1874
1145 1893
1145 1911
1145 1918
1145 1931
1145 1935
1145 1969
1145 2007
1145 2024
1145 2045
1145 2068
1145 2076
1145 2093
1145 2097
1145 2111
1145 2128
1145 2203
1145 2215
1145 2227
1145 2234
1145 2242
1145 2252
1145 2254
1145 2263
1145 2265
1146 1182
1146 1183
1146 1190
1146 1192
1146 1226
1146 1231
1146 1240
1146 1286
1146 1306
1146 1349
1146 1365
1146 1370
1146 1374
1146 1402
1146 1405
1146 1429
1146 1436
1146 1453
1146 1477
1146 1486
1146 1493
1146 1506
1146 1527
1146 1532
1146 1534
1146 1536
1146 1543
1146 1589
1146 1592
1146 1593
1146 1608
1146 1610
1146 1647
1146 1651
1146 1665
1146 1666
1146 1696
1146 1714
1146 1729
1146 1736
1146 1757
1146 1797
1146 1819
1146 1820
1146 1846
1146 1847
1146 1898
1146 1981
1146 2001
1146 2011
1146 2013
1146 2044
1146 2052
1146 2114
1146 2142
1146 2199
1146 2230
1146 2239
1146 2243
1146 2297
1147 1170
1147 1249
1147 1265
1147 1425
1147 1439
1147 1505
1147 1520
1147 1573
1147 1590
1147 1745
1147 1792
1147 1825
1147 1860
1147 1866
1147 1870
1147 2066
1147 2094
1147 2117
1147 2277
1148 1189
1148 1245
1148 1300
1148 1465
1148 1485
1148 1539
1148 1643
1148 1740
1148 1741
1148 1748
1148 1750
1148 1799
1148 1885
1148 1908
1148 1974
1148 1990
1148 2007
1148 2070
1148 2121
1148 2127
1148 2180
1148 2189
1148 2266
1149 1152
1149 1180
1149 1193
1149 1203
1149 1219
1149 1238
1149 1252
1149 1268
1149 1281
1149 1292
1149 1310
1149 1332
1149 1358
1149 1362
1149 1364
1149 1377
1149 1380
1149 1394
1149 1405
1149 1424
1149 1472
1149 1517
1149 1550
1149 1559
1149 1621
1149 1760
1149 1767
1149 1809
1149 1870
1149 1938
1149 1959
1149 2005
1149 2027
1149 2047
1149 2098
1149 2125
1149 2143
1149 2166
1149 2182
1149 2196
1149 2210
1149 2214
1149 2225
1149 2233
1150 1181
1150 1194
1150 1301
1150 1304
1150 1344
1150 1366
1150 1390
1150 1425
1150 1440
1150 1443
1150 1475
1150 1482
1150 1488
1150 1508
1150 1539
1150 1561
1150 1569
1150 1648
1150 1677
1150 1703
1150 1734
1150 1743
1150 1779
1150 1781
1150 1796
1150 1799
1150 1803
1150 1806
1150 1825
1150 1848
1150 1849
1150 1851
1150 1859
1150 1874
1150 1887
1150 1895
1150 1898
1150 1899
1150 1918
1150 1953
1150 1966
1150 1969
1150 2037
1150 2056
1150 2076
1150 2101
1150 2128
1150 2156
1150 2168
1150 2220
1150 2265
1150 2277
1150 2304
1151 1156
1151 1164
1151 1201
1151 1244
1151 1252
1151 1262
1151 1275
1151 1281
1151 1312
1151 1330
1151 1332
1151 1347
1151 1364
1151 1396
1151 1420
1151 1424
1151 1443
1151 1455
1151 1492
1151 1511
1151 1550
1151 1571
1151 1580
1151 1618
1151 1638
1151 1659
1151 1672
1151 1674
1151 1716
1151 1763
1151 1822
1151 1845
1151 1852
1151 1873
1151 1880
1151 1896
1151 1974
1151 2034
1151 2062
1151 2074
1151 2106
1151 2143
1151 2163
1151 2175
1151 2192
1151 2251
1151 2296
1151 2309
1152 1180
1152 1193
1152 1217
1152 1219
1152 1265
1152 1268
1152 1274
1152 1275
1152 1280
1152 1281
1152 1287
1152 1288
1152 1292
1152 1364
1152 1377
1152 1380
1152 1405
1152 1423
1152 1485
1152 1517
1152 1520
1152 1556
1152 1559
1152 1574
1152 1579
1152 1619
1152 1621
1152 1625
1152 1663
1152 1680
1152 1751
1152 1767
1152 1776
1152 1870
1152 1879
1152 1908
1152 1938
1152 1957
1152 1959
1152 1996
1152 2027
1152 2125
1152 2151
1152 2164
1152 2166
1152 2196
1152 2210
1152 2214
1152 2221
1152 2225
1152 2240
1153 1164
1153 1165
1153 1166
1153 1322
1153 1335
1153 1415
1153 1462
1153 1485
1153 1520
1153 1549
1153 1577
1153 1639
1153 1688
1153 1740
1153 1746
1153 1881
1153 1968
1153 2157
1153 2170
1153 2189
1153 2262
1154 1226
1154 1266
1154 1365
1154 1374
1154 1402
1154 1452
1154 1453
1154 1493
1154 1522
1154 1525
1154 1589
1154 1651
1154 1652
1154 1865
1154 1889
1154 1943
1154 2013
1154 2044
1154 2093
1154 2099
1154 2302
1155 1191
1155 1354
1155 1495
1155 1511
1155 1590
1155 1638
1155 1680
1155 1765
1155 1869
1155 1899
1155 1951
1155 2046
1155 2103
1155 2143
1155 2276
1155 2310
1156 1158
1156 1164
1156 1181
1156 1188
1156 1189
1156 1223
1156 1268
1156 1288
1156 1305
1156 1308
1156 1334
1156 1377
1156 1380
1156 1387
1156 1392
1156 1411
1156 1415
1156 1460
1156 1462
1156 1469
1156 1502
1156 1503
1156 1512
1156 1518
1156 1521
1156 1554
1156 1564
1156 1573
1156 1586
1156 1620
1156 1625
1156 1633
1156 1640
1156 1660
1156 1672
1156 1675
1156 1742
1156 1760
1156 1785
1156 1806
1156 1821
1156 1829
1156 1843
1156 1873
1156 1893
1156 1909
1156 1911
1156 1958
1156 1967
1156 1974
1156 1986
1156 1994
1156 1999
1156 2008
1156 2079
1156 2093
1156 2106
1156 2110
1156 2122
1156 2147
1156 2172
1156 2174
1156 2201
1156 2240
1156 2254
1156 2270
1156 2298
1156 2301
1156 2303
1156 2308
1157 1183
1157 1223
1157 1226
1157 1290
1157 1313
1157 1319
1157 1351
1157 1374
1157 1386
1157 1414
1157 1469
1157 1477
1157 1485
1157 1486
1157 1534
1157 1604
1157 1647
1157 1665
1157 1682
1157 1711
1157 1721
1157 1756
1157 1759
1157 1820
1157 1843
1157 1943
1157 2001
1157 2004
1157 2011
1157 2020
1157 2053
1157 2218
1157 2287
1157 2302
1158 1175
1158 1189
1158 1220
1158 1221
1158 1223
1158 1232
1158 1245
1158 1280
1158 1308
1158 1334
1158 1348
1158 1354
1158 1355
1158 1401
1158 1426
1158 1442
1158 1451
1158 1500
1158 1502
1158 1512
1158 1537
1158 1540
1158 1554
1158 1626
1158 1634
1158 1640
1158 1643
1158 1723
1158 1742
1158 1799
1158 1831
1158 1843
1158 1854
1158 1871
1158 1878
1158 1891
1158 1894
1158 1931
1158 1974
1158 1994
1158 2049
1158 2067
1158 2122
1158 2182
1158 2232
1159 1185
1159 1196
1159 1212
1159 1250
1159 1265
1159 1270
1159 1273
1159 1301
1159 1312
1159 1340
1159 1361
1159 1378
1159 1433
1159 1437
1159 1439
1159 1442
1159 1450
1159 1488
1159 1493
1159 1497
1159 1499
1159 1505
1159 1558
1159 1563
1159 1590
1159 1611
1159 1650
1159 1676
1159 1730
1159 1734
1159 1755
1159 1786
1159 1787
1159 1803
1159 1805
1159 1812
1159 1813
1159 1825
1159 1840
1159 1844
1159 1852
1159 1874
1159 1917
1159 1918
1159 1919
1159 1935
1159 1969
1159 1995
1159 1998
1159 2021
1159 2024
1159 2037
1159 2049
1159 2055
1159 2066
1159 2104
1159 2133
1159 2156
1159 2177
1159 2206
1159 2227
1159 2252
1159 2306
1160 1161
1160 1198
1160 1270
1160 1348
1160 1361
1160 1405
1160 1411
1160 1483
1160 1504
1160 1508
1160 1650
1160 1755
1160 1790
1160 1818
1160 1834
1160 1890
1160 1910
1160 1932
1160 1953
1160 1954
1160 1963
1160 1975
1160 2090
1160 2101
1160 2134
1160 2149
1160 2209
1160 2227
1160 2269
1160 2272
1160 2277
1160 2295
1160 2309
1160 2312
1161 1171
1161 1177
1161 1253
1161 1308
1161 1329
1161 1352
1161 1375
1161 1421
1161 1428
1161 1451
1161 1463
1161 1483
1161 1493
1161 1495
1161 1504
1161 1508
1161 1515
1161 1650
1161 1671
1161 1703
1161 1755
1161 1790
1161 1836
1161 1849
1161 1932
1161 1949
1161 1953
1161 1954
1161 1982
1161 2023
1161 2037
1161 2097
1161 2101
1161 2117
1161 2151
1161 2156
1161 2223
1161 2227
1161 2277
1161 2295
1161 2304
1162 1394
1162 1465
1162 1556
1162 1971
1162 1996
1162 2127
1163 1201
1163 1557
1163 1706
1163 1752
1163 1864
1163 1931
1163 2100
1164 1166
1164 1186
1164 1224
1164 1232
1164 1259
1164 1265
1164 1289
1164 1344
1164 1347
1164 1364
1164 1368
1164 1377
1164 1394
1164 1401
1164 1404
1164 1406
1164 1411
1164 1471
1164 1485
1164 1520
1164 1523
1164 1535
1164 1537
1164 1546
1164 1557
1164 1595
1164 1601
1164 1630
1164 1639
1164 1675
1164 1680
1164 1706
1164 1723
1164 1745
1164 1752
1164 1767
1164 1806
1164 1821
1164 1828
1164 1864
1164 1870
1164 1885
1164 1896
1164 1928
1164 1962
1164 1983
1164 1986
1164 1999
1164 2005
1164 2015
1164 2089
1164 2093
1164 2105
1164 2106
1164 2143
1164 2180
1164 2221
1164 2231
1164 2284
1164 2292
1164 2309
1165 1175
1165 1186
1165 1277
1165 1324
1165 1326
1165 1353
1165 1460
1165 1503
1165 1546
1165 1611
1165 1663
1165 1668
1165 1688
1165 1726
1165 1751
1165 1814
1165 1835
1165 1873
1165 1881
1165 1908
1165 1962
1165 2022
1165 2048
1165 2057
1165 2066
1165 2089
1165 2129
1166 1186
1166 1233
1166 1244
1166 1267
1166 1343
1166 1368
1166 1423
1166 1459
1166 1496
1166 1520
1166 1557
1166 1581
1166 1620
1166 1637
1166 1680
1166 1706
1166 1708
1166 1717
1166 1726
1166 1746
1166 1752
1166 1774
1166 1798
1166 1804
1166 1849
1166 1864
1166 1879
1166 1885
1166 1913
1166 2014
1166 2015
1166 2046
1166 2111
1166 2115
1166 2124
1166 2245
1166 2261
1166 2264
1166 2286
1166 2308
1167 1186
1167 1234
1167 1282
1167 1304
1167 1364
1167 1368
1167 1371
1167 1378
1167 1384
1167 1392
1167 1415
1167 1432
1167 1439
1167 1462
1167 1531
1167 1533
1167 1566
1167 1568
1167 1581
1167 1633
1167 1639
1167 1718
1167 1746
1167 1752
1167 1778
1167 1798
1167 1806
1167 1815
1167 1829
1167 1842
1167 1847
1167 1858
1167 1866
1167 1879
1167 1885
1167 1986
1167 2015
1167 2035
1167 2056
1167 2057
1167 2162
1167 2213
1167 2245
1167 2264
1167 2275
1168 1184
1168 1197
1168 1208
1168 1218
1168 1220
1168 1233
1168 1234
1168 1256
1168 1258
1168 1265
1168 1280
1168 1282
1168 1308
1168 1318
1168 1329
1168 1337
1168 1340
1168 1377
1168 1390
1168 1421
1168 1425
1168 1439
1168 1469
1168 1482
1168 1502
1168 1558
1168 1570
1168 1573
1168 1581
1168 1590
1168 1630
1168 1667
1168 1669
1168 1675
1168 1676
1168 1677
1168 1703
1168 1708
1168 1730
1168 1746
1168 1825
1168 1836
1168 1844
1168 1847
1168 1849
1168 1854
1168 1864
1168 1878
1168 1888
1168 1893
1168 1911
1168 1921
1168 1926
1168 1927
1168 1940
1168 1951
1168 1957
1168 2007
1168 2045
1168 2049
1168 2066
1168 2069
1168 2093
1168 2101
1168 2111
1168 2151
1168 2160
1168 2177
1168 2245
1168 2254
1168 2260
1168 2261
1168 2269
1169 1175
1169 1210
1169 1216
1169 1252
1169 1275
1169 1281
1169 1330
1169 1347
1169 1358
1169 1362
1169 1380
1169 1411
1169 1460
1169 1485
1169 1494
1169 1579
1169 1594
1169 1615
1169 1623
1169 1663
1169 1668
1169 1672
1169 1717
1169 1726
1169 1814
1169 1873
1169 1896
1169 1922
1169 1955
1169 2051
1169 2062
1169 2116
1169 2123
1169 2129
1169 2210
1169 2214
1169 2233
1169 2312
1170 1175
1170 1204
1170 1249
1170 1265
1170 1273
1170 1283
1170 1372
1170 1421
1170 1520
1170 1531
1170 1535
1170 1540
1170 1590
1170 1667
1170 1679
1170 1723
1170 1738
1170 1745
1170 1751
1170 1752
1170 1753
1170 1776
1170 1782
1170 1783
1170 1825
1170 1845
1170 1857
1170 1860
1170 1864
1170 1879
1170 1903
1170 1908
1170 1951
1170 1974
1170 2023
1170 2094
1170 2100
1170 2103
1170 2118
1170 2182
1170 2198
1170 2222
1170 2237
1170 2240
1170 2274
1171 1184
1171 1198
1171 1208
1171 1220
1171 1225
1171 1233
1171 1236
1171 1256
1171 1258
1171 1264
1171 1265
1171 1276
1171 1301
1171 1308
1171 1329
1171 1340
1171 1366
1171 1413
1171 1418
1171 1428
1171 1434
1171 1437
1171 1448
1171 1497
1171 1567
1171 1576
1171 1583
1171 1590
1171 1627
1171 1633
1171 1669
1171 1689
1171 1701
1171 1708
1171 1724
1171 1727
1171 1730
1171 1787
1171 1789
1171 1803
1171 1808
1171 1810
1171 1825
1171 1839
1171 1844
1171 1848
1171 1849
1171 1852
1171 1853
1171 1857
1171 1866
1171 1869
1171 1878
1171 1879
1171 1882
1171 1911
1171 1925
1171 1936
1171 1951
1171 1969
1171 2068
1171 2084
1171 2097
1171 2100
1171 2109
1171 2113
1171 2128
1171 2141
1171 2168
1171 2171
1171 2176
1171 2177
1171 2185
1171 2203
1171 2215
1171 2223
1171 2232
1171 2234
1171 2242
1171 2245
1171 2254
1171 2260
1171 2269
1171 2279
1172 1275
1172 1281
1172 1285
1172 1362
1172 1368
1172 1394
1172 1584
1172 1987
1172 2106
1172 2110
1172 2143
1172 2233
1173 1841
1174 1259
1174 1262
1174 1275
1174 1310
1174 1332
1174 1341
1174 1347
1174 1359
1174 1394
1174 1399
1174 1424
1174 1469
1174 1491
1174 1513
1174 1538
1174 1542
1174 1570
1174 1580
1174 1584
1174 1626
1174 1638
1174 1685
1174 1713
1174 1795
1174 1796
1174 1873
1174 1880
1174 1890
1174 1896
1174 1910
1174 1971
1174 1988
1174 2005
1174 2016
1174 2051
1174 2062
1174 2106
1174 2233
1174 2284
1174 2296
1174 2307
1174 2309
1175 1177
1175 1186
1175 1219
1175 1233
1175 1267
1175 1270
1175 1275
1175 1277
1175 1279
1175 1281
1175 1299
1175 1352
1175 1353
1175 1355
1175 1411
1175 1424
1175 1435
1175 1460
1175 1483
1175 1496
1175 1520
1175 1564
1175 1595
1175 1630
1175 1640
1175 1642
1175 1657
1175 1663
1175 1668
1175 1687
1175 1693
1175 1717
1175 1726
1175 1760
1175 1761
1175 1814
1175 1835
1175 1863
1175 1868
1175 1873
1175 1922
1175 1926
1175 1931
1175 1964
1175 2016
1175 2043
1175 2057
1175 2089
1175 2116
1175 2129
1175 2146
1175 2147
1175 2219
1175 2225
1176 1206
1176 1218
1176 1219
1176 1220
1176 1221
1176 1232
1176 1234
1176 1265
1176 1275
1176 1281
1176 1308
1176 1318
1176 1329
1176 1358
1176 1383
1176 1385
1176 1388
1176 1400
1176 1401
1176 1444
1176 1451
1176 1496
1176 1499
1176 1500
1176 1502
1176 1518
1176 1539
1176 1540
1176 1549
1176 1563
1176 1611
1176 1626
1176 1663
1176 1677
1176 1718
1176 1724
1176 1748
1176 1784
1176 1787
1176 1799
1176 1825
1176 1878
1176 1891
1176 1925
1176 1926
1176 1931
1176 1946
1176 2025
1176 2068
1176 2120
1176 2134
1176 2138
1176 2141
1176 2150
1176 2156
1176 2225
1176 2229
1176 2232
1176 2245
1176 2260
1177 1189
1177 1194
1177 1245
1177 1249
1177 1275
1177 1280
1177 1283
1177 1298
1177 1300
1177 1308
1177 1323
1177 1348
1177 1355
1177 1364
1177 1378
1177 1385
1177 1404
1177 1407
1177 1411
1177 1416
1177 1424
1177 1429
1177 1435
1177 1449
1177 1466
1177 1485
1177 1487
1177 1488
1177 1508
1177 1511
1177 1513
1177 1520
1177 1544
1177 1562
1177 1615
1177 1623
1177 1640
1177 1670
1177 1671
1177 1672
1177 1716
1177 1719
1177 1741
1177 1767
1177 1790
1177 1801
1177 1809
1177 1828
1177 1835
1177 1854
1177 1863
1177 1886
1177 1894
1177 1896
1177 1915
1177 1920
1177 1922
1177 1927
1177 1963
1177 1964
1177 1965
1177 1966
1177 1974
1177 1977
1177 1980
1177 1983
1177 2007
1177 2022
1177 2051
1177 2056
1177 2062
1177 2070
1177 2073
1177 2080
1177 2088
1177 2089
1177 2117
1177 2120
1177 2123
1177 2124
1177 2140
1177 2143
1177 2147
1177 2149
1177 2154
1177 2163
1177 2182
1177 2192
1177 2195
1177 2196
1177 2202
1177 2210
1177 2225
1177 2237
1177 2289
1177 2304
1178 1338
1178 1665
1178 1759
1179 1350
1179 1391
1179 1412
1179 1414
1179 1506
1179 1592
1179 1622
1179 1696
1179 1832
1179 1862
1179 2304
1180 1217
1180 1269
1180 1281
1180 1287
1180 1288
1180 1292
1180 1358
1180 1380
1180 1417
1180 1517
1180 1538
1180 1559
1180 1574
1180 1579
1180 1603
1180 1633
1180 1716
1180 1801
1180 1809
1180 1846
1180 1909
1180 1938
1180 1959
1180 1963
1180 2027
1180 2151
1180 2192
1180 2214
1180 2225
1180 2233
1180 2240
1181 1200
1181 1280
1181 1281
1181 1296
1181 1301
1181 1308
1181 1363
1181 1393
1181 1405
1181 1440
1181 1448
1181 1482
1181 1499
1181 1513
1181 1518
1181 1569
1181 1571
1181 1576
1181 1578
1181 1600
1181 1606
1181 1623
1181 1625
1181 1648
1181 1650
1181 1665
1181 1670
1181 1676
1181 1701
1181 1703
1181 1779
1181 1796
1181 1803
1181 1806
1181 1823
1181 1835
1181 1853
1181 1857
1181 1868
1181 1874
1181 1895
1181 1899
1181 1907
1181 1953
1181 1958
1181 1963
1181 1969
1181 1974
1181 1975
1181 2022
1181 2037
1181 2058
1181 2069
1181 2075
1181 2077
1181 2101
1181 2187
1181 2192
1181 2225
1181 2248
1181 2252
1181 2289
1181 2296
1181 2305
1182 1293
1182 1308
1182 1452
1182 1477
1182 1593
1182 1610
1182 1666
1182 1873
1182 1947
1182 2077
1182 2123
1182 2239
1182 2287
1182 2296
1183 1190
1183 1197
1183 1202
1183 1226
1183 1230
1183 1239
1183 1240
1183 1243
1183 1287
1183 1293
1183 1306
1183 1346
1183 1374
1183 1402
1183 1414
1183 1445
1183 1477
1183 1486
1183 1534
1183 1536
1183 1543
1183 1551
1183 1589
1183 1591
1183 1592
1183 1610
1183 1613
1183 1661
1183 1665
1183 1696
1183 1710
1183 1721
1183 1733
1183 1739
1183 1757
1183 1758
1183 1759
1183 1791
1183 1819
1183 1820
1183 1838
1183 1846
1183 1847
1183 1862
1183 1889
1183 1898
1183 1905
1183 1981
1183 2001
1183 2002
1183 2011
1183 2041
1183 2044
1183 2052
1183 2053
1183 2061
1183 2077
1183 2152
1183 2173
1183 2199
1183 2230
1183 2253
1183 2294
1183 2302
1184 1201
1184 1208
1184 1218
1184 1234
1184 1258
1184 1281
1184 1289
1184 1337
1184 1340
1184 1425
1184 1439
1184 1440
1184 1482
1184 1485
1184 1497
1184 1558
1184 1581
1184 1590
1184 1601
1184 1667
1184 1669
1184 1703
1184 1708
1184 1724
1184 1727
1184 1746
1184 1755
1184 1803
1184 1808
1184 1815
1184 1825
1184 1839
1184 1844
1184 1849
1184 1866
1184 1888
1184 1911
1184 1921
1184 1931
1184 1951
1184 1989
1184 2007
1184 2084
1184 2097
1184 2101
1184 2150
1184 2160
1184 2161
1184 2171
1184 2177
1184 2215
1184 2245
1184 2254
1184 2261
1184 2269
1184 2298
1185 1200
1185 1233
1185 1262
1185 1281
1185 1312
1185 1340
1185 1392
1185 1420
1185 1433
1185 1437
1185 1450
1185 1488
1185 1563
1185 1650
1185 1763
1185 1779
1185 1786
1185 1812
1185 1813
1185 1822
1185 1825
1185 1840
1185 1844
1185 1852
1185 1880
1185 1896
1185 1918
1185 1949
1185 2019
1185 2021
1185 2024
1185 2045
1185 2066
1185 2069
1185 2251
1186 1206
1186 1224
1186 1262
1186 1277
1186 1297
1186 1315
1186 1355
1186 1358
1186 1371
1186 1377
1186 1384
1186 1392
1186 1415
1186 1503
1186 1520
1186 1533
1186 1546
1186 1564
1186 1566
1186 1568
1186 1584
1186 1586
1186 1595
1186 1657
1186 1663
1186 1668
1186 1687
1186 1717
1186 1726
1186 1741
1186 1762
1186 1778
1186 1815
1186 1821
1186 1828
1186 1835
1186 1870
1186 1885
1186 1901
1186 1928
1186 1962
1186 1986
1186 1999
1186 2015
1186 2016
1186 2023
1186 2036
1186 2057
1186 2089
1186 2105
1186 2106
1186 2120
1186 2125
1186 2129
1186 2162
1186 2174
1186 2221
1186 2240
1186 2264
1187 1290
1187 1364
1187 1417
1187 1472
1187 1574
1188 1193
1188 1219
1188 1238
1188 1262
1188 1270
1188 1274
1188 1296
1188 1321
1188 1322
1188 1344
1188 1356
1188 1358
1188 1364
1188 1383
1188 1387
1188 1409
1188 1416
1188 1539
1188 1554
1188 1619
1188 1628
1188 1630
1188 1680
1188 1683
1188 1697
1188 1751
1188 1799
1188 1837
1188 1844
1188 1870
1188 1871
1188 1903
1188 1931
1188 1963
1188 1967
1188 1983
1188 2062
1188 2089
1188 2125
1188 2145
1188 2146
1188 2151
1188 2172
1188 2190
1188 2212
1188 2219
1188 2236
1188 2268
1188 2271
1188 2299
1188 2312
1189 1245
1189 1260
1189 1282
1189 1300
1189 1308
1189 1335
1189 1354
1189 1355
1189 1358
1189 1392
1189 1401
1189 1415
1189 1485
1189 1493
1189 1505
1189 1512
1189 1513
1189 1520
1189 1535
1189 1544
1189 1559
1189 1562
1189 1579
1189 1630
1189 1634
1189 1675
1189 1703
1189 1717
1189 1726
1189 1741
1189 1745
1189 1751
1189 1760
1189 1774
1189 1782
1189 1787
1189 1804
1189 1809
1189 1853
1189 1871
1189 1909
1189 1921
1189 1927
1189 1931
1189 1954
1189 1961
1189 1964
1189 1967
1189 1975
1189 1987
1189 1990
1189 2007
1189 2027
1189 2049
1189 2062
1189 2066
1189 2070
1189 2088
1189 2116
1189 2117
1189 2120
1189 2121
1189 2127
1189 2135
1189 2140
1189 2144
1189 2147
1189 2151
1189 2167
1189 2177
1189 2185
1189 2189
1189 2195
1189 2228
1189 2240
1189 2257
1189 2266
1189 2277
1189 2279
1189 2289
1189 2292
1189 2310
1190 1235
1190 1257
1190 1278
1190 1306
1190 1338
1190 1453
1190 1522
1190 1525
1190 1527
1190 1589
1190 1593
1190 1662
1190 1666
1190 1720
1190 1830
1190 1845
1190 1847
1190 1861
1190 1898
1190 1999
1190 2020
1190 2044
1190 2052
1190 2074
1190 2114
1190 2142
1190 2178
1190 2199
1191 1218
1191 1251
1191 1281
1191 1329
1191 1467
1191 1491
1191 1590
1191 1676
1191 1765
1191 1821
1191 1824
1191 1869
1191 1883
1191 1899
1191 2037
1191 2046
1191 2245
1192 1223
1192 1272
1192 1374
1192 1414
1192 1417
1192 1477
1192 1721
1192 1819
1192 1898
1192 1938
1192 2006
1192 2020
1192 2044
1193 1238
1193 1281
1193 1322
1193 1364
1193 1369
1193 1377
1193 1380
1193 1409
1193 1485
1193 1516
1193 1564
1193 1641
1193 1680
1193 1683
1193 1770
1193 1815
1193 1821
1193 1837
1193 1870
1193 2145
1193 2174
1193 2212
1193 2225
1193 2260
1193 2271
1194 1216
1194 1259
1194 1275
1194 1281
1194 1304
1194 1310
1194 1344
1194 1356
1194 1359
1194 1362
1194 1364
1194 1380
1194 1392
1194 1411
1194 1424
1194 1447
1194 1449
1194 1485
1194 1570
1194 1584
1194 1594
1194 1680
1194 1683
1194 1685
1194 1716
1194 1719
1194 1743
1194 1767
1194 1796
1194 1806
1194 1851
1194 1873
1194 1886
1194 1890
1194 1896
1194 1937
1194 1949
1194 1956
1194 1965
1194 2051
1194 2062
1194 2089
1194 2145
1194 2156
1194 2198
1194 2233
1194 2241
1194 2246
1194 2265
1194 2276
1194 2304
1195 1257
1195 1468
1195 1470
1195 1720
1195 1935
1195 1947
1195 1981
1195 2080
1195 2158
1195 2199
1195 2230
1196 1250
1196 1335
1196 1352
1196 1378
1196 1421
1196 1508
1196 1514
1196 1547
1196 1578
1196 1635
1196 1751
1196 1790
1196 1836
1196 1874
1196 1896
1196 1940
1196 2023
1196 2030
1196 2066
1196 2081
1196 2220
1197 1226
1197 1235
1197 1237
1197 1284
1197 1316
1197 1374
1197 1402
1197 1469
1197 1483
1197 1665
1197 1720
1197 1736
1197 1759
1197 1773
1197 1847
1197 1893
1197 1898
1197 1949
1197 2001
1197 2044
1197 2045
1197 2077
1197 2093
1197 2114
1197 2119
1197 2188
1197 2253
1197 2287
1198 1200
1198 1257
1198 1309
1198 1352
1198 1361
1198 1385
1198 1398
1198 1483
1198 1487
1198 1508
1198 1564
1198 1579
1198 1621
1198 1650
1198 1676
1198 1743
1198 1755
1198 1771
1198 1790
1198 1793
1198 1802
1198 1804
1198 1845
1198 1932
1198 1949
1198 1953
1198 1956
1198 1963
1198 1977
1198 2013
1198 2019
1198 2072
1198 2104
1198 2112
1198 2147
1198 2151
1198 2156
1198 2163
1198 2202
1198 2220
1198 2244
1198 2272
1198 2277
1198 2295
1198 2304
1198 2306
1199 1207
1199 1272
1199 1286
1199 1295
1199 1354
1199 1365
1199 1374
1199 1376
1199 1391
1199 1441
1199 1445
1199 1477
1199 1610
1199 1616
1199 1694
1199 1720
1199 1721
1199 1791
1199 1798
1199 1846
1199 1847
1199 1898
1199 1914
1199 1972
1199 2001
1199 2114
1200 1212
1200 1222
1200 1254
1200 1275
1200 1276
1200 1281
1200 1309
1200 1312
1200 1356
1200 1366
1200 1373
1200 1385
1200 1398
1200 1428
1200 1437
1200 1448
1200 1466
1200 1483
1200 1489
1200 1511
1200 1528
1200 1563
1200 1569
1200 1576
1200 1580
1200 1587
1200 1645
1200 1679
1200 1684
1200 1727
1200 1779
1200 1793
1200 1802
1200 1804
1200 1810
1200 1812
1200 1825
1200 1840
1200 1845
1200 1852
1200 1869
1200 1918
1200 1924
1200 1939
1200 1949
1200 1956
1200 1963
1200 1977
1200 1982
1200 1984
1200 1998
1200 2003
1200 2013
1200 2019
1200 2021
1200 2024
1200 2065
1200 2068
1200 2072
1200 2086
1200 2097
1200 2104
1200 2112
1200 2141
1200 2171
1200 2176
1200 2187
1200 2234
1200 2242
1200 2295
1200 2296
1200 2305
1201 1233
1201 1245
1201 1300
1201 1335
1201 1354
1201 1378
1201 1383
1201 1394
1201 1482
1201 1546
1201 1557
1201 1562
1201 1569
1201 1580
1201 1630
1201 1632
1201 1798
1201 1842
1201 1864
1201 1879
1201 1886
1201 1903
1201 1939
1201 2007
1201 2012
1201 2013
1201 2027
1201 2048
1201 2067
1201 2100
1201 2172
1201 2175
1201 2203
1201 2273
1201 2286
1202 1313
1202 1319
1202 1350
1202 1417
1202 1469
1202 1495
1202 1507
1202 1589
1202 1592
1202 1597
1202 1616
1202 1705
1202 1711
1202 1816
1202 1819
1202 1830
1202 1862
1202 1898
1202 1902
1202 1915
1202 1970
1202 2001
1202 2006
1202 2030
1202 2041
1202 2044
1202 2061
1202 2099
1203 1222
1203 1228
1203 1265
1203 1270
1203 1281
1203 1282
1203 1297
1203 1335
1203 1347
1203 1355
1203 1364
1203 1392
1203 1404
1203 1405
1203 1424
1203 1432
1203 1458
1203 1466
1203 1514
1203 1521
1203 1563
1203 1575
1203 1598
1203 1640
1203 1676
1203 1690
1203 1716
1203 1741
1203 1743
1203 1760
1203 1769
1203 1771
1203 1828
1203 1835
1203 1866
1203 1880
1203 1894
1203 1896
1203 1906
1203 1913
1203 1948
1203 1963
1203 1964
1203 1966
1203 1979
1203 1995
1203 2022
1203 2037
1203 2062
1203 2063
1203 2070
1203 2073
1203 2108
1203 2111
1203 2124
1203 2143
1203 2190
1203 2192
1203 2202
1203 2208
1203 2220
1203 2225
1203 2268
1203 2311
1204 1254
1204 1267
1204 1329
1204 1337
1204 1343
1204 1372
1204 1383
1204 1439
1204 1459
1204 1511
1204 1581
1204 1590
1204 1637
1204 1650
1204 1658
1204 1667
1204 1669
1204 1728
1204 1738
1204 1740
1204 1792
1204 1871
1204 1879
1204 1888
1204 1908
1204 1951
1204 2039
1204 2046
1204 2103
1204 2115
1204 2156
1204 2184
1204 2237
1204 2245
1204 2255
1204 2274
1205 1251
1205 1253
1205 1254
1205 1273
1205 1281
1205 1308
1205 1348
1205 1355
1205 1371
1205 1373
1205 1392
1205 1404
1205 1427
1205 1429
1205 1485
1205 1487
1205 1506
1205 1511
1205 1521
1205 1525
1205 1539
1205 1546
1205 1550
1205 1566
1205 1598
1205 1621
1205 1670
1205 1674
1205 1684
1205 1686
1205 1700
1205 1714
1205 1736
1205 1769
1205 1815
1205 1834
1205 1835
1205 1865
1205 1869
1205 1886
1205 1891
1205 1910
1205 1920
1205 1921
1205 1949
1205 1950
1205 1963
1205 1974
1205 1977
1205 2029
1205 2043
1205 2058
1205 2060
1205 2062
1205 2104
1205 2120
1205 2140
1205 2152
1205 2190
1205 2232
1205 2251
1205 2273
1205 2302
1205 2305
1205 2306
1206 1283
1206 1289
1206 1774
1206 2274
1207 1291
1208 1220
1208 1258
1208 1265
1208 1282
1208 1309
1208 1329
1208 1337
1208 1361
1208 1398
1208 1416
1208 1425
1208 1439
1208 1505
1208 1515
1208 1561
1208 1590
1208 1667
1208 1669
1208 1703
1208 1708
1208 1755
1208 1772
1208 1798
1208 1806
1208 1825
1208 1848
1208 1849
1208 1860
1208 1878
1208 1879
1208 1888
1208 1903
1208 1921
1208 1926
1208 1931
1208 1956
1208 1977
1208 1982
1208 1984
1208 1989
1208 1991
1208 2023
1208 2084
1208 2101
1208 2109
1208 2133
1208 2144
1208 2150
1208 2151
1208 2156
1208 2160
1208 2177
1208 2203
1208 2220
1208 2242
1208 2245
1208 2261
1208 2265
1208 2304
1208 2306
1209 1435
1209 1460
1209 1485
1209 1952
1209 2164
1209 2230
1210 1229
1210 1259
1210 1282
1210 1288
1210 1325
1210 1347
1210 1358
1210 1400
1210 1564
1210 1579
1210 1615
1210 1654
1210 1697
1210 1767
1210 1778
1210 1837
1210 1896
1210 2027
1210 2060
1210 2078
1210 2095
1210 2164
1210 2210
1210 2233
1210 2240
1211 1225
1211 1246
1211 1251
1211 1270
1211 1296
1211 1336
1211 1355
1211 1393
1211 1430
1211 1433
1211 1448
1211 1485
1211 1499
1211 1571
1211 1598
1211 1600
1211 1633
1211 1640
1211 1650
1211 1657
1211 1659
1211 1713
1211 1738
1211 1744
1211 1756
1211 1812
1211 1813
1211 1825
1211 1828
1211 1854
1211 1873
1211 1880
1211 1899
1211 1913
1211 1951
1211 2037
1211 2043
1211 2046
1211 2055
1211 2068
1211 2175
1211 2225
1211 2231
1211 2248
1211 2252
1211 2305
1211 2306
1212 1228
1212 1233
1212 1312
1212 1371
1212 1373
1212 1388
1212 1433
1212 1437
1212 1457
1212 1548
1212 1563
1212 1576
1212 1588
1212 1737
1212 1803
1212 1825
1212 1828
1212 1845
1212 1852
1212 1906
1212 1907
1212 1918
1212 1919
1212 1928
1212 2024
1212 2049
1212 2059
1212 2060
1212 2062
1212 2066
1212 2163
1212 2191
1212 2202
1212 2272
1212 2305
1213 1405
1213 1543
1213 1622
1213 1680
1213 1733
1213 1985
1213 2230
1214 1297
1214 1355
1214 1378
1214 1392
1214 1406
1214 1411
1214 1435
1214 1485
1214 1513
1214 1545
1214 1598
1214 1657
1214 1732
1214 1741
1214 1744
1214 1829
1214 1854
1214 1913
1214 1945
1214 1953
1214 1963
1214 2110
1214 2115
1214 2197
1214 2295
1214 2303
1215 1329
1215 1488
1215 1499
1215 1503
1215 1508
1215 1518
1215 1573
1215 1588
1215 1827
1215 1870
1215 1954
1215 1961
1215 1980
1215 2150
1215 2204
1215 2242
1215 2311
1216 1281
1216 1358
1216 1362
1216 1364
1216 1424
1216 1480
1216 1646
1216 1655
1216 1809
1216 1873
1216 2078
1216 2151
1216 2164
1216 2210
1216 2214
1216 2233
1216 2312
1217 1238
1217 1268
1217 1287
1217 1355
1217 1358
1217 1364
1217 1485
1217 1517
1217 1556
1217 1619
1217 1625
1217 1809
1217 1844
1217 1846
1217 1870
1217 1938
1217 1959
1217 2027
1217 2047
1217 2151
1217 2193
1217 2240
1217 2257
1218 1225
1218 1234
1218 1428
1218 1471
1218 1557
1218 1567
1218 1590
1218 1667
1218 1669
1218 1677
1218 1708
1218 1853
1218 1854
1218 1864
1218 1882
1218 1903
1218 1925
1218 1927
1218 1931
1218 2046
1218 2066
1218 2094
1218 2100
1218 2160
1218 2177
1218 2185
1218 2186
1218 2261
1219 1238
1219 1265
1219 1274
1219 1275
1219 1281
1219 1288
1219 1308
1219 1364
1219 1383
1219 1409
1219 1449
1219 1501
1219 1512
1219 1517
1219 1539
1219 1556
1219 1621
1219 1680
1219 1683
1219 1723
1219 1751
1219 1793
1219 1806
1219 1809
1219 1870
1219 1948
1219 2089
1219 2130
1219 2135
1219 2145
1219 2164
1219 2205
1219 2225
1219 2289
1219 2299
1220 1221
1220 1236
1220 1258
1220 1264
1220 1265
1220 1267
1220 1270
1220 1279
1220 1280
1220 1303
1220 1354
1220 1361
1220 1366
1220 1401
1220 1416
1220 1439
1220 1442
1220 1444
1220 1493
1220 1504
1220 1561
1220 1563
1220 1583
1220 1611
1220 1627
1220 1634
1220 1643
1220 1658
1220 1669
1220 1724
1220 1787
1220 1788
1220 1790
1220 1796
1220 1799
1220 1825
1220 1845
1220 1851
1220 1874
1220 1878
1220 1885
1220 1886
1220 1903
1220 1911
1220 1925
1220 1926
1220 1935
1220 1984
1220 2067
1220 2094
1220 2101
1220 2104
1220 2109
1220 2110
1220 2120
1220 2148
1220 2170
1220 2171
1220 2176
1220 2203
1220 2215
1220 2229
1220 2232
1220 2234
1220 2242
1220 2254
1220 2258
1220 2260
1220 2288
1221 1232
1221 1265
1221 1308
1221 1318
1221 1354
1221 1358
1221 1383
1221 1388
1221 1400
1221 1401
1221 1444
1221 1451
1221 1500
1221 1520
1221 1634
1221 1724
1221 1774
1221 1799
1221 1891
1221 1926
1221 1992
1221 2007
1221 2025
1221 2043
1221 2067
1221 2120
1221 2138
1221 2150
1221 2232
1221 2245
1222 1257
1222 1282
1222 1308
1222 1325
1222 1331
1222 1355
1222 1373
1222 1385
1222 1398
1222 1437
1222 1457
1222 1468
1222 1493
1222 1513
1222 1563
1222 1566
1222 1569
1222 1576
1222 1594
1222 1645
1222 1646
1222 1679
1222 1692
1222 1702
1222 1723
1222 1804
1222 1806
1222 1810
1222 1878
1222 1915
1222 1924
1222 1947
1222 1949
1222 1953
1222 1963
1222 1977
1222 2005
1222 2013
1222 2094
1222 2104
1222 2112
1222 2115
1222 2162
1222 2199
1222 2244
1222 2246
1222 2272
1222 2295
1223 1225
1223 1285
1223 1315
1223 1330
1223 1334
1223 1377
1223 1380
1223 1384
1223 1387
1223 1424
1223 1477
1223 1512
1223 1560
1223 1580
1223 1604
1223 1620
1223 1640
1223 1672
1223 1682
1223 1699
1223 1723
1223 1742
1223 1757
1223 1759
1223 1781
1223 1820
1223 1824
1223 1832
1223 1843
1223 1905
1223 1972
1223 1994
1223 2011
1223 2122
1223 2145
1223 2172
1223 2174
1223 2249
1223 2301
1224 1397
1224 1415
1224 1485
1224 1520
1224 1546
1224 1584
1224 1595
1224 1598
1224 1743
1224 1745
1224 1806
1224 1821
1224 1928
1224 1950
1224 1962
1225 1232
1225 1234
1225 1254
1225 1299
1225 1337
1225 1423
1225 1430
1225 1434
1225 1435
1225 1439
1225 1521
1225 1537
1225 1567
1225 1576
1225 1581
1225 1590
1225 1598
1225 1633
1225 1650
1225 1658
1225 1713
1225 1738
1225 1740
1225 1748
1225 1765
1225 1774
1225 1803
1225 1825
1225 1848
1225 1853
1225 1854
1225 1882
1225 1885
1225 1951
1225 1956
1225 1962
1225 1973
1225 1974
1225 1992
1225 2017
1225 2037
1225 2043
1225 2046
1225 2055
1225 2067
1225 2081
1225 2094
1225 2118
1225 2185
1225 2211
1225 2242
1225 2254
1225 2260
1225 2306
1226 1239
1226 1255
1226 1349
1226 1365
1226 1374
1226 1381
1226 1436
1226 1452
1226 1477
1226 1522
1226 1532
1226 1543
1226 1589
1226 1593
1226 1610
1226 1651
1226 1665
1226 1666
1226 1720
1226 1721
1226 1736
1226 1757
1226 1819
1226 1847
1226 1861
1226 1898
1226 1947
1226 1981
1226 2001
1226 2002
1226 2044
1226 2099
1226 2142
1226 2152
1226 2178
1226 2188
1226 2199
1226 2230
1226 2239
1226 2243
1226 2256
1226 2287
1226 2294
1227 1391
1227 1414
1227 1436
1227 1536
1227 1574
1227 1589
1227 1696
1227 1791
1227 1875
1227 2188
1227 2239
1228 1327
1228 1440
1228 1458
1228 1499
1228 1513
1228 1520
1228 1521
1228 1741
1228 1755
1228 1782
1228 1786
1228 1803
1228 1848
1228 1874
1228 1925
1228 1931
1228 1964
1228 1979
1228 1993
1228 2056
1228 2063
1228 2067
1228 2070
1228 2162
1228 2208
1228 2265
1229 1358
1229 1400
1229 1409
1229 1625
1229 1654
1229 1683
1229 1697
1229 1809
1229 1837
1229 1929
1229 2027
1229 2060
1229 2095
1229 2240
1230 1239
1230 1240
1230 1293
1230 1306
1230 1351
1230 1374
1230 1391
1230 1402
1230 1414
1230 1417
1230 1452
1230 1476
1230 1506
1230 1527
1230 1532
1230 1534
1230 1543
1230 1551
1230 1574
1230 1582
1230 1585
1230 1589
1230 1592
1230 1608
1230 1610
1230 1613
1230 1636
1230 1666
1230 1711
1230 1721
1230 1736
1230 1739
1230 1756
1230 1757
1230 1819
1230 1830
1230 1846
1230 1847
1230 1883
1230 1889
1230 1898
1230 1934
1230 1970
1230 2001
1230 2034
1230 2044
1230 2053
1230 2152
1230 2155
1230 2195
1230 2199
1230 2218
1230 2239
1230 2256
1230 2287
1230 2297
1231 1405
1231 1543
1231 1582
1231 1933
1231 2061
1231 2142
1231 2253
1232 1234
1232 1254
1232 1265
1232 1273
1232 1281
1232 1318
1232 1413
1232 1425
1232 1430
1232 1438
1232 1439
1232 1451
1232 1500
1232 1515
1232 1535
1232 1537
1232 1539
1232 1578
1232 1581
1232 1590
1232 1598
1232 1630
1232 1634
1232 1650
1232 1667
1232 1671
1232 1706
1232 1713
1232 1738
1232 1740
1232 1748
1232 1774
1232 1787
1232 1799
1232 1825
1232 1864
1232 1871
1232 1897
1232 1951
1232 1956
1232 1992
1232 2017
1232 2025
1232 2037
1232 2055
1232 2066
1232 2067
1232 2101
1232 2156
1232 2211
1232 2236
1232 2260
1232 2306
1233 1250
1233 1265
1233 1273
1233 1277
1233 1281
1233 1311
1233 1343
1233 1352
1233 1363
1233 1378
1233 1406
1233 1413
1233 1421
1233 1433
1233 1460
1233 1469
1233 1483
1233 1504
1233 1508
1233 1519
1233 1523
1233 1539
1233 1547
1233 1564
1233 1573
1233 1595
1233 1610
1233 1611
1233 1642
1233 1675
1233 1693
1233 1706
1233 1708
1233 1717
1233 1726
1233 1790
1233 1799
1233 1803
1233 1813
1233 1818
1233 1840
1233 1860
1233 1893
1233 1903
1233 1927
1233 1954
1233 1962
1233 1974
1233 1981
1233 1986
1233 2023
1233 2048
1233 2049
1233 2065
1233 2100
1233 2116
1233 2117
1233 2120
1233 2124
1233 2129
1233 2135
1233 2144
1233 2146
1233 2149
1233 2163
1233 2179
1233 2184
1233 2203
1233 2220
1233 2227
1233 2237
1233 2277
1233 2281
1233 2295
1234 1250
1234 1267
1234 1276
1234 1428
1234 1442
1234 1458
1234 1463
1234 1471
1234 1557
1234 1567
1234 1590
1234 1598
1234 1625
1234 1667
1234 1669
1234 1677
1234 1765
1234 1776
1234 1798
1234 1843
1234 1853
1234 1854
1234 1864
1234 1882
1234 1925
1234 1927
1234 1931
1234 2012
1234 2046
1234 2066
1234 2094
1234 2100
1234 2185
1234 2186
1234 2245
1234 2261
1234 2277
1235 1248
1235 2044
1235 2052
1235 2302
1236 1258
1236 1301
1236 1329
1236 1340
1236 1442
1236 1478
1236 1497
1236 1505
1236 1515
1236 1576
1236 1724
1236 1727
1236 1730
1236 1787
1236 1825
1236 1839
1236 1845
1236 1849
1236 1851
1236 1904
1236 1911
1236 1925
1236 1931
1236 1936
1236 1969
1236 2076
1236 2097
1236 2120
1236 2128
1236 2168
1236 2171
1236 2203
1236 2206
1236 2215
1236 2232
1236 2234
1236 2242
1236 2254
1237 1280
1237 1351
1237 1365
1237 1395
1237 1402
1237 1563
1237 1574
1237 1576
1237 1592
1237 1666
1237 1700
1237 1847
1237 2001
1237 2002
1237 2111
1237 2119
1237 2120
1237 2230
1237 2297
1238 1244
1238 1274
1238 1288
1238 1300
1238 1356
1238 1358
1238 1362
1238 1364
1238 1369
1238 1377
1238 1380
1238 1400
1238 1406
1238 1409
1238 1485
1238 1520
1238 1556
1238 1619
1238 1621
1238 1628
1238 1675
1238 1680
1238 1683
1238 1697
1238 1708
1238 1746
1238 1767
1238 1793
1238 1809
1238 1870
1238 1901
1238 1928
1238 1963
1238 1994
1238 2027
1238 2089
1238 2098
1238 2106
1238 2125
1238 2129
1238 2151
1238 2164
1238 2172
1238 2175
1238 2196
1238 2202
1238 2212
1238 2225
1238 2240
1238 2268
1239 1243
1239 1278
1239 1286
1239 1313
1239 1316
1239 1349
1239 1365
1239 1374
1239 1402
1239 1417
1239 1436
1239 1509
1239 1527
1239 1534
1239 1536
1239 1582
1239 1585
1239 1588
1239 1589
1239 1593
1239 1608
1239 1610
1239 1711
1239 1720
1239 1736
1239 1759
1239 1846
1239 1847
1239 1898
1239 1980
1239 1981
1239 2001
1239 2026
1239 2044
1239 2077
1239 2107
1239 2230
1239 2256
1240 1306
1240 1346
1240 1348
1240 1374
1240 1391
1240 1395
1240 1402
1240 1412
1240 1445
1240 1452
1240 1486
1240 1543
1240 1563
1240 1589
1240 1592
1240 1608
1240 1610
1240 1686
1240 1712
1240 1736
1240 1757
1240 1838
1240 1847
1240 1898
1240 1972
1240 2018
1240 2044
1240 2064
1240 2114
1240 2137
1240 2142
1240 2199
1240 2283
1240 2294
1241 1281
1241 1348
1241 1362
1241 1373
1241 1385
1241 1398
1241 1421
1241 1434
1241 1645
1241 1646
1241 1676
1241 1690
1241 1714
1241 1771
1241 1801
1241 1802
1241 1804
1241 1816
1241 1896
1241 1915
1241 1963
1241 2059
1241 2093
1241 2123
1241 2305
1241 2311
1242 1247
1242 1399
1242 1713
1242 1767
1242 1795
1242 1806
1242 1823
1242 2108
1242 2130
1243 1286
1243 1306
1243 1374
1243 1402
1243 1417
1243 1452
1243 1486
1243 1525
1243 1527
1243 1589
1243 1592
1243 1593
1243 1602
1243 1610
1243 1616
1243 1666
1243 1705
1243 1711
1243 1720
1243 1739
1243 1756
1243 1799
1243 1816
1243 1830
1243 1846
1243 1847
1243 1861
1243 1889
1243 1898
1243 1930
1243 1981
1243 2001
1243 2044
1243 2052
1243 2053
1243 2061
1243 2077
1243 2099
1243 2114
1243 2228
1243 2279
1243 2287
1243 2294
1243 2302
1244 1282
1244 1308
1244 1325
1244 1326
1244 1334
1244 1380
1244 1384
1244 1394
1244 1403
1244 1467
1244 1474
1244 1533
1244 1538
1244 1554
1244 1560
1244 1562
1244 1580
1244 1581
1244 1598
1244 1659
1244 1668
1244 1717
1244 1738
1244 1760
1244 1795
1244 1857
1244 1864
1244 1873
1244 1931
1244 1936
1244 1951
1244 2008
1244 2016
1244 2027
1244 2067
1244 2069
1244 2079
1244 2098
1244 2124
1244 2166
1244 2175
1244 2196
1244 2198
1244 2225
1244 2231
1244 2249
1244 2260
1244 2264
1244 2269
1244 2286
1244 2307
1245 1256
1245 1300
1245 1400
1245 1401
1245 1485
1245 1503
1245 1513
1245 1516
1245 1520
1245 1535
1245 1630
1245 1657
1245 1741
1245 1750
1245 1774
1245 1927
1245 1964
1245 1984
1245 1990
1245 2007
1245 2027
1245 2049
1245 2062
1245 2070
1245 2117
1245 2121
1245 2140
1245 2180
1245 2189
1245 2257
1245 2266
1245 2279
1246 1259
1246 1262
1246 1296
1246 1310
1246 1356
1246 1394
1246 1411
1246 1420
1246 1485
1246 1580
1246 1612
1246 1697
1246 1824
1246 1828
1246 1841
1246 1845
1246 1884
1246 1886
1246 1919
1246 1922
1246 1963
1246 1984
1246 2049
1246 2060
1246 2062
1246 2073
1246 2167
1246 2210
1246 2289
1247 1334
1247 1364
1247 1378
1247 1385
1247 1387
1247 1462
1247 1493
1247 1511
1247 1538
1247 1639
1247 1713
1247 1771
1247 1806
1247 1823
1247 1858
1247 1874
1247 2012
1247 2035
1247 2056
1247 2166
1247 2213
1247 2225
1247 2252
1247 2259
1247 2275
1248 1263
1248 1290
1248 1378
1248 1493
1248 1521
1248 1527
1248 1534
1248 1647
1248 1757
1248 1758
1248 1933
1248 1943
1248 2004
1249 1265
1249 1308
1249 1425
1249 1490
1249 1502
1249 1505
1249 1520
1249 1583
1249 1590
1249 1745
1249 1783
1249 1792
1249 1825
1249 1860
1249 1866
1249 1926
1249 2023
1249 2049
1249 2066
1249 2094
1249 2103
1249 2117
1249 2185
1249 2237
1249 2244
1249 2245
1249 2261
1249 2264
1250 1273
1250 1340
1250 1375
1250 1433
1250 1437
1250 1440
1250 1442
1250 1505
1250 1511
1250 1590
1250 1598
1250 1611
1250 1650
1250 1684
1250 1730
1250 1734
1250 1737
1250 1771
1250 1787
1250 1812
1250 1825
1250 1844
1250 1852
1250 1874
1250 1918
1250 1919
1250 1939
1250 2024
1250 2037
1250 2049
1250 2066
1250 2068
1250 2133
1250 2156
1250 2177
1250 2206
1250 2306
1251 1252
1251 1254
1251 1298
1251 1323
1251 1330
1251 1332
1251 1356
1251 1385
1251 1405
1251 1411
1251 1420
1251 1424
1251 1427
1251 1434
1251 1437
1251 1459
1251 1471
1251 1485
1251 1489
1251 1511
1251 1513
1251 1560
1251 1563
1251 1571
1251 1580
1251 1605
1251 1606
1251 1670
1251 1672
1251 1679
1251 1699
1251 1709
1251 1753
1251 1769
1251 1821
1251 1824
1251 1828
1251 1841
1251 1843
1251 1852
1251 1869
1251 1873
1251 1886
1251 1928
1251 1951
1251 1956
1251 1999
1251 2003
1251 2043
1251 2046
1251 2065
1251 2073
1251 2075
1251 2082
1251 2093
1251 2110
1251 2123
1251 2143
1251 2147
1251 2187
1251 2198
1251 2202
1251 2255
1251 2259
1251 2309
1252 1259
1252 1275
1252 1281
1252 1289
1252 1330
1252 1332
1252 1347
1252 1354
1252 1358
1252 1384
1252 1396
1252 1405
1252 1411
1252 1420
1252 1424
1252 1434
1252 1459
1252 1469
1252 1471
1252 1489
1252 1492
1252 1493
1252 1559
1252 1563
1252 1576
1252 1579
1252 1586
1252 1623
1252 1665
1252 1674
1252 1692
1252 1699
1252 1716
1252 1745
1252 1759
1252 1763
1252 1769
1252 1781
1252 1822
1252 1829
1252 1845
1252 1854
1252 1864
1252 1869
1252 1883
1252 1906
1252 1909
1252 1963
1252 1964
1252 1999
1252 2005
1252 2030
1252 2062
1252 2066
1252 2078
1252 2082
1252 2093
1252 2132
1252 2143
1252 2164
1252 2225
1252 2233
1252 2284
1252 2296
1252 2304
1253 1271
1253 1273
1253 1299
1253 1308
1253 1333
1253 1348
1253 1357
1253 1363
1253 1368
1253 1385
1253 1410
1253 1411
1253 1424
1253 1434
1253 1466
1253 1483
1253 1489
1253 1537
1253 1563
1253 1566
1253 1576
1253 1598
1253 1606
1253 1650
1253 1670
1253 1679
1253 1702
1253 1734
1253 1741
1253 1780
1253 1825
1253 1834
1253 1845
1253 1852
1253 1853
1253 1863
1253 1873
1253 1907
1253 1919
1253 1931
1253 1949
1253 1963
1253 1964
1253 1980
1253 1998
1253 2003
1253 2034
1253 2037
1253 2043
1253 2045
1253 2058
1253 2059
1253 2062
1253 2072
1253 2073
1253 2112
1253 2120
1253 2156
1253 2191
1253 2202
1253 2213
1253 2214
1253 2227
1253 2236
1253 2258
1253 2265
1253 2272
1253 2277
1253 2296
1253 2304
1253 2305
1253 2310
1253 2312
1254 1281
1254 1312
1254 1348
1254 1371
1254 1387
1254 1392
1254 1396
1254 1427
1254 1429
1254 1430
1254 1434
1254 1437
1254 1448
1254 1455
1254 1466
1254 1469
1254 1511
1254 1513
1254 1533
1254 1563
1254 1566
1254 1576
1254 1580
1254 1586
1254 1598
1254 1637
1254 1645
1254 1646
1254 1650
1254 1672
1254 1674
1254 1693
1254 1709
1254 1713
1254 1802
1254 1824
1254 1825
1254 1833
1254 1834
1254 1840
1254 1852
1254 1869
1254 1899
1254 1907
1254 1924
1254 1949
1254 1956
1254 1963
1254 1977
1254 1986
1254 1998
1254 1999
1254 2013
1254 2024
1254 2037
1254 2045
1254 2055
1254 2059
1254 2065
1254 2067
1254 2073
1254 2074
1254 2082
1254 2104
1254 2110
1254 2195
1254 2259
1254 2306
1255 1351
1255 1534
1255 1585
1255 1610
1255 1736
1255 2044
1255 2152
1255 2217
1256 1262
1256 1267
1256 1301
1256 1308
1256 1357
1256 1361
1256 1372
1256 1375
1256 1390
1256 1413
1256 1416
1256 1439
1256 1493
1256 1499
1256 1512
1256 1535
1256 1545
1256 1548
1256 1554
1256 1561
1256 1587
1256 1588
1256 1611
1256 1633
1256 1677
1256 1679
1256 1743
1256 1754
1256 1760
1256 1763
1256 1774
1256 1786
1256 1789
1256 1825
1256 1827
1256 1844
1256 1854
1256 1859
1256 1874
1256 1882
1256 1903
1256 1921
1256 1927
1256 1931
1256 1939
1256 1951
1256 1953
1256 1969
1256 1974
1256 1980
1256 1982
1256 1984
1256 1992
1256 1993
1256 2007
1256 2068
1256 2087
1256 2088
1256 2147
1256 2151
1256 2154
1256 2167
1256 2171
1256 2190
1256 2191
1256 2204
1256 2223
1256 2232
1256 2240
1256 2244
1256 2258
1256 2269
1256 2274
1256 2304
1256 2308
1257 1278
1257 1551
1257 1574
1257 1756
1257 1773
1257 1862
1257 1889
1257 1912
1257 1970
1257 2009
1257 2035
1257 2041
1257 2044
1257 2053
1257 2077
1257 2149
1257 2252
1257 2293
1257 2296
1258 1282
1258 1354
1258 1390
1258 1400
1258 1451
1258 1482
1258 1531
1258 1634
1258 1646
1258 1703
1258 1724
1258 1730
1258 1787
1258 1815
1258 1825
1258 1839
1258 1849
1258 1851
1258 1854
1258 1860
1258 1878
1258 1926
1258 1931
1258 1982
1258 2066
1258 2101
1258 2109
1258 2138
1258 2203
1258 2215
1258 2220
1258 2232
1258 2242
1258 2254
1259 1275
1259 1281
1259 1298
1259 1309
1259 1325
1259 1332
1259 1341
1259 1347
1259 1392
1259 1406
1259 1424
1259 1449
1259 1489
1259 1492
1259 1534
1259 1570
1259 1580
1259 1584
1259 1594
1259 1597
1259 1612
1259 1618
1259 1639
1259 1655
1259 1674
1259 1682
1259 1685
1259 1767
1259 1769
1259 1770
1259 1778
1259 1828
1259 1838
1259 1841
1259 1843
1259 1890
1259 1906
1259 1956
1259 1987
1259 2030
1259 2034
1259 2041
1259 2051
1259 2062
1259 2078
1259 2173
1259 2178
1259 2198
1259 2202
1259 2210
1259 2241
1259 2253
1259 2309
1260 1334
1260 1377
1260 1387
1260 1435
1260 1546
1260 1623
1260 1777
1260 2087
1260 2138
1260 2198
1260 2264
1261 1825
1261 1992
1262 1268
1262 1274
1262 1281
1262 1292
1262 1297
1262 1310
1262 1312
1262 1358
1262 1362
1262 1364
1262 1391
1262 1400
1262 1405
1262 1409
1262 1417
1262 1420
1262 1424
1262 1443
1262 1485
1262 1559
1262 1566
1262 1579
1262 1580
1262 1594
1262 1615
1262 1619
1262 1621
1262 1656
1262 1663
1262 1664
1262 1674
1262 1680
1262 1743
1262 1763
1262 1793
1262 1809
1262 1812
1262 1819
1262 1822
1262 1828
1262 1841
1262 1873
1262 1880
1262 1883
1262 1896
1262 1957
1262 1963
1262 2019
1262 2021
1262 2027
1262 2051
1262 2074
1262 2112
1262 2151
1262 2160
1262 2164
1262 2166
1262 2175
1262 2202
1262 2210
1262 2214
1262 2225
1262 2233
1262 2268
1262 2312
1263 1272
1263 1290
1263 1320
1263 1370
1263 1378
1263 1386
1263 1493
1263 1622
1263 1661
1263 1666
1263 1686
1263 1733
1263 1937
1263 1943
1263 1985
1263 2137
1264 1280
1264 1305
1264 1334
1264 1354
1264 1413
1264 1495
1264 1643
1264 1775
1264 1799
1264 1827
1264 2067
1264 2103
1264 2109
1264 2170
1264 2232
1264 2260
1264 2262
1265 1270
1265 1273
1265 1276
1265 1280
1265 1282
1265 1283
1265 1299
1265 1305
1265 1306
1265 1308
1265 1340
1265 1355
1265 1361
1265 1368
1265 1378
1265 1385
1265 1400
1265 1404
1265 1411
1265 1423
1265 1425
1265 1433
1265 1439
1265 1442
1265 1444
1265 1458
1265 1471
1265 1482
1265 1487
1265 1488
1265 1497
1265 1502
1265 1503
1265 1505
1265 1512
1265 1514
1265 1518
1265 1519
1265 1520
1265 1543
1265 1546
1265 1549
1265 1557
1265 1558
1265 1561
1265 1563
1265 1575
1265 1581
1265 1583
1265 1587
1265 1611
1265 1634
1265 1638
1265 1650
1265 1667
1265 1669
1265 1671
1265 1687
1265 1689
1265 1697
1265 1706
1265 1715
1265 1723
1265 1745
1265 1755
1265 1769
1265 1776
1265 1779
1265 1785
1265 1787
1265 1792
1265 1796
1265 1798
1265 1803
1265 1805
1265 1813
1265 1825
1265 1835
1265 1844
1265 1857
1265 1860
1265 1864
1265 1866
1265 1874
1265 1879
1265 1888
1265 1906
1265 1919
1265 1921
1265 1926
1265 1962
1265 1983
1265 2043
1265 2049
1265 2060
1265 2063
1265 2065
1265 2066
1265 2067
1265 2089
1265 2108
1265 2110
1265 2117
1265 2120
1265 2124
1265 2133
1265 2138
1265 2146
1265 2151
1265 2159
1265 2177
1265 2208
1265 2232
1265 2237
1265 2240
1265 2242
1265 2252
1265 2254
1265 2258
1265 2260
1265 2261
1265 2265
1265 2268
1265 2269
1265 2274
1265 2305
1265 2308
1266 1290
1266 1351
1266 1365
1266 1374
1266 1386
1266 1402
1266 1417
1266 1452
1266 1477
1266 1485
1266 1486
1266 1525
1266 1527
1266 1592
1266 1651
1266 1652
1266 1721
1266 1736
1266 1819
1266 1820
1266 1889
1266 1898
1266 1952
1266 2044
1266 2053
1266 2093
1266 2199
1266 2302
1267 1444
1267 1459
1267 1495
1267 1520
1267 1535
1267 1554
1267 1587
1267 1663
1267 1697
1267 1727
1267 1815
1267 1854
1267 1903
1267 2017
1267 2060
1267 2067
1267 2081
1267 2088
1267 2276
1268 1280
1268 1281
1268 1288
1268 1292
1268 1297
1268 1308
1268 1334
1268 1358
1268 1364
1268 1390
1268 1401
1268 1411
1268 1421
1268 1424
1268 1443
1268 1485
1268 1499
1268 1512
1268 1513
1268 1517
1268 1520
1268 1521
1268 1539
1268 1540
1268 1556
1268 1559
1268 1563
1268 1578
1268 1579
1268 1619
1268 1621
1268 1625
1268 1663
1268 1676
1268 1677
1268 1679
1268 1688
1268 1689
1268 1703
1268 1713
1268 1724
1268 1751
1268 1760
1268 1763
1268 1775
1268 1809
1268 1836
1268 1851
1268 1859
1268 1867
1268 1908
1268 1909
1268 1911
1268 1957
1268 1974
1268 1979
1268 1982
1268 1984
1268 1991
1268 1992
1268 1996
1268 2014
1268 2027
1268 2049
1268 2095
1268 2141
1268 2147
1268 2151
1268 2164
1268 2166
1268 2167
1268 2182
1268 2190
1268 2225
1268 2233
1268 2237
1268 2240
1268 2244
1268 2258
1268 2289
1268 2295
1268 2300
1268 2304
1268 2308
1269 1287
1269 1288
1269 1292
1269 1398
1269 1517
1269 1559
1269 1579
1269 1615
1269 1621
1269 1716
1269 1793
1269 1804
1269 1809
1269 1915
1269 1938
1269 1959
1269 2151
1269 2202
1269 2225
1269 2244
1269 2272
1270 1280
1270 1282
1270 1304
1270 1353
1270 1355
1270 1361
1270 1378
1270 1390
1270 1393
1270 1411
1270 1467
1270 1485
1270 1488
1270 1496
1270 1499
1270 1542
1270 1561
1270 1571
1270 1583
1270 1600
1270 1606
1270 1614
1270 1634
1270 1650
1270 1663
1270 1676
1270 1741
1270 1760
1270 1771
1270 1805
1270 1825
1270 1870
1270 1874
1270 1921
1270 1927
1270 1931
1270 1950
1270 1951
1270 1963
1270 1969
1270 1979
1270 2022
1270 2027
1270 2037
1270 2046
1270 2120
1270 2151
1270 2156
1270 2186
1270 2208
1270 2212
1270 2225
1270 2299
1271 1281
1271 1299
1271 1333
1271 1339
1271 1388
1271 1401
1271 1410
1271 1424
1271 1440
1271 1457
1271 1466
1271 1483
1271 1489
1271 1493
1271 1542
1271 1563
1271 1569
1271 1576
1271 1598
1271 1605
1271 1606
1271 1612
1271 1650
1271 1659
1271 1679
1271 1699
1271 1702
1271 1741
1271 1778
1271 1810
1271 1812
1271 1834
1271 1845
1271 1853
1271 1863
1271 1907
1271 1908
1271 1949
1271 1963
1271 1964
1271 2003
1271 2037
1271 2045
1271 2059
1271 2062
1271 2072
1271 2116
1271 2129
1271 2202
1271 2236
1271 2272
1271 2277
1271 2310
1272 1278
1272 1287
1272 1346
1272 1374
1272 1522
1272 1534
1272 1592
1272 1661
1272 1678
1272 1696
1272 1733
1272 1791
1272 1816
1272 1846
1272 1952
1272 2001
1272 2020
1272 2178
1272 2230
1273 1312
1273 1329
1273 1333
1273 1337
1273 1340
1273 1388
1273 1425
1273 1433
1273 1457
1273 1466
1273 1488
1273 1497
1273 1505
1273 1558
1273 1563
1273 1587
1273 1590
1273 1611
1273 1634
1273 1667
1273 1669
1273 1755
1273 1780
1273 1825
1273 1844
1273 1852
1273 1874
1273 1919
1273 1921
1273 1925
1273 1963
1273 1984
1273 2024
1273 2043
1273 2049
1273 2060
1273 2066
1273 2120
1273 2133
1273 2151
1273 2215
1273 2245
1273 2258
1273 2272
1273 2274
1273 2305
1274 1281
1274 1282
1274 1288
1274 1296
1274 1308
1274 1322
1274 1348
1274 1356
1274 1358
1274 1364
1274 1371
1274 1378
1274 1383
1274 1387
1274 1404
1274 1405
1274 1406
1274 1409
1274 1466
1274 1472
1274 1485
1274 1503
1274 1530
1274 1538
1274 1564
1274 1571
1274 1573
1274 1579
1274 1619
1274 1628
1274 1663
1274 1664
1274 1675
1274 1676
1274 1680
1274 1697
1274 1767
1274 1806
1274 1814
1274 1821
1274 1844
1274 1870
1274 1919
1274 1931
1274 1948
1274 1957
1274 1963
1274 1987
1274 2027
1274 2046
1274 2059
1274 2062
1274 2079
1274 2089
1274 2125
1274 2151
1274 2167
1274 2182
1274 2184
1274 2196
1274 2202
1274 2212
1274 2219
1274 2225
1274 2233
1274 2249
1274 2265
1274 2268
1274 2296
1274 2299
1274 2312
1275 1281
1275 1283
1275 1300
1275 1325
1275 1347
1275 1356
1275 1369
1275 1388
1275 1411
1275 1412
1275 1424
1275 1437
1275 1446
1275 1460
1275 1489
1275 1491
1275 1496
1275 1542
1275 1565
1275 1570
1275 1580
1275 1584
1275 1606
1275 1612
1275 1615
1275 1618
1275 1630
1275 1638
1275 1646
1275 1655
1275 1685
1275 1769
1275 1778
1275 1804
1275 1812
1275 1841
1275 1886
1275 1890
1275 1948
1275 1949
1275 1950
1275 1974
1275 1987
1275 1988
1275 2005
1275 2009
1275 2030
1275 2051
1275 2062
1275 2066
1275 2074
1275 2078
1275 2082
1275 2123
1275 2187
1275 2198
1275 2208
1275 2209
1275 2210
1275 2212
1275 2233
1275 2241
1275 2252
1275 2260
1275 2296
1276 1280
1276 1413
1276 1428
1276 1567
1276 1583
1276 1587
1276 1650
1276 1669
1276 1724
1276 1793
1276 1799
1276 1825
1276 1839
1276 1844
1276 1866
1276 1878
1276 1888
1276 1924
1276 1953
1276 1984
1276 2008
1276 2049
1276 2068
1276 2089
1276 2094
1276 2097
1276 2120
1276 2160
1276 2176
1276 2177
1276 2215
1276 2234
1276 2242
1276 2245
1276 2254
1276 2260
1276 2274
1277 1281
1277 1353
1277 1355
1277 1415
1277 1435
1277 1460
1277 1485
1277 1499
1277 1595
1277 1640
1277 1663
1277 1668
1277 1726
1277 1814
1277 1835
1277 1873
1277 1964
1277 2057
1277 2089
1277 2118
1277 2129
1278 1290
1278 1293
1278 1313
1278 1316
1278 1350
1278 1364
1278 1382
1278 1391
1278 1394
1278 1395
1278 1414
1278 1417
1278 1452
1278 1472
1278 1522
1278 1534
1278 1536
1278 1574
1278 1589
1278 1616
1278 1721
1278 1725
1278 1736
1278 1801
1278 1830
1278 1947
1278 1952
1278 2002
1278 2038
1278 2044
1278 2064
1278 2091
1278 2119
1278 2164
1278 2188
1278 2199
1278 2283
1278 2287
1278 2294
1279 1280
1279 1281
1279 1312
1279 1339
1279 1401
1279 1405
1279 1437
1279 1496
1279 1537
1279 1611
1279 1634
1279 1660
1279 1755
1279 1761
1279 1774
1279 1783
1279 1786
1279 1799
1279 1860
1279 1903
1279 1925
1279 1926
1279 1931
1279 1936
1279 1969
1279 1982
1279 2014
1279 2037
1279 2046
1279 2049
1279 2094
1279 2103
1279 2120
1279 2146
1279 2186
1279 2203
1279 2229
1279 2237
1279 2258
1279 2295
1280 1281
1280 1308
1280 1337
1280 1354
1280 1361
1280 1384
1280 1385
1280 1392
1280 1398
1280 1415
1280 1416
1280 1421
1280 1423
1280 1433
1280 1439
1280 1442
1280 1444
1280 1448
1280 1451
1280 1482
1280 1502
1280 1505
1280 1515
1280 1518
1280 1520
1280 1561
1280 1563
1280 1569
1280 1576
1280 1578
1280 1583
1280 1587
1280 1590
1280 1611
1280 1621
1280 1625
1280 1634
1280 1643
1280 1669
1280 1677
1280 1708
1280 1723
1280 1755
1280 1772
1280 1784
1280 1799
1280 1810
1280 1815
1280 1825
1280 1831
1280 1844
1280 1848
1280 1849
1280 1851
1280 1857
1280 1873
1280 1874
1280 1878
1280 1885
1280 1888
1280 1895
1280 1903
1280 1918
1280 1921
1280 1926
1280 1931
1280 1936
1280 1949
1280 1953
1280 1957
1280 1969
1280 1979
1280 1982
1280 1984
1280 1989
1280 2015
1280 2043
1280 2056
1280 2065
1280 2067
1280 2084
1280 2089
1280 2104
1280 2120
1280 2133
1280 2135
1280 2146
1280 2150
1280 2151
1280 2156
1280 2160
1280 2177
1280 2186
1280 2206
1280 2219
1280 2223
1280 2225
1280 2229
1280 2232
1280 2242
1280 2265
1280 2269
1280 2277
1280 2288
1281 1282
1281 1283
1281 1285
1281 1289
1281 1292
1281 1297
1281 1298
1281 1299
1281 1304
1281 1307
1281 1310
1281 1312
1281 1325
1281 1329
1281 1330
1281 1331
1281 1332
1281 1340
1281 1347
1281 1356
1281 1358
1281 1359
1281 1362
1281 1363
1281 1364
1281 1371
1281 1374
1281 1378
1281 1380
1281 1383
1281 1386
1281 1388
1281 1392
1281 1394
1281 1396
1281 1404
1281 1405
1281 1411
1281 1416
1281 1417
1281 1424
1281 1427
1281 1430
1281 1433
1281 1434
1281 1437
1281 1439
1281 1443
1281 1447
1281 1449
1281 1450
1281 1455
1281 1456
1281 1460
1281 1466
1281 1469
1281 1480
1281 1485
1281 1488
1281 1492
1281 1496
1281 1499
1281 1505
1281 1510
1281 1511
1281 1513
1281 1519
1281 1533
1281 1538
1281 1542
1281 1550
1281 1554
1281 1558
1281 1559
1281 1560
1281 1563
1281 1564
1281 1565
1281 1566
1281 1574
1281 1575
1281 1576
1281 1578
1281 1579
1281 1581
1281 1584
1281 1587
1281 1598
1281 1599
1281 1605
1281 1612
1281 1613
1281 1615
1281 1618
1281 1619
1281 1621
1281 1623
1281 1638
1281 1640
1281 1645
1281 1650
1281 1654
1281 1669
1281 1672
1281 1675
1281 1676
1281 1677
1281 1684
1281 1690
1281 1693
1281 1700
1281 1702
1281 1712
1281 1716
1281 1717
1281 1719
1281 1732
1281 1741
1281 1742
1281 1753
1281 1760
1281 1767
1281 1769
1281 1771
1281 1776
1281 1778
1281 1781
1281 1786
1281 1787
1281 1790
1281 1793
1281 1795
1281 1796
1281 1802
1281 1803
1281 1806
1281 1812
1281 1813
1281 1817
1281 1822
1281 1839
1281 1840
1281 1841
1281 1845
1281 1851
1281 1852
1281 1864
1281 1868
1281 1869
1281 1871
1281 1885
1281 1896
1281 1898
1281 1904
1281 1909
1281 1918
1281 1932
1281 1935
1281 1938
1281 1950
1281 1957
1281 1959
1281 1963
1281 1964
1281 1969
1281 1974
1281 1977
1281 1979
1281 1980
1281 1987
1281 1988
1281 1992
1281 1995
1281 1999
1281 2005
1281 2015
1281 2019
1281 2021
1281 2022
1281 2030
1281 2034
1281 2043
1281 2045
1281 2051
1281 2055
1281 2059
1281 2060
1281 2062
1281 2063
1281 2065
1281 2069
1281 2073
1281 2078
1281 2082
1281 2093
1281 2096
1281 2100
1281 2106
1281 2110
1281 2130
1281 2143
1281 2144
1281 2145
1281 2151
1281 2163
1281 2164
1281 2166
1281 2175
1281 2182
1281 2187
1281 2192
1281 2196
1281 2202
1281 2209
1281 2210
1281 2214
1281 2219
1281 2221
1281 2225
1281 2228
1281 2233
1281 2236
1281 2246
1281 2253
1281 2260
1281 2268
1281 2271
1281 2274
1281 2275
1281 2281
1281 2284
1281 2289
1281 2295
1281 2298
1281 2303
1281 2307
1281 2310
1281 2312
1282 1304
1282 1308
1282 1341
1282 1358
1282 1361
1282 1378
1282 1385
1282 1387
1282 1388
1282 1398
1282 1435
1282 1485
1282 1503
1282 1514
1282 1515
1282 1521
1282 1531
1282 1538
1282 1564
1282 1620
1282 1637
1282 1646
1282 1690
1282 1741
1282 1755
1282 1760
1282 1786
1282 1787
1282 1790
1282 1795
1282 1798
1282 1806
1282 1809
1282 1858
1282 1860
1282 1866
1282 1873
1282 1874
1282 1885
1282 1915
1282 1926
1282 1931
1282 1956
1282 1964
1282 1977
1282 1986
1282 2005
1282 2012
1282 2013
1282 2022
1282 2027
1282 2066
1282 2089
1282 2101
1282 2108
1282 2115
1282 2124
1282 2144
1282 2156
1282 2174
1282 2213
1282 2220
1282 2225
1282 2232
1282 2249
1282 2261
1282 2275
1282 2292
1282 2298
1283 1301
1283 1308
1283 1331
1283 1339
1283 1358
1283 1372
1283 1385
1283 1387
1283 1396
1283 1405
1283 1459
1283 1485
1283 1503
1283 1505
1283 1539
1283 1546
1283 1558
1283 1564
1283 1567
1283 1620
1283 1751
1283 1775
1283 1776
1283 1798
1283 1825
1283 1835
1283 1864
1283 1874
1283 1969
1283 2012
1283 2015
1283 2023
1283 2029
1283 2037
1283 2049
1283 2089
1283 2117
1283 2151
1283 2242
1283 2245
1283 2258
1283 2280
1283 2298
1283 2308
1284 1476
1284 1574
1284 1696
1284 1720
1284 1773
1284 1832
1284 2053
1285 1321
1285 1330
1285 1405
1285 1424
1285 1467
1285 1512
1285 1580
1285 1618
1285 1680
1285 1767
1285 1994
1285 2145
1285 2209
1285 2212
1285 2225
1286 1295
1286 1306
1286 1348
1286 1350
1286 1365
1286 1405
1286 1434
1286 1485
1286 1525
1286 1543
1286 1576
1286 1696
1286 1709
1286 1714
1286 1731
1286 1736
1286 1747
1286 1819
1286 1830
1286 1848
1286 1898
1286 2002
1286 2114
1286 2119
1286 2142
1286 2188
1287 1290
1287 1292
1287 1313
1287 1316
1287 1320
1287 1364
1287 1374
1287 1391
1287 1414
1287 1417
1287 1424
1287 1436
1287 1472
1287 1477
1287 1485
1287 1498
1287 1507
1287 1517
1287 1559
1287 1574
1287 1591
1287 1592
1287 1613
1287 1647
1287 1656
1287 1709
1287 1716
1287 1791
1287 1819
1287 1846
1287 1870
1287 1908
1287 1938
1287 2001
1287 2044
1287 2077
1287 2178
1288 1299
1288 1308
1288 1317
1288 1400
1288 1409
1288 1503
1288 1512
1288 1517
1288 1556
1288 1557
1288 1559
1288 1578
1288 1615
1288 1619
1288 1621
1288 1625
1288 1676
1288 1708
1288 1746
1288 1751
1288 1793
1288 1809
1288 1825
1288 1888
1288 1909
1288 1991
1288 1996
1288 2027
1288 2047
1288 2151
1288 2164
1288 2167
1288 2202
1288 2210
1288 2219
1288 2225
1288 2236
1288 2240
1288 2260
1288 2269
1288 2274
1288 2289
1289 1304
1289 1339
1289 1355
1289 1412
1289 1435
1289 1448
1289 1475
1289 1485
1289 1648
1289 1767
1289 1771
1289 1790
1289 1796
1289 1806
1289 1829
1289 1854
1289 1892
1289 1893
1289 1905
1289 1999
1289 2009
1289 2055
1289 2056
1289 2079
1289 2093
1289 2110
1289 2111
1289 2135
1289 2136
1289 2220
1289 2259
1289 2292
1289 2303
1289 2304
1290 1307
1290 1316
1290 1320
1290 1342
1290 1364
1290 1370
1290 1386
1290 1391
1290 1394
1290 1414
1290 1417
1290 1453
1290 1472
1290 1485
1290 1486
1290 1498
1290 1506
1290 1536
1290 1574
1290 1592
1290 1602
1290 1625
1290 1636
1290 1647
1290 1656
1290 1661
1290 1682
1290 1686
1290 1693
1290 1722
1290 1725
1290 1756
1290 1758
1290 1794
1290 1800
1290 1801
1290 1816
1290 1820
1290 1933
1290 1937
1290 1952
1290 2004
1290 2077
1290 2091
1290 2164
1290 2174
1290 2199
1290 2287
1291 1314
1291 1342
1291 1484
1291 1486
1291 1543
1291 1552
1291 1604
1291 1617
1291 1652
1291 1656
1291 1710
1291 1794
1291 1797
1291 1847
1291 1855
1291 1914
1291 1985
1291 2020
1291 2061
1291 2076
1291 2077
1291 2199
1292 1364
1292 1383
1292 1405
1292 1417
1292 1517
1292 1559
1292 1574
1292 1579
1292 1619
1292 1621
1292 1725
1292 1791
1292 1793
1292 1801
1292 1809
1292 1816
1292 1938
1292 1959
1292 2151
1292 2167
1292 2214
1292 2225
1292 2233
1293 1323
1293 1351
1293 1352
1293 1402
1293 1527
1293 1534
1293 1536
1293 1585
1293 1589
1293 1608
1293 1610
1293 1711
1293 1720
1293 1721
1293 1736
1293 1790
1293 1846
1293 1847
1293 1898
1293 1981
1293 2001
1293 2011
1293 2044
1293 2052
1293 2199
1293 2239
1293 2256
1293 2283
1293 2287
1294 1755
1295 1354
1295 1376
1295 1405
1295 1445
1295 1543
1295 1592
1295 1616
1295 1798
1295 1972
1295 2061
1295 2142
1295 2230
1296 1364
1296 1411
1296 1430
1296 1485
1296 1513
1296 1521
1296 1571
1296 1600
1296 1621
1296 1672
1296 1713
1296 1760
1296 1776
1296 1835
1296 1853
1296 1863
1296 1874
1296 1899
1296 1979
1296 1995
1296 2022
1296 2025
1296 2046
1296 2062
1296 2089
1296 2101
1296 2130
1296 2156
1296 2178
1296 2225
1296 2248
1296 2252
1296 2268
1296 2299
1297 1329
1297 1335
1297 1358
1297 1364
1297 1392
1297 1435
1297 1485
1297 1502
1297 1606
1297 1615
1297 1621
1297 1625
1297 1650
1297 1664
1297 1676
1297 1697
1297 1718
1297 1732
1297 1741
1297 1771
1297 1790
1297 1793
1297 1796
1297 1815
1297 1829
1297 1852
1297 1854
1297 1913
1297 1945
1297 1953
1297 1957
1297 1963
1297 1969
1297 1995
1297 2056
1297 2070
1297 2101
1297 2115
1297 2151
1297 2167
1297 2185
1297 2197
1297 2202
1297 2208
1297 2213
1297 2220
1297 2225
1297 2245
1297 2260
1297 2289
1297 2303
1298 1330
1298 1347
1298 1348
1298 1362
1298 1363
1298 1371
1298 1396
1298 1405
1298 1417
1298 1424
1298 1542
1298 1565
1298 1638
1298 1672
1298 1699
1298 1769
1298 1781
1298 1821
1298 1828
1298 1834
1298 1983
1298 2062
1298 2132
1298 2210
1298 2246
1298 2296
1299 1327
1299 1329
1299 1344
1299 1361
1299 1398
1299 1417
1299 1433
1299 1440
1299 1466
1299 1496
1299 1520
1299 1734
1299 1786
1299 1793
1299 1803
1299 1804
1299 1825
1299 1835
1299 1842
1299 1844
1299 1848
1299 1874
1299 1888
1299 1907
1299 1919
1299 1921
1299 1931
1299 1935
1299 1969
1299 1991
1299 2043
1299 2046
1299 2049
1299 2120
1299 2128
1299 2151
1299 2167
1299 2177
1299 2206
1299 2219
1299 2225
1299 2232
1299 2234
1299 2237
1299 2254
1299 2265
1299 2274
1300 1387
1300 1400
1300 1485
1300 1512
1300 1513
1300 1562
1300 1625
1300 1657
1300 1663
1300 1741
1300 1855
1300 1927
1300 1931
1300 1964
1300 1990
1300 2007
1300 2027
1300 2062
1300 2070
1300 2088
1300 2098
1300 2121
1300 2140
1300 2180
1300 2189
1300 2212
1300 2257
1300 2266
1301 1361
1301 1450
1301 1488
1301 1561
1301 1650
1301 1724
1301 1727
1301 1743
1301 1755
1301 1786
1301 1825
1301 1848
1301 1849
1301 1874
1301 1918
1301 1931
1301 1969
1301 2076
1301 2120
1301 2128
1301 2242
1301 2252
1301 2254
1301 2265
1301 2311
1302 1539
1302 1891
1302 1974
1302 2140
1302 2251
1303 1428
1303 1463
1303 1504
1303 1512
1303 1561
1303 1564
1303 1590
1303 1671
1303 1860
1303 1878
1303 1919
1303 1921
1303 1953
1303 1954
1303 1974
1303 1982
1303 2023
1303 2045
1303 2060
1303 2066
1303 2151
1303 2171
1303 2190
1303 2223
1303 2242
1303 2277
1303 2304
1304 1308
1304 1344
1304 1354
1304 1384
1304 1415
1304 1440
1304 1448
1304 1482
1304 1513
1304 1527
1304 1533
1304 1568
1304 1633
1304 1700
1304 1718
1304 1743
1304 1790
1304 1796
1304 1806
1304 1849
1304 1874
1304 1885
1304 1893
1304 1931
1304 1953
1304 1963
1304 1966
1304 1986
1304 2008
1304 2037
1304 2055
1304 2056
1304 2057
1304 2076
1304 2103
1304 2111
1304 2120
1304 2162
1304 2200
1304 2248
1304 2259
1304 2261
1304 2295
1305 1318
1305 1326
1305 1334
1305 1368
1305 1411
1305 1438
1305 1439
1305 1485
1305 1491
1305 1500
1305 1513
1305 1519
1305 1521
1305 1538
1305 1540
1305 1581
1305 1583
1305 1626
1305 1640
1305 1713
1305 1717
1305 1742
1305 1760
1305 1775
1305 1776
1305 1785
1305 1866
1305 1873
1305 1891
1305 1894
1305 1945
1305 1974
1305 1988
1305 2025
1305 2055
1305 2067
1305 2069
1305 2122
1305 2170
1305 2183
1305 2260
1306 1346
1306 1351
1306 1370
1306 1374
1306 1382
1306 1402
1306 1445
1306 1454
1306 1468
1306 1477
1306 1486
1306 1525
1306 1527
1306 1534
1306 1538
1306 1543
1306 1552
1306 1563
1306 1582
1306 1589
1306 1591
1306 1592
1306 1604
1306 1610
1306 1613
1306 1648
1306 1665
1306 1696
1306 1711
1306 1720
1306 1731
1306 1733
1306 1736
1306 1757
1306 1759
1306 1797
1306 1819
1306 1824
1306 1830
1306 1832
1306 1846
1306 1847
1306 1861
1306 1873
1306 1898
1306 1934
1306 1947
1306 1981
1306 1985
1306 2001
1306 2028
1306 2038
1306 2043
1306 2044
1306 2064
1306 2120
1306 2142
1306 2153
1306 2173
1306 2199
1306 2207
1306 2256
1306 2287
1306 2297
1307 1320
1307 1342
1307 1364
1307 1394
1307 1417
1307 1472
1307 1534
1307 1536
1307 1574
1307 1579
1307 1613
1307 1621
1307 1656
1307 1801
1307 1846
1307 1938
1307 2080
1308 1318
1308 1325
1308 1332
1308 1335
1308 1339
1308 1355
1308 1361
1308 1372
1308 1375
1308 1401
1308 1404
1308 1407
1308 1410
1308 1419
1308 1421
1308 1425
1308 1429
1308 1434
1308 1439
1308 1444
1308 1451
1308 1458
1308 1482
1308 1502
1308 1503
1308 1512
1308 1523
1308 1535
1308 1537
1308 1546
1308 1558
1308 1563
1308 1564
1308 1566
1308 1574
1308 1579
1308 1581
1308 1583
1308 1590
1308 1594
1308 1611
1308 1625
1308 1629
1308 1630
1308 1633
1308 1634
1308 1646
1308 1650
1308 1660
1308 1669
1308 1671
1308 1676
1308 1697
1308 1700
1308 1708
1308 1715
1308 1717
1308 1723
1308 1751
1308 1752
1308 1760
1308 1776
1308 1782
1308 1785
1308 1792
1308 1796
1308 1798
1308 1799
1308 1804
1308 1805
1308 1831
1308 1834
1308 1844
1308 1859
1308 1863
1308 1864
1308 1870
1308 1879
1308 1883
1308 1891
1308 1908
1308 1910
1308 1920
1308 1921
1308 1926
1308 1950
1308 1953
1308 1954
1308 1963
1308 1966
1308 1967
1308 1969
1308 1975
1308 1980
1308 1983
1308 1987
1308 1995
1308 2007
1308 2015
1308 2017
1308 2021
1308 2023
1308 2037
1308 2045
1308 2049
1308 2060
1308 2067
1308 2070
1308 2089
1308 2104
1308 2115
1308 2116
1308 2117
1308 2120
1308 2138
1308 2147
1308 2151
1308 2156
1308 2163
1308 2195
1308 2225
1308 2227
1308 2245
1308 2252
1308 2258
1308 2260
1308 2269
1308 2273
1308 2274
1308 2280
1308 2287
1308 2289
1308 2295
1308 2298
1308 2310
1309 1337
1309 1345
1309 1361
1309 1385
1309 1398
1309 1417
1309 1444
1309 1483
1309 1488
1309 1489
1309 1493
1309 1515
1309 1561
1309 1563
1309 1576
1309 1755
1309 1786
1309 1804
1309 1812
1309 1818
1309 1840
1309 1848
1309 1852
1309 1915
1309 1918
1309 1921
1309 1932
1309 1949
1309 1953
1309 1956
1309 1977
1309 1980
1309 1982
1309 2013
1309 2086
1309 2099
1309 2104
1309 2120
1309 2134
1309 2144
1309 2150
1309 2265
1309 2288
1309 2304
1309 2306
1310 1364
1310 1399
1310 1400
1310 1411
1310 1424
1310 1485
1310 1579
1310 1621
1310 1664
1310 1672
1310 1793
1310 1828
1310 1880
1310 2027
1310 2166
1310 2196
1310 2210
1310 2271
1310 2289
1311 1355
1311 1595
1311 1598
1311 1713
1311 1783
1311 1873
1311 1964
1311 1986
1311 1992
1311 2046
1311 2081
1311 2094
1311 2103
1311 2175
1311 2213
1311 2236
1312 1388
1312 1405
1312 1410
1312 1424
1312 1433
1312 1437
1312 1466
1312 1488
1312 1511
1312 1563
1312 1566
1312 1576
1312 1579
1312 1606
1312 1615
1312 1684
1312 1716
1312 1787
1312 1802
1312 1812
1312 1813
1312 1834
1312 1852
1312 1869
1312 1896
1312 1906
1312 1907
1312 1918
1312 1919
1312 1949
1312 1963
1312 1995
1312 2013
1312 2060
1312 2069
1312 2073
1312 2074
1312 2086
1312 2112
1312 2191
1312 2195
1312 2210
1312 2295
1312 2312
1313 1374
1313 1402
1313 1417
1313 1509
1313 1534
1313 1589
1313 1592
1313 1610
1313 1739
1313 1756
1313 1757
1313 1847
1313 1861
1313 1875
1313 1981
1313 2001
1313 2018
1313 2044
1313 2077
1313 2199
1313 2218
1313 2239
1313 2294
1314 1604
1314 1613
1314 1652
1314 1719
1314 1794
1314 1797
1314 1890
1314 2004
1314 2044
1314 2080
1315 1331
1315 1378
1315 1384
1315 1406
1315 1446
1315 1530
1315 1539
1315 1546
1315 1582
1315 1595
1315 1620
1315 1717
1315 1739
1315 1762
1315 1843
1315 1858
1315 1860
1315 1879
1315 1928
1315 1933
1315 1962
1315 1963
1315 1999
1315 2029
1315 2105
1315 2115
1315 2139
1315 2143
1315 2175
1315 2182
1315 2197
1315 2221
1315 2249
1315 2259
1315 2264
1315 2301
1315 2303
1316 1342
1316 1386
1316 1391
1316 1394
1316 1417
1316 1472
1316 1485
1316 1602
1316 1656
1316 1711
1316 1720
1316 1722
1316 1725
1316 1801
1316 1816
1316 1830
1316 1892
1316 1938
1316 2199
1317 1421
1317 1793
1317 1963
1317 2023
1317 2089
1318 1378
1318 1390
1318 1401
1318 1415
1318 1438
1318 1439
1318 1444
1318 1451
1318 1482
1318 1500
1318 1502
1318 1519
1318 1521
1318 1537
1318 1538
1318 1540
1318 1578
1318 1581
1318 1583
1318 1626
1318 1630
1318 1663
1318 1751
1318 1785
1318 1799
1318 1825
1318 1831
1318 1854
1318 1871
1318 1873
1318 1891
1318 1897
1318 1926
1318 1931
1318 1941
1318 1974
1318 1992
1318 2012
1318 2025
1318 2138
1319 1820
1319 1902
1319 2041
1319 2091
1320 1342
1320 1364
1320 1370
1320 1391
1320 1394
1320 1417
1320 1472
1320 1536
1320 1574
1320 1602
1320 1625
1320 1656
1320 1722
1320 1725
1320 1797
1320 1801
1320 1816
1320 1898
1320 1952
1320 2011
1320 2044
1320 2077
1320 2164
1320 2174
1320 2199
1320 2287
1321 1362
1321 1364
1321 1383
1321 1584
1321 1594
1321 1680
1321 1699
1321 1767
1321 2059
1321 2145
1322 1549
1322 1577
1322 1881
1322 1968
1322 2121
1322 2172
1322 2189
1323 1385
1323 1434
1323 1437
1323 1513
1323 1563
1323 1576
1323 1605
1323 1679
1323 1690
1323 1702
1323 1711
1323 1802
1323 1824
1323 1834
1323 1852
1323 1869
1323 1896
1323 1919
1323 1963
1323 2045
1323 2065
1323 2073
1323 2074
1323 2123
1323 2195
1323 2202
1323 2295
1324 1369
1324 1675
1324 1999
1324 2089
1324 2139
1324 2182
1324 2249
1324 2301
1325 1355
1325 1364
1325 1369
1325 1400
1325 1404
1325 1424
1325 1435
1325 1449
1325 1460
1325 1521
1325 1560
1325 1564
1325 1570
1325 1628
1325 1723
1325 1760
1325 1798
1325 1873
1325 1928
1325 1948
1325 1979
1325 1999
1325 2022
1325 2057
1325 2073
1325 2130
1325 2196
1325 2198
1325 2213
1325 2225
1325 2252
1325 2292
1325 2307
1326 1387
1326 1394
1326 1399
1326 1411
1326 1491
1326 1500
1326 1513
1326 1521
1326 1538
1326 1540
1326 1554
1326 1620
1326 1626
1326 1668
1326 1738
1326 1760
1326 1775
1326 1806
1326 1871
1326 1891
1326 1894
1326 1990
1326 2016
1326 2017
1326 2025
1326 2027
1326 2055
1326 2067
1326 2069
1326 2079
1326 2183
1327 1354
1327 1496
1327 1539
1327 1546
1327 1572
1327 1634
1327 1663
1327 1774
1327 1786
1327 1799
1327 1874
1327 1903
1327 1904
1327 1925
1327 1931
1327 1969
1327 1984
1327 1991
1327 2008
1327 2081
1327 2089
1327 2120
1327 2172
1327 2227
1327 2237
1327 2276
1329 1337
1329 1340
1329 1358
1329 1363
1329 1428
1329 1430
1329 1439
1329 1442
1329 1482
1329 1497
1329 1505
1329 1510
1329 1567
1329 1581
1329 1590
1329 1669
1329 1706
1329 1727
1329 1730
1329 1776
1329 1783
1329 1787
1329 1789
1329 1793
1329 1825
1329 1839
1329 1844
1329 1849
1329 1859
1329 1888
1329 1911
1329 1931
1329 1936
1329 1957
1329 2046
1329 2068
1329 2084
1329 2097
1329 2103
1329 2113
1329 2129
1329 2133
1329 2150
1329 2168
1329 2177
1329 2206
1329 2211
1329 2215
1329 2223
1329 2232
1329 2237
1329 2242
1329 2245
1329 2249
1329 2254
1329 2260
1330 1331
1330 1332
1330 1334
1330 1347
1330 1373
1330 1384
1330 1387
1330 1405
1330 1424
1330 1491
1330 1492
1330 1511
1330 1542
1330 1544
1330 1550
1330 1554
1330 1565
1330 1638
1330 1672
1330 1699
1330 1769
1330 1781
1330 1824
1330 1858
1330 1900
1330 1963
1330 1999
1330 2016
1330 2051
1330 2069
1330 2093
1330 2132
1330 2143
1330 2187
1330 2202
1331 1334
1331 1348
1331 1371
1331 1373
1331 1385
1331 1396
1331 1405
1331 1550
1331 1563
1331 1566
1331 1587
1331 1612
1331 1645
1331 1646
1331 1716
1331 1802
1331 1804
1331 1907
1331 1949
1331 1956
1331 1963
1331 1977
1331 1980
1331 1999
1331 2029
1331 2062
1331 2093
1331 2104
1331 2163
1331 2192
1331 2303
1332 1341
1332 1368
1332 1371
1332 1392
1332 1396
1332 1404
1332 1405
1332 1411
1332 1420
1332 1424
1332 1427
1332 1455
1332 1469
1332 1471
1332 1473
1332 1487
1332 1489
1332 1492
1332 1513
1332 1542
1332 1559
1332 1565
1332 1566
1332 1579
1332 1586
1332 1605
1332 1612
1332 1672
1332 1693
1332 1697
1332 1700
1332 1706
1332 1716
1332 1741
1332 1745
1332 1778
1332 1781
1332 1806
1332 1822
1332 1864
1332 1869
1332 1906
1332 1964
1332 1985
1332 1988
1332 1999
1332 2030
1332 2034
1332 2058
1332 2082
1332 2143
1332 2147
1332 2159
1332 2164
1332 2196
1332 2210
1332 2233
1332 2272
1332 2273
1332 2284
1332 2296
1333 1348
1333 1451
1333 1457
1333 1466
1333 1483
1333 1563
1333 1576
1333 1593
1333 1690
1333 1702
1333 1724
1333 1771
1333 1779
1333 1812
1333 1825
1333 1834
1333 1840
1333 1845
1333 1848
1333 1907
1333 1910
1333 1918
1333 1921
1333 1924
1333 1931
1333 1949
1333 1974
1333 1998
1333 2024
1333 2045
1333 2051
1333 2058
1333 2059
1333 2060
1333 2062
1333 2072
1333 2074
1333 2097
1333 2156
1333 2168
1333 2176
1333 2232
1333 2234
1333 2251
1334 1344
1334 1363
1334 1377
1334 1378
1334 1380
1334 1387
1334 1411
1334 1424
1334 1429
1334 1460
1334 1477
1334 1502
1334 1512
1334 1521
1334 1554
1334 1568
1334 1612
1334 1620
1334 1629
1334 1640
1334 1672
1334 1675
1334 1718
1334 1742
1334 1804
1334 1829
1334 1843
1334 1886
1334 1922
1334 1962
1334 1974
1334 1986
1334 1994
1334 2008
1334 2036
1334 2058
1334 2075
1334 2087
1334 2106
1334 2110
1334 2122
1334 2147
1334 2156
1334 2172
1334 2174
1334 2187
1334 2202
1334 2249
1334 2271
1334 2273
1334 2301
1334 2303
1334 2308
1335 1355
1335 1419
1335 1451
1335 1458
1335 1485
1335 1512
1335 1523
1335 1535
1335 1537
1335 1544
1335 1547
1335 1578
1335 1621
1335 1630
1335 1741
1335 1743
1335 1751
1335 1760
1335 1774
1335 1782
1335 1790
1335 1803
1335 1805
1335 1829
1335 1836
1335 1872
1335 1874
1335 1883
1335 1896
1335 1913
1335 1915
1335 1950
1335 1967
1335 1979
1335 1987
1335 1995
1335 2021
1335 2030
1335 2037
1335 2070
1335 2073
1335 2079
1335 2111
1335 2115
1335 2128
1335 2195
1335 2220
1336 1430
1336 1435
1336 1521
1336 1606
1336 1640
1336 1880
1336 1913
1336 1916
1336 1971
1336 1974
1336 1995
1336 2043
1336 2110
1336 2115
1336 2175
1336 2225
1337 1361
1337 1385
1337 1398
1337 1416
1337 1425
1337 1439
1337 1444
1337 1459
1337 1482
1337 1502
1337 1515
1337 1558
1337 1561
1337 1563
1337 1567
1337 1576
1337 1581
1337 1583
1337 1590
1337 1637
1337 1639
1337 1667
1337 1669
1337 1703
1337 1708
1337 1717
1337 1728
1337 1746
1337 1753
1337 1755
1337 1765
1337 1784
1337 1786
1337 1792
1337 1825
1337 1831
1337 1845
1337 1848
1337 1849
1337 1851
1337 1879
1337 1888
1337 1911
1337 1921
1337 1931
1337 1949
1337 1951
1337 1977
1337 1982
1337 1984
1337 1989
1337 2039
1337 2046
1337 2049
1337 2066
1337 2084
1337 2089
1337 2104
1337 2133
1337 2146
1337 2150
1337 2151
1337 2156
1337 2160
1337 2177
1337 2206
1337 2242
1337 2245
1337 2255
1337 2260
1337 2261
1337 2265
1337 2267
1338 1408
1338 1507
1338 1636
1338 1665
1338 1705
1338 1819
1338 1988
1338 2009
1338 2155
1339 1344
1339 1360
1339 1372
1339 1378
1339 1451
1339 1482
1339 1485
1339 1503
1339 1520
1339 1529
1339 1537
1339 1549
1339 1564
1339 1688
1339 1703
1339 1743
1339 1777
1339 1799
1339 1806
1339 1876
1339 1891
1339 1928
1339 1967
1339 2017
1339 2027
1339 2127
1339 2129
1339 2135
1339 2222
1339 2225
1339 2237
1339 2259
1339 2292
1339 2298
1340 1416
1340 1425
1340 1430
1340 1433
1340 1437
1340 1442
1340 1450
1340 1488
1340 1497
1340 1502
1340 1505
1340 1510
1340 1558
1340 1583
1340 1590
1340 1611
1340 1650
1340 1667
1340 1669
1340 1730
1340 1734
1340 1779
1340 1786
1340 1787
1340 1812
1340 1813
1340 1825
1340 1840
1340 1844
1340 1848
1340 1853
1340 1874
1340 1882
1340 1917
1340 1921
1340 1931
1340 1935
1340 1936
1340 1982
1340 2021
1340 2024
1340 2049
1340 2066
1340 2089
1340 2113
1340 2120
1340 2133
1340 2146
1340 2150
1340 2160
1340 2168
1340 2177
1340 2185
1340 2206
1340 2215
1340 2234
1340 2242
1340 2254
1340 2260
1340 2261
1341 1355
1341 1513
1341 1580
1341 1594
1341 1623
1341 1723
1341 1806
1341 1873
1341 1883
1341 1900
1341 1928
1341 1966
1341 1988
1341 2005
1341 2115
1341 2198
1341 2202
1341 2292
1342 1364
1342 1365
1342 1370
1342 1394
1342 1417
1342 1472
1342 1552
1342 1574
1342 1610
1342 1617
1342 1656
1342 1722
1342 1725
1342 1794
1342 1801
1342 1816
1342 1855
1342 1914
1342 1952
1342 2061
1342 2164
1342 2199
1343 1459
1343 1485
1343 1518
1343 1671
1343 1715
1343 1717
1343 1844
1343 1908
1343 1951
1343 1991
1343 2122
1343 2185
1343 2237
1343 2261
1343 2274
1344 1415
1344 1482
1344 1512
1344 1520
1344 1554
1344 1561
1344 1569
1344 1586
1344 1620
1344 1700
1344 1703
1344 1741
1344 1743
1344 1769
1344 1770
1344 1781
1344 1796
1344 1806
1344 1821
1344 1849
1344 1851
1344 1872
1344 1887
1344 1909
1344 1966
1344 2016
1344 2027
1344 2056
1344 2067
1344 2087
1344 2159
1344 2242
1344 2261
1344 2264
1344 2265
1344 2271
1345 1375
1345 1414
1345 1425
1345 1512
1345 1513
1345 1514
1345 1564
1345 1588
1345 1590
1345 1677
1345 1697
1345 1793
1345 1827
1345 1919
1345 1939
1345 1953
1345 1954
1345 1956
1345 2024
1345 2037
1345 2060
1345 2068
1345 2128
1345 2151
1345 2156
1345 2171
1345 2190
1345 2204
1345 2219
1345 2234
1345 2244
1345 2263
1345 2277
1345 2304
1345 2311
1346 1386
1346 1412
1346 1445
1346 1461
1346 1477
1346 1552
1346 1574
1346 1613
1346 1650
1346 1661
1346 1721
1346 1757
1346 1846
1346 1892
1346 1947
1346 1970
1346 2001
1346 2004
1346 2044
1347 1392
1347 1405
1347 1406
1347 1424
1347 1443
1347 1489
1347 1491
1347 1492
1347 1521
1347 1542
1347 1570
1347 1599
1347 1674
1347 1685
1347 1716
1347 1873
1347 1955
1347 1999
1347 2051
1347 2062
1347 2143
1347 2174
1347 2192
1347 2198
1347 2233
1347 2309
1348 1355
1348 1357
1348 1371
1348 1373
1348 1378
1348 1392
1348 1398
1348 1424
1348 1429
1348 1443
1348 1449
1348 1455
1348 1466
1348 1485
1348 1511
1348 1513
1348 1520
1348 1521
1348 1539
1348 1546
1348 1550
1348 1566
1348 1576
1348 1586
1348 1606
1348 1665
1348 1676
1348 1679
1348 1684
1348 1696
1348 1702
1348 1709
1348 1763
1348 1769
1348 1778
1348 1799
1348 1802
1348 1804
1348 1812
1348 1815
1348 1828
1348 1834
1348 1840
1348 1869
1348 1886
1348 1894
1348 1920
1348 1963
1348 1974
1348 1980
1348 2003
1348 2034
1348 2043
1348 2058
1348 2059
1348 2062
1348 2073
1348 2082
1348 2088
1348 2116
1348 2144
1348 2190
1348 2191
1348 2228
1348 2251
1348 2273
1348 2289
1348 2296
1348 2310
1348 2312
1349 1532
1349 1582
1349 1589
1349 1592
1349 2013
1349 2038
1349 2155
1349 2188
1350 1469
1350 1525
1350 1736
1350 1819
1350 1830
1350 1873
1350 1875
1350 1902
1350 1963
1350 1970
1350 2001
1350 2152
1350 2239
1350 2304
1351 1402
1351 1441
1351 1452
1351 1477
1351 1507
1351 1527
1351 1534
1351 1536
1351 1543
1351 1552
1351 1589
1351 1592
1351 1610
1351 1696
1351 1706
1351 1711
1351 1721
1351 1736
1351 1756
1351 1758
1351 1830
1351 1846
1351 1938
1351 1943
1351 1981
1351 2001
1351 2002
1351 2004
1351 2044
1351 2077
1351 2080
1351 2199
1351 2218
1351 2287
1352 1396
1352 1406
1352 1415
1352 1469
1352 1483
1352 1493
1352 1504
1352 1508
1352 1540
1352 1554
1352 1606
1352 1671
1352 1679
1352 1693
1352 1713
1352 1717
1352 1726
1352 1790
1352 1803
1352 1818
1352 1860
1352 1873
1352 1893
1352 1903
1352 1947
1352 1953
1352 1954
1352 2048
1352 2055
1352 2116
1352 2134
1352 2144
1352 2151
1352 2163
1352 2203
1352 2220
1352 2223
1352 2227
1352 2269
1352 2277
1352 2295
1353 1355
1353 1499
1353 1564
1353 1663
1353 1668
1353 1741
1353 2057
1353 2129
1354 1376
1354 1425
1354 1445
1354 1448
1354 1451
1354 1459
1354 1482
1354 1493
1354 1495
1354 1518
1354 1520
1354 1537
1354 1557
1354 1580
1354 1586
1354 1590
1354 1611
1354 1616
1354 1634
1354 1643
1354 1648
1354 1658
1354 1667
1354 1684
1354 1727
1354 1772
1354 1798
1354 1799
1354 1825
1354 1834
1354 1845
1354 1849
1354 1854
1354 1864
1354 1883
1354 1903
1354 1951
1354 1999
1354 2017
1354 2025
1354 2048
1354 2060
1354 2066
1354 2067
1354 2100
1354 2186
1354 2200
1354 2203
1354 2232
1354 2235
1354 2255
1354 2261
1354 2276
1354 2286
1354 2295
1354 2304
1355 1358
1355 1364
1355 1373
1355 1392
1355 1404
1355 1406
1355 1411
1355 1424
1355 1427
1355 1429
1355 1435
1355 1460
1355 1485
1355 1491
1355 1512
1355 1513
1355 1521
1355 1523
1355 1539
1355 1546
1355 1560
1355 1566
1355 1579
1355 1580
1355 1594
1355 1595
1355 1598
1355 1606
1355 1625
1355 1630
1355 1637
1355 1640
1355 1657
1355 1697
1355 1702
1355 1713
1355 1741
1355 1743
1355 1760
1355 1762
1355 1776
1355 1782
1355 1790
1355 1799
1355 1804
1355 1806
1355 1829
1355 1834
1355 1835
1355 1853
1355 1858
1355 1864
1355 1868
1355 1872
1355 1873
1355 1879
1355 1883
1355 1894
1355 1897
1355 1915
1355 1916
1355 1927
1355 1928
1355 1958
1355 1959
1355 1962
1355 1964
1355 1967
1355 1974
1355 1975
1355 1979
1355 1986
1355 1987
1355 1995
1355 2005
1355 2022
1355 2036
1355 2037
1355 2070
1355 2073
1355 2074
1355 2081
1355 2082
1355 2108
1355 2115
1355 2116
1355 2123
1355 2124
1355 2127
1355 2143
1355 2147
1355 2163
1355 2181
1355 2195
1355 2196
1355 2197
1355 2213
1355 2236
1355 2240
1355 2251
1355 2252
1355 2289
1355 2292
1355 2295
1355 2306
1356 1405
1356 1411
1356 1449
1356 1480
1356 1565
1356 1580
1356 1628
1356 1767
1356 1870
1356 2143
1356 2175
1356 2209
1356 2268
1356 2312
1357 1390
1357 1398
1357 1417
1357 1466
1357 1573
1357 1588
1357 1676
1357 1677
1357 1679
1357 1754
1357 1980
1357 2024
1357 2112
1357 2147
1357 2151
1357 2191
1357 2204
1357 2244
1358 1364
1358 1378
1358 1387
1358 1400
1358 1401
1358 1413
1358 1415
1358 1416
1358 1423
1358 1444
1358 1503
1358 1515
1358 1520
1358 1535
1358 1538
1358 1556
1358 1559
1358 1562
1358 1564
1358 1566
1358 1578
1358 1579
1358 1598
1358 1601
1358 1615
1358 1619
1358 1621
1358 1654
1358 1663
1358 1676
1358 1679
1358 1683
1358 1697
1358 1717
1358 1726
1358 1746
1358 1750
1358 1774
1358 1776
1358 1793
1358 1796
1358 1806
1358 1809
1358 1821
1358 1837
1358 1873
1358 1874
1358 1915
1358 1921
1358 1931
1358 1950
1358 1963
1358 1992
1358 1996
1358 2007
1358 2012
1358 2017
1358 2027
1358 2047
1358 2060
1358 2095
1358 2127
1358 2138
1358 2150
1358 2151
1358 2161
1358 2164
1358 2166
1358 2167
1358 2182
1358 2202
1358 2210
1358 2212
1358 2214
1358 2222
1358 2225
1358 2240
1358 2269
1358 2298
1358 2300
1358 2308
1359 1405
1359 1447
1359 1579
1359 2130
1359 2233
1360 1372
1360 1556
1360 2015
1360 2017
1360 2182
1361 1366
1361 1398
1361 1403
1361 1416
1361 1433
1361 1440
1361 1444
1361 1450
1361 1488
1361 1493
1361 1497
1361 1504
1361 1508
1361 1515
1361 1561
1361 1563
1361 1566
1361 1576
1361 1650
1361 1677
1361 1708
1361 1721
1361 1755
1361 1786
1361 1787
1361 1803
1361 1806
1361 1812
1361 1813
1361 1818
1361 1825
1361 1848
1361 1874
1361 1888
1361 1911
1361 1921
1361 1931
1361 1935
1361 1949
1361 1953
1361 1956
1361 1969
1361 1977
1361 1982
1361 1984
1361 1989
1361 2049
1361 2055
1361 2120
1361 2128
1361 2133
1361 2134
1361 2144
1361 2149
1361 2150
1361 2154
1361 2156
1361 2160
1361 2177
1361 2204
1361 2227
1361 2232
1361 2234
1361 2242
1361 2252
1361 2265
1361 2306
1362 1383
1362 1405
1362 1480
1362 1485
1362 1494
1362 1501
1362 1579
1362 1584
1362 1594
1362 1615
1362 1623
1362 1680
1362 1683
1362 1741
1362 1828
1362 1880
1362 1896
1362 1901
1362 1915
1362 2005
1362 2030
1362 2062
1362 2125
1362 2129
1362 2145
1362 2164
1362 2209
1362 2210
1362 2214
1362 2233
1362 2312
1363 1411
1363 1448
1363 1466
1363 1487
1363 1538
1363 1670
1363 1676
1363 1697
1363 1771
1363 1852
1363 1899
1363 1919
1363 1949
1363 1953
1363 1963
1363 1974
1363 1982
1363 2060
1363 2073
1363 2074
1363 2123
1363 2163
1363 2166
1363 2220
1363 2245
1363 2252
1364 1380
1364 1387
1364 1391
1364 1394
1364 1400
1364 1405
1364 1409
1364 1417
1364 1424
1364 1435
1364 1440
1364 1456
1364 1472
1364 1473
1364 1485
1364 1491
1364 1499
1364 1531
1364 1550
1364 1556
1364 1562
1364 1572
1364 1574
1364 1586
1364 1594
1364 1599
1364 1602
1364 1615
1364 1621
1364 1623
1364 1625
1364 1633
1364 1656
1364 1659
1364 1663
1364 1664
1364 1676
1364 1680
1364 1683
1364 1722
1364 1725
1364 1741
1364 1760
1364 1767
1364 1793
1364 1795
1364 1801
1364 1805
1364 1809
1364 1815
1364 1816
1364 1821
1364 1844
1364 1846
1364 1864
1364 1870
1364 1873
1364 1886
1364 1894
1364 1896
1364 1909
1364 1952
1364 1958
1364 1963
1364 1964
1364 1974
1364 1983
1364 1993
1364 2027
1364 2040
1364 2079
1364 2096
1364 2098
1364 2108
1364 2115
1364 2116
1364 2125
1364 2130
1364 2145
1364 2151
1364 2161
1364 2164
1364 2166
1364 2167
1364 2174
1364 2187
1364 2190
1364 2193
1364 2196
1364 2199
1364 2202
1364 2209
1364 2210
1364 2212
1364 2214
1364 2225
1364 2233
1364 2268
1364 2271
1364 2284
1364 2289
1364 2299
1364 2303
1364 2307
1365 1374
1365 1386
1365 1477
1365 1486
1365 1525
1365 1536
1365 1543
1365 1552
1365 1617
1365 1651
1365 1652
1365 1714
1365 1720
1365 1721
1365 1819
1365 1846
1365 1847
1365 1898
1365 1914
1365 1935
1365 1981
1365 2002
1365 2044
1365 2061
1365 2137
1365 2142
1365 2152
1365 2228
1365 2239
1365 2302
1366 1440
1366 1528
1366 1567
1366 1587
1366 1779
1366 1799
1366 1803
1366 1810
1366 1848
1366 1874
1366 1878
1366 1924
1366 1935
1366 1953
1366 2008
1366 2013
1366 2024
1366 2037
1366 2068
1366 2094
1366 2109
1366 2112
1366 2128
1366 2148
1366 2171
1366 2176
1366 2204
1366 2234
1366 2242
1366 2244
1366 2263
1366 2265
1367 1766
1367 1856
1367 2135
1367 2277
1368 1387
1368 1392
1368 1401
1368 1404
1368 1432
1368 1439
1368 1448
1368 1469
1368 1471
1368 1502
1368 1519
1368 1533
1368 1557
1368 1564
1368 1581
1368 1583
1368 1632
1368 1639
1368 1700
1368 1723
1368 1745
1368 1775
1368 1798
1368 1806
1368 1825
1368 1842
1368 1864
1368 1866
1368 1879
1368 1910
1368 1945
1368 1986
1368 2008
1368 2036
1368 2197
1368 2221
1368 2260
1368 2284
1368 2298
1369 1485
1369 1680
1369 1683
1369 1767
1369 1870
1369 1873
1369 2007
1369 2292
1370 1445
1370 1472
1370 1555
1370 1678
1370 1883
1370 1933
1371 1373
1371 1378
1371 1384
1371 1385
1371 1392
1371 1411
1371 1415
1371 1424
1371 1427
1371 1429
1371 1432
1371 1437
1371 1457
1371 1469
1371 1487
1371 1492
1371 1511
1371 1533
1371 1550
1371 1563
1371 1566
1371 1568
1371 1576
1371 1586
1371 1606
1371 1612
1371 1633
1371 1638
1371 1645
1371 1655
1371 1684
1371 1699
1371 1709
1371 1718
1371 1759
1371 1764
1371 1778
1371 1780
1371 1798
1371 1802
1371 1815
1371 1819
1371 1824
1371 1828
1371 1844
1371 1845
1371 1852
1371 1866
1371 1869
1371 1879
1371 1886
1371 1900
1371 1907
1371 1910
1371 1919
1371 1920
1371 1928
1371 1963
1371 1966
1371 1999
1371 2029
1371 2034
1371 2043
1371 2045
1371 2056
1371 2058
1371 2059
1371 2060
1371 2062
1371 2073
1371 2075
1371 2079
1371 2093
1371 2143
1371 2162
1371 2195
1371 2246
1371 2273
1371 2275
1371 2284
1371 2296
1372 1387
1372 1485
1372 1496
1372 1518
1372 1540
1372 1679
1372 1717
1372 1746
1372 1752
1372 1776
1372 1783
1372 1809
1372 1873
1372 1885
1372 1908
1372 1928
1372 1957
1372 2015
1372 2023
1372 2027
1372 2103
1372 2124
1372 2135
1372 2182
1372 2212
1372 2222
1372 2237
1372 2245
1372 2249
1372 2258
1372 2274
1373 1396
1373 1405
1373 1424
1373 1429
1373 1492
1373 1521
1373 1539
1373 1546
1373 1550
1373 1565
1373 1566
1373 1598
1373 1599
1373 1655
1373 1670
1373 1693
1373 1709
1373 1763
1373 1802
1373 1834
1373 1891
1373 1900
1373 1907
1373 1910
1373 1963
1373 1974
1373 1999
1373 2029
1373 2043
1373 2058
1373 2059
1373 2073
1373 2075
1373 2082
1373 2093
1373 2143
1373 2147
1373 2187
1373 2190
1373 2229
1373 2251
1373 2296
1374 1381
1374 1402
1374 1445
1374 1452
1374 1461
1374 1477
1374 1486
1374 1522
1374 1525
1374 1527
1374 1534
1374 1536
1374 1551
1374 1552
1374 1574
1374 1589
1374 1591
1374 1592
1374 1604
1374 1608
1374 1610
1374 1613
1374 1616
1374 1658
1374 1661
1374 1665
1374 1666
1374 1678
1374 1695
1374 1696
1374 1711
1374 1720
1374 1721
1374 1729
1374 1736
1374 1756
1374 1816
1374 1819
1374 1820
1374 1830
1374 1838
1374 1846
1374 1847
1374 1862
1374 1875
1374 1883
1374 1889
1374 1898
1374 1934
1374 1947
1374 1963
1374 1970
1374 1985
1374 2001
1374 2002
1374 2004
1374 2020
1374 2041
1374 2044
1374 2052
1374 2053
1374 2077
1374 2199
1374 2218
1374 2232
1374 2287
1374 2302
1375 1383
1375 1428
1375 1463
1375 1493
1375 1504
1375 1508
1375 1512
1375 1564
1375 1633
1375 1697
1375 1755
1375 1789
1375 1793
1375 1803
1375 1827
1375 1848
1375 1874
1375 1885
1375 1939
1375 1949
1375 1950
1375 1953
1375 1954
1375 1977
1375 1993
1375 2037
1375 2068
1375 2101
1375 2149
1375 2151
1375 2156
1375 2204
1375 2223
1375 2234
1375 2263
1375 2277
1375 2304
1376 1445
1376 1616
1376 1798
1376 1972
1376 2011
1377 1380
1377 1387
1377 1394
1377 1404
1377 1423
1377 1424
1377 1485
1377 1517
1377 1556
1377 1558
1377 1584
1377 1599
1377 1620
1377 1625
1377 1663
1377 1678
1377 1680
1377 1751
1377 1767
1377 1843
1377 1849
1377 1870
1377 1873
1377 1928
1377 1962
1377 2005
1377 2008
1377 2016
1377 2027
1377 2098
1377 2100
1377 2105
1377 2106
1377 2125
1377 2161
1377 2174
1377 2212
1377 2221
1377 2225
1377 2271
1377 2301
1377 2307
1378 1385
1378 1392
1378 1462
1378 1466
1378 1475
1378 1489
1378 1492
1378 1493
1378 1496
1378 1503
1378 1531
1378 1538
1378 1546
1378 1564
1378 1582
1378 1633
1378 1639
1378 1650
1378 1676
1378 1684
1378 1713
1378 1718
1378 1723
1378 1743
1378 1744
1378 1760
1378 1771
1378 1790
1378 1802
1378 1806
1378 1829
1378 1842
1378 1854
1378 1858
1378 1874
1378 1885
1378 1896
1378 1919
1378 1933
1378 1963
1378 1974
1378 1987
1378 1988
1378 1995
1378 1999
1378 2056
1378 2066
1378 2073
1378 2105
1378 2108
1378 2166
1378 2225
1378 2252
1378 2259
1378 2275
1378 2304
1379 1585
1379 1666
1379 2230
1379 2294
1380 1387
1380 1405
1380 1424
1380 1473
1380 1512
1380 1562
1380 1640
1380 1676
1380 1683
1380 1742
1380 1767
1380 1843
1380 1873
1380 1894
1380 1959
1380 1994
1380 2027
1380 2093
1380 2096
1380 2106
1380 2122
1380 2174
1380 2175
1380 2221
1380 2233
1381 1414
1381 1452
1381 1476
1381 1651
1381 1666
1381 1712
1381 1739
1381 1832
1381 1861
1381 1943
1381 1970
1381 2020
1381 2137
1382 1431
1382 1506
1382 1666
1382 1731
1382 1892
1382 2041
1382 2052
1382 2055
1382 2195
1382 2199
1382 2297
1382 2302
1383 1409
1383 1459
1383 1500
1383 1511
1383 1535
1383 1621
1383 1630
1383 1637
1383 1680
1383 1697
1383 1723
1383 1728
1383 1750
1383 1798
1383 1844
1383 1879
1383 2060
1383 2145
1383 2184
1383 2186
1383 2229
1383 2312
1384 1387
1384 1392
1384 1394
1384 1415
1384 1424
1384 1533
1384 1538
1384 1546
1384 1554
1384 1566
1384 1568
1384 1577
1384 1586
1384 1612
1384 1629
1384 1633
1384 1717
1384 1738
1384 1778
1384 1815
1384 1843
1384 1858
1384 1873
1384 1885
1384 1986
1384 2015
1384 2016
1384 2017
1384 2057
1384 2067
1384 2069
1384 2140
1384 2162
1384 2237
1384 2242
1384 2258
1384 2264
1384 2271
1385 1388
1385 1396
1385 1398
1385 1416
1385 1433
1385 1434
1385 1437
1385 1444
1385 1455
1385 1466
1385 1487
1385 1489
1385 1492
1385 1502
1385 1519
1385 1520
1385 1523
1385 1561
1385 1563
1385 1569
1385 1583
1385 1612
1385 1646
1385 1655
1385 1679
1385 1684
1385 1702
1385 1739
1385 1755
1385 1804
1385 1824
1385 1906
1385 1921
1385 1931
1385 1945
1385 1949
1385 1956
1385 1958
1385 1963
1385 1977
1385 1982
1385 1989
1385 2003
1385 2005
1385 2059
1385 2062
1385 2065
1385 2074
1385 2086
1385 2093
1385 2104
1385 2120
1385 2144
1385 2150
1385 2156
1385 2187
1385 2248
1385 2259
1385 2260
1385 2273
1385 2275
1385 2295
1385 2304
1386 1404
1386 1477
1386 1485
1386 1486
1386 1521
1386 1534
1386 1616
1386 1642
1386 1686
1386 1729
1386 1739
1386 1816
1386 1820
1386 1889
1386 1898
1386 1905
1386 1970
1386 1978
1386 2005
1386 2041
1386 2044
1386 2077
1386 2091
1386 2199
1386 2302
1387 1394
1387 1400
1387 1404
1387 1411
1387 1415
1387 1424
1387 1464
1387 1473
1387 1485
1387 1500
1387 1503
1387 1512
1387 1520
1387 1521
1387 1533
1387 1538
1387 1540
1387 1546
1387 1554
1387 1562
1387 1564
1387 1568
1387 1581
1387 1586
1387 1601
1387 1620
1387 1632
1387 1644
1387 1663
1387 1668
1387 1684
1387 1717
1387 1742
1387 1777
1387 1806
1387 1809
1387 1815
1387 1828
1387 1843
1387 1858
1387 1873
1387 1885
1387 1891
1387 1931
1387 1968
1387 1986
1387 1994
1387 2008
1387 2012
1387 2016
1387 2017
1387 2027
1387 2036
1387 2066
1387 2067
1387 2069
1387 2079
1387 2089
1387 2161
1387 2172
1387 2182
1387 2190
1387 2222
1387 2225
1387 2264
1387 2292
1387 2298
1388 1392
1388 1396
1388 1398
1388 1427
1388 1434
1388 1437
1388 1444
1388 1457
1388 1466
1388 1502
1388 1563
1388 1566
1388 1576
1388 1583
1388 1645
1388 1690
1388 1702
1388 1716
1388 1780
1388 1790
1388 1802
1388 1803
1388 1804
1388 1825
1388 1852
1388 1869
1388 1907
1388 1919
1388 1945
1388 1949
1388 1963
1388 1977
1388 1999
1388 2003
1388 2025
1388 2045
1388 2093
1388 2104
1388 2123
1388 2147
1388 2163
1388 2187
1388 2260
1388 2265
1388 2272
1389 1660
1389 1831
1389 1926
1389 2095
1390 1425
1390 1482
1390 1496
1390 1499
1390 1512
1390 1558
1390 1573
1390 1578
1390 1588
1390 1634
1390 1643
1390 1677
1390 1679
1390 1703
1390 1717
1390 1746
1390 1787
1390 1789
1390 1827
1390 1849
1390 1859
1390 1911
1390 1921
1390 1927
1390 1961
1390 1980
1390 1982
1390 1992
1390 2024
1390 2049
1390 2147
1390 2151
1390 2154
1390 2167
1390 2171
1390 2190
1390 2191
1390 2204
1390 2228
1390 2244
1390 2261
1390 2277
1390 2280
1390 2304
1390 2311
1391 1392
1391 1394
1391 1417
1391 1434
1391 1452
1391 1472
1391 1477
1391 1536
1391 1538
1391 1574
1391 1589
1391 1602
1391 1625
1391 1646
1391 1656
1391 1720
1391 1725
1391 1739
1391 1757
1391 1793
1391 1801
1391 1802
1391 1816
1391 1832
1391 1905
1391 1938
1391 1952
1391 1956
1391 2009
1391 2043
1391 2044
1391 2151
1391 2164
1391 2167
1391 2199
1391 2202
1391 2225
1391 2239
1391 2287
1392 1406
1392 1415
1392 1424
1392 1429
1392 1432
1392 1434
1392 1448
1392 1451
1392 1485
1392 1496
1392 1521
1392 1533
1392 1534
1392 1542
1392 1554
1392 1559
1392 1563
1392 1566
1392 1586
1392 1612
1392 1633
1392 1638
1392 1639
1392 1690
1392 1702
1392 1718
1392 1732
1392 1769
1392 1778
1392 1779
1392 1804
1392 1815
1392 1829
1392 1834
1392 1866
1392 1873
1392 1885
1392 1896
1392 1918
1392 1919
1392 1927
1392 1949
1392 1953
1392 1963
1392 1974
1392 1977
1392 1986
1392 1988
1392 1995
1392 2007
1392 2008
1392 2024
1392 2029
1392 2034
1392 2036
1392 2045
1392 2049
1392 2051
1392 2062
1392 2072
1392 2104
1392 2123
1392 2132
1392 2140
1392 2143
1392 2174
1392 2181
1392 2195
1392 2199
1392 2251
1392 2273
1392 2275
1392 2277
1392 2284
1392 2304
1392 2306
1393 1430
1393 1448
1393 1482
1393 1571
1393 1600
1393 1713
1393 1756
1393 1802
1393 1857
1393 1899
1393 2037
1393 2055
1393 2068
1393 2101
1393 2225
1393 2248
1393 2259
1394 1411
1394 1417
1394 1424
1394 1472
1394 1491
1394 1538
1394 1546
1394 1554
1394 1574
1394 1584
1394 1602
1394 1656
1394 1680
1394 1704
1394 1717
1394 1722
1394 1738
1394 1751
1394 1767
1394 1795
1394 1801
1394 1816
1394 1864
1394 1870
1394 1952
1394 1962
1394 1968
1394 2005
1394 2016
1394 2017
1394 2027
1394 2036
1394 2048
1394 2067
1394 2069
1394 2079
1394 2100
1394 2106
1394 2110
1394 2122
1394 2164
1394 2174
1394 2199
1394 2233
1394 2258
1394 2284
1394 2298
1395 1534
1395 1589
1395 1710
1395 1898
1395 1905
1395 1970
1395 2038
1395 2044
1395 2119
1395 2142
1395 2151
1395 2199
1395 2239
1396 1405
1396 1424
1396 1429
1396 1446
1396 1469
1396 1492
1396 1566
1396 1587
1396 1612
1396 1646
1396 1650
1396 1672
1396 1692
1396 1693
1396 1716
1396 1741
1396 1754
1396 1778
1396 1790
1396 1868
1396 1956
1396 1980
1396 1988
1396 1999
1396 2029
1396 2030
1396 2048
1396 2074
1396 2123
1396 2144
1396 2163
1396 2187
1396 2192
1396 2203
1396 2237
1396 2258
1396 2284
1396 2295
1396 2303
1398 1416
1398 1424
1398 1434
1398 1437
1398 1444
1398 1450
1398 1457
1398 1488
1398 1493
1398 1508
1398 1515
1398 1561
1398 1563
1398 1566
1398 1569
1398 1576
1398 1645
1398 1646
1398 1676
1398 1679
1398 1702
1398 1755
1398 1780
1398 1784
1398 1786
1398 1802
1398 1804
1398 1806
1398 1848
1398 1852
1398 1868
1398 1869
1398 1906
1398 1911
1398 1915
1398 1918
1398 1921
1398 1932
1398 1949
1398 1956
1398 1977
1398 1980
1398 1982
1398 1989
1398 2003
1398 2013
1398 2073
1398 2086
1398 2104
1398 2120
1398 2134
1398 2144
1398 2150
1398 2156
1398 2160
1398 2191
1398 2232
1398 2265
1398 2272
1398 2304
1398 2306
1399 1411
1399 1424
1399 1458
1399 1491
1399 1580
1399 1713
1399 1795
1399 1806
1399 1890
1399 1971
1399 2130
1399 2154
1400 1424
1400 1444
1400 1485
1400 1491
1400 1500
1400 1554
1400 1556
1400 1562
1400 1626
1400 1683
1400 1809
1400 1815
1400 1880
1400 1881
1400 1926
1400 1996
1400 2007
1400 2027
1400 2036
1400 2082
1400 2138
1400 2146
1400 2201
1400 2212
1400 2236
1400 2238
1400 2240
1400 2271
1400 2289
1401 1410
1401 1416
1401 1440
1401 1444
1401 1451
1401 1466
1401 1482
1401 1485
1401 1496
1401 1503
1401 1521
1401 1537
1401 1639
1401 1723
1401 1751
1401 1787
1401 1799
1401 1809
1401 1831
1401 1836
1401 1878
1401 1891
1401 1966
1401 1974
1401 2007
1401 2017
1401 2032
1401 2103
1401 2180
1401 2182
1401 2232
1401 2242
1401 2245
1401 2266
1402 1452
1402 1486
1402 1525
1402 1532
1402 1543
1402 1610
1402 1613
1402 1665
1402 1666
1402 1720
1402 1721
1402 1819
1402 1847
1402 1898
1402 1970
1402 1981
1402 2001
1402 2002
1402 2044
1402 2052
1402 2230
1402 2239
1402 2302
1403 1560
1403 1598
1403 1659
1403 1803
1403 1873
1403 2175
1403 2307
1404 1405
1404 1411
1404 1471
1404 1485
1404 1503
1404 1538
1404 1544
1404 1564
1404 1577
1404 1592
1404 1598
1404 1618
1404 1620
1404 1700
1404 1723
1404 1741
1404 1743
1404 1745
1404 1767
1404 1771
1404 1864
1404 1879
1404 1896
1404 1931
1404 1948
1404 2012
1404 2027
1404 2051
1404 2089
1404 2130
1404 2241
1404 2252
1404 2268
1404 2289
1405 1424
1405 1437
1405 1443
1405 1447
1405 1456
1405 1485
1405 1487
1405 1489
1405 1492
1405 1542
1405 1543
1405 1544
1405 1559
1405 1565
1405 1566
1405 1580
1405 1599
1405 1606
1405 1612
1405 1619
1405 1638
1405 1672
1405 1699
1405 1712
1405 1716
1405 1769
1405 1806
1405 1812
1405 1824
1405 1828
1405 1835
1405 1841
1405 1868
1405 1873
1405 1890
1405 1896
1405 1906
1405 1918
1405 1933
1405 1948
1405 1995
1405 2005
1405 2013
1405 2022
1405 2034
1405 2062
1405 2073
1405 2082
1405 2132
1405 2142
1405 2143
1405 2163
1405 2187
1405 2192
1405 2198
1405 2209
1405 2210
1405 2219
1405 2225
1405 2233
1405 2296
1405 2303
1405 2307
1405 2312
1406 1435
1406 1469
1406 1485
1406 1513
1406 1554
1406 1595
1406 1633
1406 1657
1406 1693
1406 1697
1406 1732
1406 1743
1406 1744
1406 1790
1406 1795
1406 1829
1406 1872
1406 1873
1406 1893
1406 1901
1406 1929
1406 1963
1406 2048
1406 2108
1406 2115
1406 2129
1406 2144
1406 2163
1406 2175
1406 2181
1406 2197
1406 2203
1406 2213
1406 2268
1406 2289
1406 2295
1406 2303
1407 1542
1407 1563
1407 1966
1407 2045
1407 2065
1407 2120
1408 1553
1408 1592
1408 1636
1408 1651
1408 1711
1408 1819
1408 1862
1408 1902
1408 1970
1408 2001
1408 2006
1408 2041
1408 2293
1409 1510
1409 1512
1409 1520
1409 1523
1409 1535
1409 1556
1409 1562
1409 1572
1409 1619
1409 1621
1409 1630
1409 1663
1409 1676
1409 1680
1409 1683
1409 1746
1409 1751
1409 1774
1409 1793
1409 1799
1409 1801
1409 1809
1409 1870
1409 1992
1409 1996
1409 2027
1409 2049
1409 2089
1409 2095
1409 2098
1409 2117
1409 2129
1409 2164
1409 2167
1409 2268
1409 2299
1410 1419
1410 1612
1410 1638
1410 1646
1410 1649
1410 1751
1410 1776
1410 1804
1410 1805
1410 1834
1410 1852
1410 1863
1410 1919
1410 2073
1410 2116
1410 2117
1410 2143
1410 2147
1410 2195
1410 2310
1411 1413
1411 1424
1411 1427
1411 1443
1411 1449
1411 1459
1411 1460
1411 1466
1411 1467
1411 1469
1411 1487
1411 1489
1411 1491
1411 1500
1411 1511
1411 1513
1411 1520
1411 1521
1411 1540
1411 1542
1411 1559
1411 1564
1411 1579
1411 1580
1411 1599
1411 1600
1411 1614
1411 1621
1411 1626
1411 1663
1411 1672
1411 1680
1411 1697
1411 1709
1411 1713
1411 1716
1411 1717
1411 1732
1411 1741
1411 1744
1411 1760
1411 1763
1411 1802
1411 1812
1411 1821
1411 1824
1411 1829
1411 1843
1411 1845
1411 1859
1411 1863
1411 1890
1411 1891
1411 1894
1411 1907
1411 1950
1411 1974
1411 1977
1411 2022
1411 2030
1411 2055
1411 2060
1411 2062
1411 2073
1411 2082
1411 2104
1411 2122
1411 2125
1411 2130
1411 2147
1411 2174
1411 2183
1411 2187
1411 2192
1411 2197
1411 2209
1411 2210
1411 2229
1411 2233
1411 2237
1411 2255
1411 2303
1411 2306
1411 2307
1412 1469
1412 1498
1412 1592
1412 1757
1412 1819
1412 1873
1412 1892
1412 1898
1412 1905
1412 2001
1412 2009
1412 2044
1412 2136
1413 1416
1413 1493
1413 1515
1413 1537
1413 1564
1413 1598
1413 1643
1413 1650
1413 1676
1413 1697
1413 1724
1413 1748
1413 1774
1413 1799
1413 1878
1413 1885
1413 1908
1413 1950
1413 1953
1413 1982
1413 1984
1413 1992
1413 2013
1413 2037
1413 2094
1413 2101
1413 2112
1413 2148
1413 2156
1413 2203
1413 2215
1413 2232
1413 2234
1413 2244
1413 2258
1413 2277
1413 2304
1414 1417
1414 1436
1414 1452
1414 1453
1414 1485
1414 1486
1414 1498
1414 1506
1414 1534
1414 1536
1414 1589
1414 1591
1414 1592
1414 1677
1414 1679
1414 1733
1414 1791
1414 1800
1414 1859
1414 1963
1414 2077
1414 2080
1414 2091
1414 2099
1414 2136
1414 2147
1414 2151
1414 2218
1414 2228
1414 2283
1414 2294
1415 1444
1415 1451
1415 1462
1415 1473
1415 1496
1415 1500
1415 1503
1415 1521
1415 1531
1415 1533
1415 1542
1415 1546
1415 1554
1415 1566
1415 1568
1415 1586
1415 1601
1415 1612
1415 1620
1415 1626
1415 1629
1415 1632
1415 1633
1415 1634
1415 1644
1415 1658
1415 1663
1415 1668
1415 1674
1415 1703
1415 1717
1415 1718
1415 1726
1415 1772
1415 1778
1415 1809
1415 1815
1415 1851
1415 1885
1415 1903
1415 1911
1415 1931
1415 1974
1415 1984
1415 1986
1415 1994
1415 2008
1415 2012
1415 2015
1415 2016
1415 2033
1415 2047
1415 2057
1415 2140
1415 2162
1415 2172
1415 2182
1415 2183
1415 2190
1415 2201
1415 2264
1415 2266
1415 2270
1415 2271
1416 1428
1416 1444
1416 1451
1416 1463
1416 1497
1416 1504
1416 1515
1416 1535
1416 1541
1416 1561
1416 1563
1416 1568
1416 1578
1416 1590
1416 1611
1416 1658
1416 1708
1416 1724
1416 1755
1416 1772
1416 1787
1416 1825
1416 1831
1416 1844
1416 1848
1416 1888
1416 1904
1416 1911
1416 1921
1416 1931
1416 1936
1416 1982
1416 1984
1416 1992
1416 2014
1416 2084
1416 2089
1416 2113
1416 2120
1416 2150
1416 2156
1416 2160
1416 2171
1416 2177
1416 2179
1416 2189
1416 2203
1416 2215
1416 2232
1416 2242
1416 2265
1416 2288
1417 1452
1417 1472
1417 1477
1417 1486
1417 1534
1417 1536
1417 1551
1417 1574
1417 1579
1417 1602
1417 1610
1417 1613
1417 1619
1417 1621
1417 1625
1417 1655
1417 1656
1417 1665
1417 1666
1417 1702
1417 1711
1417 1720
1417 1721
1417 1722
1417 1725
1417 1736
1417 1759
1417 1771
1417 1791
1417 1801
1417 1816
1417 1819
1417 1838
1417 1846
1417 1862
1417 1875
1417 1947
1417 1952
1417 1963
1417 1970
1417 1981
1417 1985
1417 2001
1417 2018
1417 2028
1417 2041
1417 2052
1417 2053
1417 2077
1417 2114
1417 2130
1417 2156
1417 2164
1417 2173
1417 2188
1417 2199
1417 2246
1417 2294
1417 2302
1418 1493
1418 1557
1418 1708
1418 1885
1418 1953
1418 2304
1419 1512
1419 1523
1419 1782
1419 1785
1419 1805
1419 1967
1419 1987
1419 2280
1419 2310
1420 1455
1420 1466
1420 1469
1420 1486
1420 1513
1420 1559
1420 1579
1420 1580
1420 1612
1420 1645
1420 1693
1420 1697
1420 1763
1420 1804
1420 1812
1420 1822
1420 1824
1420 1828
1420 1841
1420 1843
1420 1880
1420 1883
1420 1896
1420 1906
1420 1919
1420 1928
1420 1963
1420 1988
1420 1999
1420 2019
1420 2021
1420 2060
1420 2074
1420 2086
1420 2104
1420 2112
1420 2123
1420 2163
1420 2195
1420 2202
1420 2284
1420 2296
1420 2306
1421 1539
1421 1564
1421 1573
1421 1578
1421 1588
1421 1625
1421 1634
1421 1660
1421 1669
1421 1671
1421 1689
1421 1703
1421 1755
1421 1771
1421 1782
1421 1790
1421 1792
1421 1816
1421 1818
1421 1836
1421 1849
1421 1851
1421 1921
1421 1940
1421 1957
1421 1961
1421 1963
1421 2023
1421 2084
1421 2101
1421 2117
1421 2150
1421 2151
1421 2160
1421 2167
1421 2191
1421 2203
1421 2220
1421 2223
1421 2240
1421 2258
1421 2274
1421 2277
1421 2295
1421 2311
1423 1467
1423 1558
1423 1625
1423 1667
1423 1671
1423 1680
1423 1689
1423 1706
1423 1746
1423 1839
1423 1857
1423 1974
1423 2008
1423 2046
1423 2049
1423 2066
1423 2081
1423 2206
1423 2240
1423 2254
1423 2255
1423 2295
1424 1441
1424 1443
1424 1485
1424 1491
1424 1492
1424 1500
1424 1511
1424 1521
1424 1538
1424 1540
1424 1542
1424 1550
1424 1559
1424 1565
1424 1576
1424 1578
1424 1580
1424 1584
1424 1606
1424 1612
1424 1615
1424 1618
1424 1621
1424 1626
1424 1638
1424 1640
1424 1646
1424 1672
1424 1699
1424 1709
1424 1713
1424 1719
1424 1741
1424 1760
1424 1767
1424 1769
1424 1771
1424 1775
1424 1777
1424 1778
1424 1802
1424 1804
1424 1806
1424 1812
1424 1824
1424 1828
1424 1834
1424 1841
1424 1843
1424 1845
1424 1846
1424 1863
1424 1890
1424 1894
1424 1910
1424 1915
1424 1959
1424 1963
1424 1966
1424 1974
1424 1988
1424 1995
1424 1999
1424 2011
1424 2022
1424 2027
1424 2034
1424 2051
1424 2059
1424 2060
1424 2062
1424 2073
1424 2093
1424 2116
1424 2122
1424 2132
1424 2143
1424 2147
1424 2163
1424 2166
1424 2192
1424 2202
1424 2210
1424 2214
1424 2225
1424 2237
1424 2246
1424 2251
1424 2268
1424 2273
1424 2275
1424 2289
1424 2295
1424 2296
1424 2309
1424 2312
1425 1433
1425 1439
1425 1482
1425 1497
1425 1502
1425 1514
1425 1518
1425 1523
1425 1535
1425 1558
1425 1573
1425 1578
1425 1581
1425 1583
1425 1590
1425 1643
1425 1667
1425 1669
1425 1689
1425 1706
1425 1708
1425 1736
1425 1737
1425 1752
1425 1825
1425 1836
1425 1844
1425 1849
1425 1853
1425 1859
1425 1864
1425 1866
1425 1879
1425 1888
1425 1919
1425 1921
1425 1927
1425 1940
1425 1961
1425 1991
1425 2023
1425 2046
1425 2049
1425 2060
1425 2066
1425 2067
1425 2089
1425 2100
1425 2103
1425 2133
1425 2154
1425 2156
1425 2184
1425 2185
1425 2220
1425 2245
1425 2260
1425 2261
1425 2265
1425 2295
1425 2311
1427 1448
1427 1455
1427 1489
1427 1511
1427 1513
1427 1542
1427 1580
1427 1600
1427 1672
1427 1674
1427 1690
1427 1709
1427 1713
1427 1802
1427 1824
1427 1834
1427 1845
1427 1863
1427 1886
1427 1899
1427 1951
1427 1963
1427 2060
1427 2143
1427 2175
1427 2231
1427 2273
1427 2306
1428 1463
1428 1493
1428 1504
1428 1508
1428 1567
1428 1634
1428 1755
1428 1792
1428 1827
1428 1845
1428 1854
1428 1885
1428 1953
1428 2068
1428 2097
1428 2149
1428 2156
1428 2171
1428 2176
1428 2177
1428 2179
1428 2219
1428 2223
1428 2232
1428 2237
1428 2242
1428 2261
1428 2269
1428 2277
1428 2295
1428 2304
1429 1434
1429 1437
1429 1487
1429 1542
1429 1546
1429 1550
1429 1563
1429 1566
1429 1576
1429 1615
1429 1670
1429 1684
1429 1685
1429 1690
1429 1693
1429 1709
1429 1802
1429 1828
1429 1834
1429 1846
1429 1852
1429 1869
1429 1886
1429 1910
1429 1920
1429 1963
1429 1974
1429 1977
1429 2029
1429 2034
1429 2043
1429 2045
1429 2058
1429 2062
1429 2073
1429 2132
1429 2195
1429 2202
1429 2251
1429 2273
1429 2296
1430 1433
1430 1467
1430 1499
1430 1511
1430 1514
1430 1537
1430 1571
1430 1598
1430 1600
1430 1607
1430 1650
1430 1658
1430 1659
1430 1713
1430 1738
1430 1748
1430 1756
1430 1765
1430 1803
1430 1880
1430 1899
1430 1951
1430 1956
1430 1991
1430 2037
1430 2046
1430 2055
1430 2067
1430 2068
1430 2156
1430 2175
1430 2206
1430 2225
1430 2248
1430 2252
1430 2305
1430 2306
1431 1651
1431 2009
1431 2297
1432 1513
1432 1533
1432 1544
1432 1566
1432 1568
1432 1586
1432 1612
1432 1633
1432 1718
1432 1741
1432 1778
1432 1815
1432 1829
1432 1866
1432 1894
1432 1986
1432 2045
1432 2063
1432 2085
1432 2108
1432 2162
1432 2221
1432 2261
1433 1437
1433 1440
1433 1442
1433 1450
1433 1487
1433 1488
1433 1497
1433 1499
1433 1505
1433 1520
1433 1521
1433 1563
1433 1571
1433 1576
1433 1590
1433 1600
1433 1611
1433 1650
1433 1727
1433 1730
1433 1734
1433 1737
1433 1755
1433 1786
1433 1803
1433 1812
1433 1813
1433 1825
1433 1840
1433 1844
1433 1845
1433 1848
1433 1852
1433 1874
1433 1918
1433 1925
1433 1931
1433 1935
1433 1936
1433 1939
1433 1949
1433 1969
1433 1982
1433 2019
1433 2021
1433 2024
1433 2037
1433 2043
1433 2049
1433 2056
1433 2065
1433 2066
1433 2068
1433 2113
1433 2120
1433 2128
1433 2133
1433 2156
1433 2177
1433 2192
1433 2206
1433 2219
1433 2225
1433 2234
1433 2248
1433 2252
1433 2261
1433 2265
1433 2305
1433 2306
1434 1487
1434 1511
1434 1563
1434 1566
1434 1576
1434 1605
1434 1606
1434 1612
1434 1633
1434 1670
1434 1674
1434 1679
1434 1690
1434 1709
1434 1802
1434 1803
1434 1824
1434 1825
1434 1834
1434 1848
1434 1852
1434 1915
1434 1963
1434 1974
1434 2003
1434 2029
1434 2030
1434 2045
1434 2073
1434 2074
1434 2123
1434 2154
1434 2202
1434 2295
1435 1459
1435 1460
1435 1485
1435 1495
1435 1513
1435 1538
1435 1560
1435 1564
1435 1595
1435 1640
1435 1642
1435 1650
1435 1657
1435 1658
1435 1668
1435 1726
1435 1732
1435 1741
1435 1742
1435 1743
1435 1744
1435 1767
1435 1777
1435 1806
1435 1829
1435 1835
1435 1872
1435 1873
1435 1894
1435 1901
1435 1913
1435 1916
1435 1953
1435 1963
1435 1964
1435 1971
1435 1979
1435 2008
1435 2070
1435 2108
1435 2115
1435 2124
1435 2129
1435 2174
1435 2181
1435 2196
1435 2197
1435 2200
1435 2212
1435 2281
1435 2292
1435 2303
1435 2307
1436 1534
1436 1666
1436 1898
1436 1938
1436 1947
1436 2038
1436 2044
1436 2099
1436 2199
1436 2239
1436 2283
1436 2287
1437 1450
1437 1466
1437 1483
1437 1488
1437 1511
1437 1563
1437 1566
1437 1576
1437 1611
1437 1643
1437 1645
1437 1650
1437 1674
1437 1679
1437 1709
1437 1779
1437 1802
1437 1812
1437 1813
1437 1825
1437 1840
1437 1845
1437 1852
1437 1869
1437 1874
1437 1907
1437 1913
1437 1918
1437 1924
1437 1935
1437 1949
1437 1963
1437 1995
1437 2003
1437 2021
1437 2024
1437 2059
1437 2066
1437 2069
1437 2073
1437 2074
1437 2086
1437 2104
1437 2123
1437 2128
1437 2133
1437 2177
1437 2195
1438 1439
1438 1482
1438 1500
1438 1506
1438 1537
1438 1539
1438 1540
1438 1581
1438 1583
1438 1634
1438 1643
1438 1668
1438 1774
1438 1775
1438 1787
1438 1799
1438 1831
1438 1871
1438 1945
1438 2025
1438 2109
1438 2170
1438 2260
1439 1459
1439 1482
1439 1502
1439 1505
1439 1514
1439 1537
1439 1563
1439 1581
1439 1583
1439 1590
1439 1598
1439 1637
1439 1650
1439 1667
1439 1669
1439 1671
1439 1703
1439 1708
1439 1713
1439 1715
1439 1738
1439 1740
1439 1748
1439 1792
1439 1798
1439 1825
1439 1849
1439 1851
1439 1857
1439 1864
1439 1866
1439 1879
1439 1921
1439 1951
1439 1992
1439 2017
1439 2037
1439 2046
1439 2049
1439 2055
1439 2066
1439 2067
1439 2069
1439 2103
1439 2156
1439 2174
1439 2186
1439 2215
1439 2240
1439 2242
1439 2245
1439 2258
1439 2260
1439 2261
1439 2274
1439 2277
1440 1447
1440 1450
1440 1466
1440 1488
1440 1493
1440 1499
1440 1504
1440 1520
1440 1561
1440 1563
1440 1571
1440 1576
1440 1590
1440 1614
1440 1700
1440 1706
1440 1708
1440 1743
1440 1755
1440 1779
1440 1786
1440 1796
1440 1806
1440 1812
1440 1825
1440 1844
1440 1848
1440 1874
1440 1899
1440 1913
1440 1921
1440 1931
1440 1950
1440 1953
1440 1969
1440 1979
1440 1982
1440 1989
1440 2007
1440 2049
1440 2068
1440 2070
1440 2076
1440 2106
1440 2111
1440 2120
1440 2128
1440 2177
1440 2200
1440 2204
1440 2265
1440 2304
1440 2311
1441 1711
1441 1757
1441 2061
1442 1495
1442 1496
1442 1497
1442 1505
1442 1515
1442 1540
1442 1558
1442 1578
1442 1590
1442 1611
1442 1612
1442 1634
1442 1724
1442 1730
1442 1734
1442 1737
1442 1787
1442 1825
1442 1840
1442 1844
1442 1852
1442 1874
1442 1878
1442 1904
1442 1911
1442 1921
1442 1931
1442 1935
1442 1984
1442 1992
1442 2024
1442 2066
1442 2120
1442 2133
1442 2177
1442 2203
1442 2206
1442 2234
1442 2260
1442 2276
1443 1492
1443 1513
1443 1521
1443 1615
1443 1676
1443 1812
1443 1834
1443 1891
1443 1918
1443 2062
1443 2174
1443 2183
1443 2309
1444 1451
1444 1482
1444 1495
1444 1500
1444 1515
1444 1519
1444 1540
1444 1561
1444 1563
1444 1576
1444 1668
1444 1669
1444 1677
1444 1755
1444 1784
1444 1786
1444 1787
1444 1825
1444 1831
1444 1848
1444 1891
1444 1911
1444 1921
1444 1925
1444 1926
1444 1949
1444 1977
1444 1982
1444 1984
1444 1989
1444 2007
1444 2025
1444 2104
1444 2138
1444 2148
1444 2150
1444 2156
1444 2160
1444 2215
1444 2232
1444 2235
1444 2265
1444 2267
1444 2288
1445 1552
1445 1555
1445 1589
1445 1592
1445 1613
1445 1616
1445 1733
1445 1757
1445 1758
1445 1798
1445 1905
1445 1972
1445 2004
1445 2028
1445 2165
1445 2253
1446 1521
1446 1613
1446 1854
1446 1879
1446 2069
1446 2105
1446 2175
1446 2260
1446 2303
1447 1456
1447 1599
1447 1606
1447 1763
1447 1886
1447 2082
1447 2086
1447 2143
1447 2233
1447 2293
1448 1451
1448 1458
1448 1475
1448 1482
1448 1511
1448 1518
1448 1569
1448 1570
1448 1571
1448 1633
1448 1648
1448 1650
1448 1701
1448 1713
1448 1724
1448 1743
1448 1796
1448 1823
1448 1845
1448 1848
1448 1849
1448 1857
1448 1868
1448 1895
1448 1913
1448 1921
1448 1950
1448 1974
1448 2008
1448 2037
1448 2045
1448 2055
1448 2056
1448 2068
1448 2076
1448 2110
1448 2111
1448 2123
1448 2187
1448 2259
1448 2261
1448 2296
1448 2305
1449 1628
1449 1663
1449 1703
1449 1767
1449 1857
1449 1896
1449 1963
1449 2005
1449 2030
1449 2062
1449 2106
1449 2303
1450 1488
1450 1497
1450 1505
1450 1611
1450 1734
1450 1755
1450 1786
1450 1790
1450 1825
1450 1840
1450 1844
1450 1852
1450 1874
1450 1918
1450 1935
1450 1949
1450 1969
1450 2024
1450 2068
1450 2069
1450 2101
1450 2104
1450 2128
1450 2156
1450 2227
1451 1465
1451 1482
1451 1485
1451 1503
1451 1513
1451 1520
1451 1523
1451 1535
1451 1537
1451 1554
1451 1564
1451 1568
1451 1578
1451 1624
1451 1630
1451 1633
1451 1634
1451 1637
1451 1660
1451 1677
1451 1701
1451 1703
1451 1706
1451 1732
1451 1738
1451 1740
1451 1748
1451 1772
1451 1774
1451 1783
1451 1792
1451 1805
1451 1815
1451 1848
1451 1851
1451 1864
1451 1871
1451 1897
1451 1903
1451 1911
1451 1921
1451 1926
1451 1927
1451 1931
1451 1946
1451 1961
1451 1963
1451 1986
1451 1992
1451 2007
1451 2013
1451 2051
1451 2060
1451 2067
1451 2101
1451 2123
1451 2138
1451 2195
1451 2235
1451 2245
1451 2277
1452 1477
1452 1486
1452 1534
1452 1536
1452 1543
1452 1585
1452 1589
1452 1593
1452 1610
1452 1666
1452 1696
1452 1720
1452 1721
1452 1847
1452 1898
1452 1947
1452 1981
1452 2001
1452 2002
1452 2028
1452 2038
1452 2044
1452 2091
1452 2099
1452 2152
1452 2188
1452 2199
1452 2239
1452 2243
1452 2287
1453 1485
1453 1486
1453 1522
1453 1543
1453 1589
1453 1608
1453 1736
1453 1974
1453 1999
1453 2142
1453 2178
1454 1759
1454 1818
1455 1483
1455 1513
1455 1563
1455 1576
1455 1580
1455 1674
1455 1697
1455 1763
1455 1833
1455 1845
1455 1863
1455 1864
1455 1919
1455 1922
1455 1949
1455 1956
1455 1977
1455 1988
1455 2060
1455 2074
1455 2104
1455 2116
1455 2259
1455 2269
1455 2295
1455 2304
1455 2306
1456 1531
1456 1625
1456 1676
1456 1771
1456 1995
1456 2202
1457 1542
1457 1563
1457 1583
1457 1588
1457 1702
1457 1780
1457 1804
1457 1828
1457 1845
1457 1846
1457 1874
1457 1907
1457 1910
1457 1919
1457 1931
1457 1963
1457 1980
1457 2003
1457 2043
1457 2045
1457 2059
1457 2062
1457 2072
1457 2104
1457 2116
1457 2187
1457 2191
1457 2272
1457 2305
1458 1485
1458 1606
1458 1635
1458 1743
1458 1767
1458 1802
1458 1836
1458 1873
1458 1963
1458 1979
1458 1993
1458 1995
1458 2013
1458 2049
1458 2055
1458 2071
1458 2111
1458 2117
1458 2213
1458 2304
1459 1485
1459 1511
1459 1540
1459 1581
1459 1598
1459 1621
1459 1637
1459 1650
1459 1658
1459 1668
1459 1672
1459 1728
1459 1738
1459 1740
1459 1752
1459 1775
1459 1776
1459 1777
1459 1792
1459 1864
1459 1879
1459 1908
1459 1951
1459 1964
1459 1968
1459 1995
1459 2039
1459 2046
1459 2067
1459 2115
1459 2156
1459 2184
1459 2255
1459 2260
1459 2271
1459 2274
1459 2308
1460 1485
1460 1521
1460 1564
1460 1618
1460 1640
1460 1668
1460 1672
1460 1717
1460 1726
1460 1743
1460 1814
1460 1834
1460 1873
1460 1880
1460 1950
1460 1964
1460 1994
1460 2057
1460 2062
1460 2069
1460 2116
1460 2123
1460 2129
1460 2231
1460 2252
1461 1476
1461 1477
1461 1551
1461 1592
1461 1662
1461 1791
1461 1847
1461 1933
1461 1934
1461 2044
1461 2077
1462 1465
1462 1485
1462 1503
1462 1601
1462 1620
1462 1629
1462 1643
1462 1740
1462 1785
1462 1806
1462 1876
1462 1885
1462 1931
1462 1968
1462 1976
1462 2012
1462 2015
1462 2031
1462 2032
1462 2057
1462 2135
1462 2222
1462 2240
1462 2262
1462 2270
1463 1493
1463 1508
1463 1567
1463 1634
1463 1755
1463 1885
1463 1953
1463 2097
1463 2149
1463 2156
1463 2171
1463 2176
1463 2177
1463 2219
1463 2223
1463 2242
1463 2261
1463 2269
1463 2277
1463 2304
1464 1485
1464 1870
1464 2183
1465 1546
1465 1554
1465 1601
1465 1629
1465 1740
1465 1783
1465 1815
1465 1831
1465 1885
1465 1927
1465 1968
1465 1976
1465 2189
1465 2262
1465 2270
1466 1489
1466 1563
1466 1566
1466 1573
1466 1576
1466 1606
1466 1679
1466 1684
1466 1702
1466 1780
1466 1812
1466 1813
1466 1825
1466 1834
1466 1852
1466 1873
1466 1880
1466 1907
1466 1949
1466 1980
1466 2003
1466 2043
1466 2045
1466 2058
1466 2059
1466 2065
1466 2072
1466 2073
1466 2075
1466 2082
1466 2104
1466 2120
1466 2134
1466 2187
1466 2191
1466 2272
1466 2275
1466 2296
1466 2305
1466 2312
1467 1598
1467 1713
1467 1716
1467 1821
1467 1873
1467 1951
1467 2046
1467 2147
1467 2163
1467 2174
1467 2175
1467 2192
1467 2306
1467 2309
1468 1470
1468 1592
1468 1661
1468 1861
1468 1947
1468 2044
1468 2256
1468 2305
1469 1471
1469 1487
1469 1495
1469 1496
1469 1511
1469 1542
1469 1554
1469 1563
1469 1645
1469 1674
1469 1719
1469 1741
1469 1790
1469 1804
1469 1812
1469 1825
1469 1828
1469 1834
1469 1842
1469 1847
1469 1864
1469 1873
1469 1883
1469 1893
1469 1896
1469 1900
1469 1910
1469 1951
1469 1961
1469 1988
1469 2001
1469 2007
1469 2019
1469 2045
1469 2048
1469 2051
1469 2059
1469 2093
1469 2143
1469 2144
1469 2163
1469 2275
1469 2284
1469 2295
1469 2296
1469 2304
1469 2306
1470 1477
1470 1485
1470 1543
1470 1580
1470 1672
1470 1729
1470 1735
1470 1739
1470 1768
1470 1816
1470 1846
1470 1871
1470 1912
1470 1947
1470 1970
1470 1974
1470 2001
1470 2158
1470 2199
1471 1485
1471 1520
1471 1535
1471 1575
1471 1583
1471 1696
1471 1700
1471 1706
1471 1745
1471 1842
1471 1853
1471 1854
1471 1864
1471 1879
1471 1967
1471 1991
1471 2046
1471 2069
1471 2082
1471 2129
1471 2185
1471 2240
1471 2252
1471 2284
1472 1506
1472 1534
1472 1536
1472 1574
1472 1602
1472 1656
1472 1722
1472 1725
1472 1756
1472 1797
1472 1801
1472 1816
1472 1838
1472 1952
1472 2080
1472 2164
1472 2199
1472 2287
1473 1568
1473 1632
1473 1644
1473 1815
1473 2016
1473 2057
1473 2182
1473 2190
1474 1668
1474 2175
1474 2307
1475 1485
1475 1560
1475 1612
1475 1676
1475 1713
1475 1790
1475 1796
1475 1829
1475 1854
1475 1873
1475 1899
1475 1913
1475 2055
1475 2056
1475 2110
1475 2197
1475 2220
1475 2231
1475 2255
1475 2259
1475 2295
1476 1498
1476 1582
1476 1585
1476 1739
1476 1773
1476 1863
1476 1933
1476 1934
1476 2107
1476 2310
1477 1486
1477 1522
1477 1527
1477 1534
1477 1543
1477 1551
1477 1589
1477 1592
1477 1604
1477 1651
1477 1662
1477 1678
1477 1694
1477 1696
1477 1711
1477 1721
1477 1729
1477 1736
1477 1791
1477 1819
1477 1820
1477 1846
1477 1902
1477 1978
1477 2001
1477 2009
1477 2011
1477 2020
1477 2044
1477 2052
1477 2080
1477 2137
1477 2178
1477 2199
1477 2218
1477 2230
1477 2243
1477 2287
1477 2302
1478 1587
1478 1827
1478 2179
1478 2215
1478 2277
1479 1533
1479 1783
1479 1860
1479 1986
1479 2066
1479 2103
1480 1501
1480 1594
1480 1623
1480 1896
1480 2143
1480 2209
1480 2210
1481 1539
1481 2054
1482 1485
1482 1500
1482 1518
1482 1561
1482 1569
1482 1578
1482 1581
1482 1590
1482 1626
1482 1643
1482 1667
1482 1669
1482 1677
1482 1701
1482 1703
1482 1724
1482 1743
1482 1781
1482 1796
1482 1825
1482 1836
1482 1845
1482 1849
1482 1851
1482 1857
1482 1868
1482 1895
1482 1911
1482 1921
1482 1927
1482 1951
1482 1966
1482 1984
1482 2101
1482 2111
1482 2150
1482 2160
1482 2187
1482 2203
1482 2258
1482 2261
1482 2265
1482 2271
1482 2296
1483 1489
1483 1493
1483 1508
1483 1537
1483 1563
1483 1665
1483 1671
1483 1679
1483 1684
1483 1790
1483 1818
1483 1932
1483 1949
1483 1953
1483 1954
1483 2003
1483 2037
1483 2045
1483 2072
1483 2090
1483 2101
1483 2104
1483 2123
1483 2134
1483 2144
1483 2149
1483 2163
1483 2227
1483 2269
1483 2277
1483 2295
1484 1552
1484 1617
1484 1816
1484 1985
1484 2061
1485 1486
1485 1498
1485 1499
1485 1503
1485 1513
1485 1521
1485 1538
1485 1542
1485 1544
1485 1547
1485 1556
1485 1560
1485 1562
1485 1564
1485 1598
1485 1601
1485 1604
1485 1606
1485 1612
1485 1620
1485 1621
1485 1625
1485 1631
1485 1635
1485 1637
1485 1638
1485 1639
1485 1657
1485 1661
1485 1663
1485 1664
1485 1669
1485 1675
1485 1676
1485 1679
1485 1682
1485 1686
1485 1697
1485 1704
1485 1708
1485 1716
1485 1717
1485 1732
1485 1741
1485 1742
1485 1744
1485 1746
1485 1751
1485 1753
1485 1760
1485 1767
1485 1769
1485 1787
1485 1790
1485 1793
1485 1796
1485 1806
1485 1820
1485 1829
1485 1836
1485 1840
1485 1846
1485 1854
1485 1864
1485 1870
1485 1872
1485 1873
1485 1874
1485 1886
1485 1889
1485 1891
1485 1909
1485 1913
1485 1920
1485 1922
1485 1927
1485 1931
1485 1945
1485 1948
1485 1957
1485 1961
1485 1964
1485 1974
1485 1977
1485 1987
1485 1990
1485 1991
1485 2007
1485 2008
1485 2011
1485 2012
1485 2020
1485 2022
1485 2024
1485 2027
1485 2036
1485 2040
1485 2043
1485 2046
1485 2049
1485 2057
1485 2058
1485 2061
1485 2062
1485 2070
1485 2077
1485 2079
1485 2088
1485 2089
1485 2091
1485 2101
1485 2108
1485 2110
1485 2115
1485 2121
1485 2125
1485 2135
1485 2140
1485 2164
1485 2166
1485 2180
1485 2189
1485 2192
1485 2196
1485 2197
1485 2200
1485 2202
1485 2210
1485 2212
1485 2220
1485 2230
1485 2233
1485 2237
1485 2251
1485 2257
1485 2261
1485 2266
1485 2268
1485 2270
1485 2271
1485 2273
1485 2280
1485 2281
1485 2289
1485 2303
1485 2304
1486 1534
1486 1543
1486 1592
1486 1604
1486 1666
1486 1759
1486 1820
1486 1828
1486 1846
1486 1847
1486 1889
1486 1898
1486 1934
1486 1981
1486 1985
1486 2001
1486 2044
1486 2052
1486 2077
1486 2091
1486 2137
1486 2253
1486 2287
1487 1492
1487 1513
1487 1542
1487 1550
1487 1563
1487 1566
1487 1612
1487 1670
1487 1709
1487 1779
1487 1834
1487 1886
1487 1899
1487 1906
1487 1907
1487 1913
1487 1963
1487 2019
1487 2029
1487 2043
1487 2059
1487 2062
1487 2073
1487 2082
1487 2116
1487 2143
1487 2147
1487 2191
1487 2195
1487 2202
1487 2210
1487 2246
1487 2273
1488 1499
1488 1503
1488 1508
1488 1518
1488 1573
1488 1650
1488 1755
1488 1786
1488 1787
1488 1812
1488 1825
1488 1836
1488 1844
1488 1852
1488 1874
1488 1954
1488 1975
1488 1980
1488 2024
1488 2037
1488 2049
1488 2069
1488 2104
1488 2128
1488 2156
1488 2227
1488 2240
1488 2252
1489 1492
1489 1513
1489 1563
1489 1606
1489 1607
1489 1612
1489 1618
1489 1623
1489 1655
1489 1672
1489 1674
1489 1699
1489 1763
1489 1769
1489 1781
1489 1813
1489 1824
1489 1890
1489 1907
1489 1966
1489 2003
1489 2029
1489 2045
1489 2051
1489 2060
1489 2062
1489 2065
1489 2072
1489 2074
1489 2078
1489 2082
1489 2086
1489 2132
1489 2143
1489 2163
1489 2187
1489 2210
1489 2260
1489 2272
1489 2275
1489 2295
1489 2296
1489 2305
1490 1508
1490 1514
1490 1548
1490 1573
1490 1671
1490 1676
1490 1716
1490 1726
1490 1771
1490 1780
1490 1961
1490 1979
1490 1982
1490 2023
1490 2042
1490 2127
1490 2151
1490 2167
1490 2197
1490 2247
1490 2311
1491 1521
1491 1540
1491 1542
1491 1546
1491 1570
1491 1580
1491 1621
1491 1623
1491 1626
1491 1713
1491 1795
1491 1806
1491 1890
1491 1894
1491 2027
1491 2051
1491 2055
1491 2073
1491 2174
1491 2183
1491 2264
1491 2307
1492 1513
1492 1550
1492 1563
1492 1566
1492 1638
1492 1672
1492 1685
1492 1699
1492 1700
1492 1706
1492 1763
1492 1804
1492 1806
1492 1823
1492 1834
1492 1841
1492 1906
1492 1949
1492 1977
1492 2062
1492 2066
1492 2073
1492 2082
1492 2104
1492 2143
1492 2163
1492 2192
1492 2195
1492 2233
1492 2272
1492 2284
1492 2309
1493 1504
1493 1508
1493 1528
1493 1538
1493 1563
1493 1564
1493 1576
1493 1586
1493 1671
1493 1676
1493 1679
1493 1697
1493 1712
1493 1743
1493 1755
1493 1790
1493 1799
1493 1802
1493 1804
1493 1806
1493 1810
1493 1812
1493 1854
1493 1869
1493 1874
1493 1878
1493 1883
1493 1907
1493 1913
1493 1919
1493 1921
1493 1924
1493 1932
1493 1935
1493 1947
1493 1949
1493 1953
1493 1954
1493 1956
1493 1977
1493 1989
1493 1999
1493 2013
1493 2019
1493 2045
1493 2049
1493 2086
1493 2094
1493 2099
1493 2101
1493 2104
1493 2112
1493 2113
1493 2144
1493 2148
1493 2149
1493 2156
1493 2171
1493 2200
1493 2204
1493 2220
1493 2223
1493 2232
1493 2234
1493 2244
1493 2252
1493 2259
1493 2275
1493 2277
1493 2304
1493 2311
1494 1584
1494 1778
1494 2005
1494 2078
1494 2233
1495 1515
1495 1552
1495 1634
1495 1658
1495 1676
1495 1720
1495 1765
1495 1772
1495 1854
1495 1882
1495 1911
1495 1931
1495 1951
1495 1984
1495 2046
1495 2053
1495 2091
1495 2110
1495 2203
1495 2232
1495 2255
1495 2260
1495 2267
1495 2276
1495 2286
1495 2288
1495 2296
1496 1520
1496 1521
1496 1530
1496 1537
1496 1540
1496 1598
1496 1639
1496 1809
1496 1844
1496 1873
1496 1874
1496 1885
1496 1891
1496 1896
1496 1903
1496 1911
1496 1926
1496 1931
1496 1946
1496 1988
1496 1995
1496 2014
1496 2027
1496 2031
1496 2066
1496 2115
1496 2120
1496 2146
1496 2177
1496 2212
1496 2236
1496 2237
1496 2260
1497 1505
1497 1558
1497 1561
1497 1590
1497 1611
1497 1667
1497 1669
1497 1708
1497 1724
1497 1730
1497 1734
1497 1736
1497 1746
1497 1808
1497 1813
1497 1825
1497 1844
1497 1857
1497 1874
1497 1879
1497 1888
1497 1921
1497 1925
1497 1931
1497 1935
1497 1936
1497 1982
1497 1984
1497 2023
1497 2046
1497 2049
1497 2066
1497 2089
1497 2094
1497 2113
1497 2120
1497 2189
1497 2193
1497 2206
1497 2215
1497 2234
1497 2242
1497 2245
1497 2254
1497 2258
1497 2265
1498 1592
1498 1773
1498 1974
1498 2006
1499 1514
1499 1521
1499 1571
1499 1578
1499 1600
1499 1614
1499 1640
1499 1647
1499 1650
1499 1668
1499 1677
1499 1679
1499 1713
1499 1734
1499 1741
1499 1743
1499 1755
1499 1803
1499 1813
1499 1836
1499 1844
1499 1873
1499 1874
1499 1899
1499 1921
1499 1931
1499 1935
1499 1953
1499 1961
1499 1963
1499 1974
1499 1979
1499 1995
1499 2013
1499 2060
1499 2063
1499 2065
1499 2066
1499 2068
1499 2070
1499 2120
1499 2154
1499 2156
1499 2204
1499 2225
1499 2232
1499 2248
1499 2252
1500 1502
1500 1513
1500 1519
1500 1521
1500 1535
1500 1538
1500 1540
1500 1568
1500 1578
1500 1581
1500 1626
1500 1634
1500 1640
1500 1643
1500 1713
1500 1751
1500 1760
1500 1770
1500 1775
1500 1785
1500 1798
1500 1815
1500 1831
1500 1873
1500 1891
1500 1894
1500 1926
1500 1931
1500 1945
1500 1974
1500 1988
1500 2012
1500 2025
1500 2055
1500 2183
1501 1594
1501 1683
1501 1870
1501 2096
1501 2125
1501 2205
1501 2209
1501 2221
1502 1508
1502 1519
1502 1538
1502 1581
1502 1583
1502 1590
1502 1645
1502 1667
1502 1708
1502 1775
1502 1776
1502 1792
1502 1798
1502 1831
1502 1866
1502 1871
1502 1911
1502 1913
1502 1921
1502 1926
1502 1945
1502 1957
1502 1984
1502 1994
1502 2025
1502 2066
1502 2092
1502 2110
1502 2151
1502 2156
1502 2160
1502 2206
1502 2235
1502 2260
1502 2262
1503 1508
1503 1512
1503 1513
1503 1535
1503 1538
1503 1539
1503 1540
1503 1544
1503 1564
1503 1573
1503 1598
1503 1630
1503 1697
1503 1723
1503 1726
1503 1751
1503 1760
1503 1771
1503 1774
1503 1776
1503 1778
1503 1785
1503 1792
1503 1804
1503 1805
1503 1806
1503 1844
1503 1873
1503 1874
1503 1903
1503 1911
1503 1931
1503 1951
1503 1954
1503 1955
1503 1957
1503 1967
1503 1987
1503 2007
1503 2012
1503 2015
1503 2017
1503 2027
1503 2060
1503 2067
1503 2079
1503 2089
1503 2104
1503 2117
1503 2135
1503 2146
1503 2151
1503 2161
1503 2182
1503 2225
1503 2235
1503 2268
1503 2269
1503 2298
1503 2307
1504 1508
1504 1541
1504 1650
1504 1755
1504 1786
1504 1789
1504 1790
1504 1792
1504 1885
1504 1895
1504 1932
1504 1953
1504 1954
1504 1984
1504 2076
1504 2086
1504 2111
1504 2134
1504 2149
1504 2156
1504 2179
1504 2223
1504 2227
1504 2232
1504 2269
1504 2277
1504 2304
1505 1558
1505 1590
1505 1611
1505 1634
1505 1650
1505 1669
1505 1724
1505 1730
1505 1734
1505 1737
1505 1755
1505 1787
1505 1813
1505 1825
1505 1844
1505 1874
1505 1888
1505 1904
1505 1908
1505 1911
1505 1931
1505 1935
1505 1936
1505 1982
1505 1984
1505 1992
1505 2049
1505 2066
1505 2084
1505 2097
1505 2120
1505 2133
1505 2168
1505 2176
1505 2177
1505 2206
1505 2215
1505 2232
1505 2252
1505 2261
1505 2280
1506 1589
1506 1666
1506 1739
1506 1756
1506 1930
1506 1943
1506 1981
1506 2020
1506 2044
1506 2099
1506 2239
1506 2297
1507 1534
1507 1791
1507 1943
1507 2099
1507 2152
1508 1514
1508 1547
1508 1561
1508 1564
1508 1573
1508 1633
1508 1635
1508 1650
1508 1671
1508 1675
1508 1677
1508 1726
1508 1755
1508 1771
1508 1790
1508 1792
1508 1799
1508 1803
1508 1818
1508 1825
1508 1827
1508 1836
1508 1874
1508 1932
1508 1949
1508 1953
1508 1954
1508 1974
1508 1977
1508 1980
1508 1981
1508 2013
1508 2023
1508 2037
1508 2068
1508 2090
1508 2149
1508 2151
1508 2156
1508 2160
1508 2220
1508 2223
1508 2227
1508 2232
1508 2269
1508 2277
1508 2281
1508 2304
1508 2311
1509 1552
1509 1875
1509 2256
1510 1518
1510 1748
1510 1827
1510 1931
1510 1936
1510 1992
1510 2012
1510 2088
1510 2206
1510 2262
1510 2289
1511 1513
1511 1542
1511 1565
1511 1566
1511 1571
1511 1576
1511 1590
1511 1600
1511 1605
1511 1615
1511 1623
1511 1637
1511 1638
1511 1650
1511 1672
1511 1674
1511 1709
1511 1713
1511 1728
1511 1736
1511 1778
1511 1802
1511 1824
1511 1834
1511 1841
1511 1845
1511 1852
1511 1869
1511 1873
1511 1879
1511 1882
1511 1886
1511 1890
1511 1896
1511 1899
1511 1949
1511 1951
1511 1956
1511 1977
1511 1998
1511 1999
1511 2051
1511 2055
1511 2058
1511 2059
1511 2060
1511 2065
1511 2073
1511 2082
1511 2093
1511 2104
1511 2143
1511 2147
1511 2156
1511 2175
1511 2187
1511 2195
1511 2198
1511 2296
1511 2310
1512 1517
1512 1523
1512 1531
1512 1535
1512 1554
1512 1588
1512 1625
1512 1630
1512 1633
1512 1660
1512 1663
1512 1677
1512 1679
1512 1717
1512 1723
1512 1738
1512 1742
1512 1746
1512 1751
1512 1760
1512 1763
1512 1774
1512 1776
1512 1782
1512 1785
1512 1799
1512 1805
1512 1821
1512 1843
1512 1885
1512 1909
1512 1950
1512 1951
1512 1967
1512 1990
1512 2017
1512 2049
1512 2067
1512 2106
1512 2116
1512 2127
1512 2147
1512 2151
1512 2164
1512 2190
1512 2191
1512 2195
1512 2204
1512 2244
1512 2271
1512 2289
1512 2298
1512 2308
1513 1521
1513 1540
1513 1571
1513 1572
1513 1587
1513 1598
1513 1606
1513 1633
1513 1670
1513 1671
1513 1672
1513 1674
1513 1709
1513 1713
1513 1741
1513 1744
1513 1760
1513 1763
1513 1812
1513 1824
1513 1829
1513 1834
1513 1845
1513 1848
1513 1863
1513 1866
1513 1869
1513 1872
1513 1886
1513 1891
1513 1894
1513 1906
1513 1911
1513 1921
1513 1927
1513 1963
1513 1964
1513 1966
1513 1974
1513 2029
1513 2030
1513 2051
1513 2055
1513 2060
1513 2062
1513 2065
1513 2070
1513 2073
1513 2082
1513 2088
1513 2093
1513 2115
1513 2117
1513 2132
1513 2140
1513 2143
1513 2147
1513 2160
1513 2163
1513 2183
1513 2187
1513 2192
1513 2197
1513 2210
1513 2295
1513 2303
1513 2304
1513 2306
1514 1521
1514 1538
1514 1575
1514 1598
1514 1600
1514 1635
1514 1640
1514 1650
1514 1658
1514 1713
1514 1741
1514 1873
1514 1878
1514 1893
1514 1958
1514 1964
1514 1992
1514 1994
1514 1995
1514 2020
1514 2046
1514 2055
1514 2063
1514 2067
1514 2071
1514 2079
1514 2081
1514 2110
1514 2154
1514 2163
1514 2174
1514 2200
1514 2236
1514 2277
1514 2295
1514 2304
1515 1537
1515 1541
1515 1561
1515 1563
1515 1576
1515 1708
1515 1755
1515 1772
1515 1784
1515 1786
1515 1787
1515 1806
1515 1818
1515 1848
1515 1885
1515 1904
1515 1911
1515 1921
1515 1931
1515 1936
1515 1949
1515 1956
1515 1977
1515 1982
1515 1984
1515 1989
1515 1992
1515 2104
1515 2144
1515 2156
1515 2179
1515 2203
1515 2227
1515 2232
1515 2255
1515 2265
1515 2276
1515 2277
1515 2306
1516 1854
1517 1556
1517 1559
1517 1615
1517 1619
1517 1621
1517 1625
1517 1676
1517 1751
1517 1793
1517 1809
1517 1908
1517 1909
1517 1938
1517 1996
1517 2047
1517 2098
1517 2151
1517 2225
1517 2271
1518 1557
1518 1561
1518 1573
1518 1590
1518 1648
1518 1667
1518 1717
1518 1736
1518 1738
1518 1825
1518 1845
1518 1849
1518 1857
1518 1864
1518 1879
1518 1921
1518 1951
1518 1980
1518 2008
1518 2027
1518 2046
1518 2060
1518 2063
1518 2066
1518 2069
1518 2100
1518 2129
1518 2185
1518 2261
1518 2274
1518 2279
1518 2296
1518 2298
1519 1530
1519 1563
1519 1583
1519 1590
1519 1699
1519 1799
1519 1806
1519 1831
1519 1871
1519 1926
1519 2260
1519 2292
1520 1531
1520 1535
1520 1539
1520 1556
1520 1557
1520 1563
1520 1621
1520 1625
1520 1643
1520 1646
1520 1660
1520 1663
1520 1679
1520 1688
1520 1698
1520 1724
1520 1741
1520 1742
1520 1745
1520 1751
1520 1760
1520 1767
1520 1774
1520 1777
1520 1782
1520 1802
1520 1821
1520 1835
1520 1851
1520 1859
1520 1873
1520 1876
1520 1885
1520 1903
1520 1908
1520 1909
1520 1931
1520 1963
1520 1979
1520 1984
1520 2007
1520 2010
1520 2014
1520 2027
1520 2037
1520 2049
1520 2056
1520 2057
1520 2065
1520 2073
1520 2075
1520 2092
1520 2094
1520 2108
1520 2120
1520 2121
1520 2146
1520 2154
1520 2159
1520 2162
1520 2183
1520 2185
1520 2195
1520 2225
1520 2229
1520 2232
1520 2237
1520 2258
1520 2260
1520 2266
1520 2274
1520 2277
1520 2280
1520 2292
1520 2311
1521 1539
1521 1540
1521 1542
1521 1546
1521 1560
1521 1575
1521 1598
1521 1626
1521 1633
1521 1658
1521 1690
1521 1713
1521 1738
1521 1741
1521 1742
1521 1760
1521 1775
1521 1779
1521 1795
1521 1799
1521 1803
1521 1815
1521 1834
1521 1843
1521 1848
1521 1854
1521 1858
1521 1873
1521 1891
1521 1894
1521 1911
1521 1916
1521 1918
1521 1919
1521 1949
1521 1955
1521 1963
1521 1971
1521 1973
1521 1974
1521 1979
1521 1981
1521 1987
1521 2011
1521 2022
1521 2025
1521 2043
1521 2045
1521 2055
1521 2063
1521 2067
1521 2070
1521 2077
1521 2122
1521 2130
1521 2156
1521 2175
1521 2183
1521 2210
1521 2231
1521 2236
1521 2251
1521 2289
1521 2298
1521 2303
1521 2307
1522 1608
1522 1712
1522 1714
1522 1736
1522 1847
1522 1865
1522 1930
1522 2020
1522 2044
1522 2064
1522 2091
1522 2099
1522 2137
1522 2178
1522 2199
1522 2294
1523 1535
1523 1537
1523 1630
1523 1655
1523 1660
1523 1675
1523 1742
1523 1745
1523 1752
1523 1774
1523 1782
1523 1805
1523 1860
1523 1901
1523 1926
1523 1967
1523 2105
1523 2115
1523 2128
1523 2195
1523 2281
1523 2298
1524 1673
1525 1574
1525 1651
1525 1652
1525 1736
1525 1816
1525 1830
1525 1930
1525 2002
1525 2044
1525 2137
1525 2142
1525 2256
1525 2294
1525 2302
1526 1775
1526 2092
1526 2109
1527 1534
1527 1546
1527 1551
1527 1582
1527 1592
1527 1682
1527 1696
1527 1720
1527 1721
1527 1736
1527 1739
1527 1819
1527 1846
1527 1892
1527 1898
1527 1905
1527 1933
1527 1963
1527 1985
1527 1999
1527 2005
1527 2038
1527 2044
1527 2105
1527 2123
1527 2143
1527 2199
1527 2239
1527 2287
1528 1567
1528 1587
1528 1650
1528 1727
1528 1793
1528 1799
1528 1839
1528 1848
1528 1904
1528 1918
1528 1924
1528 1939
1528 1963
1528 2013
1528 2097
1528 2109
1528 2148
1528 2171
1528 2176
1528 2234
1528 2242
1528 2274
1529 1968
1529 2017
1529 2032
1529 2286
1529 2298
1530 1564
1530 2014
1530 2031
1530 2139
1530 2161
1530 2196
1530 2212
1530 2292
1531 1646
1531 1745
1531 1790
1531 1806
1531 1858
1531 1860
1531 1926
1531 1932
1531 2035
1531 2062
1531 2066
1531 2108
1531 2163
1531 2190
1531 2208
1531 2213
1531 2220
1531 2295
1532 1538
1532 1589
1532 1592
1532 1593
1532 1613
1532 1736
1532 1799
1532 1813
1532 1875
1532 1898
1532 2001
1532 2013
1532 2038
1532 2044
1532 2053
1532 2155
1532 2188
1532 2199
1532 2287
1533 1566
1533 1568
1533 1586
1533 1612
1533 1620
1533 1633
1533 1718
1533 1778
1533 1783
1533 1815
1533 1829
1533 1836
1533 1866
1533 1885
1533 1908
1533 1986
1533 2008
1533 2036
1533 2049
1533 2057
1533 2066
1533 2103
1533 2140
1533 2151
1533 2162
1533 2174
1533 2233
1533 2245
1533 2258
1533 2275
1534 1536
1534 1543
1534 1552
1534 1574
1534 1589
1534 1613
1534 1656
1534 1665
1534 1666
1534 1705
1534 1710
1534 1721
1534 1736
1534 1739
1534 1757
1534 1758
1534 1759
1534 1791
1534 1801
1534 1815
1534 1816
1534 1820
1534 1830
1534 1838
1534 1846
1534 1861
1534 1864
1534 1875
1534 1885
1534 1892
1534 1933
1534 1934
1534 1938
1534 1978
1534 1985
1534 2001
1534 2004
1534 2028
1534 2038
1534 2041
1534 2044
1534 2064
1534 2142
1534 2178
1534 2199
1534 2239
1534 2253
1534 2287
1534 2294
1535 1537
1535 1557
1535 1578
1535 1590
1535 1624
1535 1630
1535 1639
1535 1667
1535 1706
1535 1723
1535 1742
1535 1752
1535 1760
1535 1770
1535 1774
1535 1776
1535 1798
1535 1864
1535 1879
1535 1903
1535 1911
1535 1926
1535 1946
1535 1967
1535 1983
1535 1984
1535 1986
1535 1992
1535 2007
1535 2048
1535 2067
1535 2081
1535 2138
1535 2164
1535 2185
1535 2235
1535 2236
1535 2271
1535 2286
1536 1548
1536 1552
1536 1574
1536 1589
1536 1591
1536 1696
1536 1720
1536 1722
1536 1791
1536 1801
1536 1816
1536 1846
1536 1947
1536 1952
1536 2002
1536 2044
1536 2052
1536 2099
1536 2152
1536 2199
1536 2218
1536 2287
1536 2294
1537 1539
1537 1598
1537 1630
1537 1638
1537 1646
1537 1650
1537 1713
1537 1738
1537 1740
1537 1748
1537 1774
1537 1799
1537 1854
1537 1871
1537 1883
1537 1897
1537 1951
1537 1992
1537 2017
1537 2021
1537 2037
1537 2055
1537 2067
1537 2073
1537 2101
1537 2115
1537 2195
1537 2211
1537 2277
1537 2280
1537 2304
1537 2306
1538 1544
1538 1554
1538 1564
1538 1565
1538 1577
1538 1583
1538 1620
1538 1626
1538 1633
1538 1657
1538 1663
1538 1696
1538 1697
1538 1713
1538 1741
1538 1744
1538 1760
1538 1771
1538 1795
1538 1805
1538 1806
1538 1817
1538 1873
1538 1874
1538 1878
1538 1879
1538 1891
1538 1907
1538 1911
1538 1919
1538 1921
1538 1931
1538 1939
1538 1948
1538 1950
1538 1957
1538 1958
1538 1963
1538 1987
1538 1990
1538 2013
1538 2016
1538 2025
1538 2027
1538 2055
1538 2058
1538 2060
1538 2067
1538 2069
1538 2073
1538 2079
1538 2110
1538 2162
1538 2167
1538 2174
1538 2175
1538 2183
1538 2195
1538 2202
1538 2208
1538 2213
1538 2225
1538 2260
1538 2305
1538 2307
1539 1546
1539 1578
1539 1598
1539 1625
1539 1630
1539 1643
1539 1658
1539 1697
1539 1740
1539 1748
1539 1751
1539 1774
1539 1782
1539 1784
1539 1789
1539 1799
1539 1813
1539 1815
1539 1818
1539 1825
1539 1834
1539 1844
1539 1851
1539 1853
1539 1854
1539 1859
1539 1871
1539 1874
1539 1878
1539 1885
1539 1891
1539 1908
1539 1925
1539 1926
1539 1927
1539 1931
1539 1936
1539 1944
1539 1974
1539 1992
1539 2015
1539 2023
1539 2049
1539 2054
1539 2067
1539 2081
1539 2088
1539 2118
1539 2133
1539 2138
1539 2146
1539 2161
1539 2182
1539 2185
1539 2189
1539 2190
1539 2203
1539 2211
1539 2222
1539 2236
1539 2251
1539 2255
1539 2257
1539 2266
1539 2279
1539 2289
1540 1578
1540 1598
1540 1626
1540 1663
1540 1713
1540 1760
1540 1775
1540 1821
1540 1854
1540 1911
1540 1921
1540 1973
1540 1974
1540 1984
1540 2012
1540 2055
1540 2067
1540 2156
1540 2183
1540 2235
1540 2237
1540 2245
1540 2289
1540 2295
1541 1772
1541 1885
1541 1953
1541 1984
1541 2232
1541 2277
1542 1563
1542 1565
1542 1566
1542 1612
1542 1618
1542 1638
1542 1685
1542 1690
1542 1699
1542 1709
1542 1769
1542 1802
1542 1815
1542 1834
1542 1886
1542 1963
1542 1974
1542 2034
1542 2045
1542 2051
1542 2065
1542 2073
1542 2140
1542 2143
1542 2195
1542 2246
1543 1551
1543 1552
1543 1563
1543 1589
1543 1610
1543 1665
1543 1666
1543 1712
1543 1733
1543 1736
1543 1739
1543 1759
1543 1797
1543 1835
1543 1847
1543 1889
1543 1898
1543 1914
1543 1972
1543 2001
1543 2006
1543 2011
1543 2038
1543 2043
1543 2044
1543 2052
1543 2120
1543 2137
1543 2142
1543 2152
1543 2218
1543 2230
1543 2232
1543 2239
1543 2287
1544 1554
1544 1741
1544 1964
1544 1987
1544 2037
1544 2066
1544 2079
1544 2089
1544 2128
1544 2227
1545 2227
1546 1564
1546 1568
1546 1580
1546 1582
1546 1584
1546 1595
1546 1598
1546 1623
1546 1633
1546 1715
1546 1717
1546 1738
1546 1739
1546 1775
1546 1815
1546 1834
1546 1835
1546 1870
1546 1879
1546 1885
1546 1891
1546 1962
1546 1963
1546 1974
1546 1999
1546 2016
1546 2017
1546 2043
1546 2123
1546 2161
1546 2174
1546 2182
1546 2225
1546 2251
1546 2259
1546 2264
1546 2281
1546 2289
1547 1578
1547 1635
1547 1790
1547 1801
1547 1836
1547 1896
1547 1915
1547 1953
1547 2013
1547 2023
1547 2111
1547 2220
1547 2227
1547 2304
1548 1573
1548 1588
1548 1677
1548 1679
1548 1754
1548 1980
1548 2024
1548 2052
1548 2068
1548 2147
1548 2151
1548 2191
1548 2204
1548 2244
1548 2304
1549 1643
1549 1881
1549 1926
1549 2033
1549 2135
1549 2170
1550 1570
1550 1638
1550 1655
1550 1709
1550 1759
1550 1778
1550 1802
1550 1828
1550 1834
1550 1900
1550 1910
1550 1920
1550 1963
1550 1974
1550 1999
1550 2029
1550 2034
1550 2043
1550 2051
1550 2058
1550 2059
1550 2062
1550 2073
1550 2093
1550 2143
1550 2195
1550 2251
1550 2273
1550 2284
1550 2296
1551 1736
1551 1739
1551 1862
1551 1898
1551 1914
1551 2038
1551 2044
1551 2077
1551 2099
1551 2239
1551 2287
1552 1555
1552 1592
1552 1617
1552 1720
1552 1816
1552 1846
1552 1847
1552 1855
1552 1952
1552 1985
1552 2001
1552 2013
1552 2044
1552 2052
1552 2053
1552 2061
1552 2091
1552 2123
1552 2143
1552 2151
1552 2199
1552 2218
1552 2253
1553 1696
1553 1791
1553 1898
1553 2011
1553 2052
1553 2178
1554 1565
1554 1568
1554 1577
1554 1634
1554 1693
1554 1732
1554 1738
1554 1741
1554 1777
1554 1790
1554 1809
1554 1815
1554 1825
1554 1871
1554 1879
1554 1885
1554 1891
1554 1893
1554 1909
1554 1931
1554 1964
1554 1984
1554 1994
1554 2008
1554 2016
1554 2017
1554 2024
1554 2027
1554 2048
1554 2067
1554 2069
1554 2087
1554 2089
1554 2144
1554 2159
1554 2161
1554 2163
1554 2183
1554 2203
1554 2232
1554 2271
1554 2295
1555 1678
1555 1883
1555 2004
1555 2165
1556 1562
1556 1577
1556 1579
1556 1621
1556 1625
1556 1654
1556 1663
1556 1664
1556 1676
1556 1683
1556 1746
1556 1751
1556 1776
1556 1793
1556 1870
1556 1873
1556 1874
1556 1909
1556 1957
1556 1996
1556 2027
1556 2040
1556 2047
1556 2095
1556 2098
1556 2167
1556 2193
1556 2196
1556 2201
1556 2212
1556 2225
1556 2240
1556 2257
1556 2289
1557 1573
1557 1667
1557 1706
1557 1708
1557 1717
1557 1752
1557 1776
1557 1793
1557 1798
1557 1842
1557 1853
1557 1864
1557 1879
1557 1951
1557 1957
1557 2048
1557 2100
1557 2135
1557 2151
1557 2185
1558 1590
1558 1620
1558 1646
1558 1650
1558 1667
1558 1669
1558 1671
1558 1708
1558 1715
1558 1717
1558 1737
1558 1760
1558 1782
1558 1787
1558 1792
1558 1798
1558 1813
1558 1825
1558 1844
1558 1859
1558 1866
1558 1911
1558 1921
1558 1931
1558 1980
1558 1984
1558 2037
1558 2049
1558 2066
1558 2103
1558 2133
1558 2151
1558 2174
1558 2176
1558 2177
1558 2206
1558 2261
1558 2280
1559 1563
1559 1579
1559 1621
1559 1716
1559 1763
1559 1782
1559 1824
1559 1846
1559 1908
1559 1909
1559 1921
1559 1927
1559 1938
1559 1959
1559 1963
1559 2049
1559 2086
1559 2151
1559 2192
1559 2210
1559 2225
1559 2233
1559 2272
1560 1580
1560 1598
1560 1659
1560 1713
1560 1741
1560 1873
1560 1964
1560 2037
1560 2081
1560 2175
1560 2231
1560 2236
1560 2303
1561 1563
1561 1576
1561 1590
1561 1600
1561 1650
1561 1703
1561 1708
1561 1734
1561 1755
1561 1772
1561 1779
1561 1786
1561 1787
1561 1796
1561 1810
1561 1818
1561 1825
1561 1845
1561 1848
1561 1849
1561 1851
1561 1859
1561 1874
1561 1887
1561 1888
1561 1895
1561 1911
1561 1921
1561 1931
1561 1954
1561 1961
1561 1969
1561 1982
1561 1984
1561 1989
1561 2037
1561 2056
1561 2076
1561 2104
1561 2113
1561 2120
1561 2149
1561 2154
1561 2156
1561 2160
1561 2168
1561 2177
1561 2197
1561 2220
1561 2227
1561 2232
1561 2234
1561 2242
1561 2260
1561 2265
1561 2288
1562 1580
1562 1615
1562 1619
1562 1621
1562 1623
1562 1683
1562 1760
1562 1809
1562 1821
1562 1870
1562 1974
1562 2027
1562 2036
1562 2078
1562 2081
1562 2095
1562 2098
1562 2127
1562 2202
1562 2210
1562 2212
1562 2225
1562 2268
1562 2289
1563 1566
1563 1576
1563 1588
1563 1605
1563 1621
1563 1638
1563 1645
1563 1650
1563 1672
1563 1674
1563 1677
1563 1679
1563 1684
1563 1690
1563 1702
1563 1709
1563 1716
1563 1743
1563 1755
1563 1756
1563 1784
1563 1786
1563 1802
1563 1804
1563 1810
1563 1812
1563 1813
1563 1824
1563 1825
1563 1828
1563 1840
1563 1845
1563 1848
1563 1852
1563 1859
1563 1864
1563 1868
1563 1869
1563 1906
1563 1911
1563 1918
1563 1919
1563 1920
1563 1921
1563 1931
1563 1932
1563 1945
1563 1949
1563 1956
1563 1963
1563 1969
1563 1977
1563 1979
1563 1980
1563 1982
1563 1984
1563 1989
1563 2003
1563 2019
1563 2024
1563 2043
1563 2045
1563 2051
1563 2059
1563 2060
1563 2062
1563 2065
1563 2068
1563 2072
1563 2073
1563 2074
1563 2084
1563 2086
1563 2104
1563 2108
1563 2120
1563 2123
1563 2132
1563 2143
1563 2144
1563 2150
1563 2156
1563 2160
1563 2174
1563 2187
1563 2202
1563 2210
1563 2232
1563 2251
1563 2265
1563 2272
1563 2273
1563 2287
1563 2295
1563 2304
1563 2305
1563 2306
1564 1606
1564 1620
1564 1625
1564 1668
1564 1672
1564 1673
1564 1675
1564 1687
1564 1704
1564 1717
1564 1723
1564 1726
1564 1782
1564 1789
1564 1799
1564 1814
1564 1835
1564 1851
1564 1853
1564 1859
1564 1879
1564 1885
1564 1891
1564 1928
1564 1931
1564 1932
1564 1939
1564 1948
1564 1954
1564 1957
1564 1984
1564 1987
1564 2007
1564 2008
1564 2013
1564 2023
1564 2027
1564 2079
1564 2089
1564 2100
1564 2135
1564 2146
1564 2174
1564 2212
1564 2232
1564 2245
1564 2260
1564 2270
1564 2274
1564 2281
1564 2298
1564 2304
1565 1580
1565 1618
1565 1623
1565 1699
1565 1719
1565 1778
1565 1781
1565 1890
1565 2062
1565 2132
1565 2143
1565 2209
1566 1568
1566 1576
1566 1598
1566 1606
1566 1612
1566 1613
1566 1633
1566 1638
1566 1645
1566 1646
1566 1674
1566 1676
1566 1684
1566 1709
1566 1718
1566 1769
1566 1778
1566 1802
1566 1804
1566 1815
1566 1834
1566 1840
1566 1852
1566 1868
1566 1869
1566 1873
1566 1896
1566 1915
1566 1949
1566 1950
1566 1956
1566 1963
1566 1974
1566 1977
1566 1999
1566 2024
1566 2029
1566 2051
1566 2059
1566 2062
1566 2072
1566 2073
1566 2104
1566 2140
1566 2162
1566 2187
1566 2195
1566 2246
1566 2251
1566 2281
1566 2295
1567 1587
1567 1727
1567 1827
1567 1839
1567 1849
1567 1854
1567 2049
1567 2068
1567 2097
1567 2113
1567 2156
1567 2176
1567 2234
1567 2242
1567 2254
1568 1578
1568 1586
1568 1601
1568 1612
1568 1620
1568 1626
1568 1632
1568 1633
1568 1644
1568 1718
1568 1778
1568 1815
1568 1885
1568 1986
1568 1992
1568 2012
1568 2014
1568 2015
1568 2036
1568 2057
1568 2087
1568 2140
1568 2162
1568 2182
1568 2190
1568 2292
1569 1580
1569 1645
1569 1646
1569 1703
1569 1743
1569 1780
1569 1796
1569 1849
1569 1851
1569 1857
1569 1868
1569 1949
1569 1956
1569 1966
1569 2056
1569 2093
1569 2143
1569 2144
1569 2175
1569 2265
1569 2284
1569 2296
1570 1580
1570 1584
1570 1606
1570 1618
1570 1655
1570 1685
1570 1795
1570 1823
1570 1828
1570 1890
1570 1913
1570 1955
1570 1956
1570 1963
1570 1971
1570 1974
1570 1987
1570 2051
1570 2062
1570 2078
1570 2123
1570 2174
1570 2198
1570 2241
1570 2307
1571 1575
1571 1600
1571 1650
1571 1697
1571 1713
1571 1734
1571 1771
1571 1776
1571 1802
1571 1803
1571 1813
1571 1835
1571 1840
1571 1848
1571 1866
1571 1869
1571 1874
1571 1880
1571 1899
1571 1925
1571 1931
1571 1935
1571 1953
1571 1974
1571 2022
1571 2037
1571 2055
1571 2063
1571 2068
1571 2101
1571 2108
1571 2156
1571 2168
1571 2175
1571 2221
1571 2225
1571 2232
1571 2248
1571 2252
1571 2265
1571 2289
1572 1582
1572 1663
1572 1767
1573 1578
1573 1588
1573 1667
1573 1677
1573 1679
1573 1726
1573 1771
1573 1782
1573 1785
1573 1825
1573 1836
1573 1844
1573 1857
1573 1859
1573 1860
1573 1885
1573 1921
1573 1954
1573 1961
1573 1980
1573 1991
1573 2015
1573 2023
1573 2042
1573 2048
1573 2052
1573 2066
1573 2068
1573 2089
1573 2097
1573 2100
1573 2154
1573 2167
1573 2176
1573 2177
1573 2191
1573 2204
1573 2228
1573 2240
1573 2258
1573 2261
1573 2269
1573 2270
1573 2311
1574 1579
1574 1613
1574 1619
1574 1621
1574 1652
1574 1656
1574 1712
1574 1721
1574 1725
1574 1739
1574 1751
1574 1791
1574 1801
1574 1816
1574 1861
1574 1883
1574 1938
1574 1947
1574 1952
1574 1959
1574 2001
1574 2064
1574 2164
1574 2188
1574 2199
1574 2202
1574 2214
1574 2233
1574 2239
1574 2256
1574 2287
1575 1583
1575 1598
1575 1600
1575 1658
1575 1713
1575 1769
1575 1803
1575 1819
1575 1835
1575 1853
1575 1886
1575 1958
1575 1974
1575 1994
1575 2055
1575 2063
1575 2067
1575 2185
1575 2225
1575 2231
1575 2298
1576 1606
1576 1633
1576 1674
1576 1679
1576 1690
1576 1700
1576 1709
1576 1727
1576 1755
1576 1774
1576 1786
1576 1802
1576 1803
1576 1812
1576 1825
1576 1834
1576 1840
1576 1845
1576 1848
1576 1852
1576 1869
1576 1874
1576 1898
1576 1906
1576 1918
1576 1921
1576 1924
1576 1931
1576 1949
1576 1963
1576 1969
1576 1977
1576 1982
1576 1984
1576 1998
1576 2024
1576 2045
1576 2051
1576 2059
1576 2060
1576 2065
1576 2073
1576 2074
1576 2097
1576 2104
1576 2120
1576 2132
1576 2146
1576 2156
1576 2168
1576 2195
1576 2254
1576 2265
1576 2272
1576 2304
1576 2306
1577 1687
1577 1740
1577 1881
1577 1885
1577 1968
1577 2067
1577 2089
1577 2189
1578 1634
1578 1677
1578 1689
1578 1701
1578 1703
1578 1751
1578 1771
1578 1772
1578 1782
1578 1787
1578 1831
1578 1836
1578 1842
1578 1844
1578 1851
1578 1859
1578 1872
1578 1874
1578 1904
1578 1911
1578 1921
1578 1931
1578 1940
1578 1961
1578 1984
1578 1992
1578 2023
1578 2042
1578 2081
1578 2088
1578 2127
1578 2138
1578 2154
1578 2160
1578 2203
1578 2211
1578 2220
1578 2232
1578 2274
1578 2288
1578 2311
1579 1580
1579 1591
1579 1615
1579 1619
1579 1621
1579 1645
1579 1676
1579 1683
1579 1702
1579 1716
1579 1721
1579 1741
1579 1751
1579 1763
1579 1782
1579 1791
1579 1793
1579 1804
1579 1809
1579 1813
1579 1816
1579 1822
1579 1880
1579 1883
1579 1896
1579 1915
1579 1938
1579 1959
1579 1963
1579 1967
1579 1987
1579 2002
1579 2019
1579 2021
1579 2047
1579 2049
1579 2062
1579 2112
1579 2130
1579 2147
1579 2151
1579 2156
1579 2164
1579 2166
1579 2195
1579 2202
1579 2210
1579 2214
1579 2225
1579 2233
1579 2240
1579 2271
1579 2284
1579 2289
1579 2312
1580 1618
1580 1655
1580 1659
1580 1672
1580 1693
1580 1713
1580 1763
1580 1769
1580 1812
1580 1822
1580 1824
1580 1828
1580 1833
1580 1841
1580 1863
1580 1873
1580 1880
1580 1883
1580 1890
1580 1896
1580 1900
1580 1928
1580 1988
1580 1999
1580 2019
1580 2021
1580 2051
1580 2062
1580 2112
1580 2143
1580 2163
1580 2174
1580 2175
1580 2183
1580 2195
1580 2198
1580 2231
1580 2241
1580 2284
1580 2295
1580 2296
1580 2307
1580 2309
1581 1583
1581 1590
1581 1637
1581 1667
1581 1669
1581 1703
1581 1717
1581 1746
1581 1748
1581 1776
1581 1792
1581 1798
1581 1825
1581 1851
1581 1854
1581 1864
1581 1866
1581 1879
1581 1888
1581 1931
1581 1945
1581 1951
1581 2025
1581 2066
1581 2133
1581 2242
1581 2245
1581 2260
1581 2274
1582 1592
1582 1608
1582 1610
1582 1651
1582 1682
1582 1695
1582 1711
1582 1723
1582 1736
1582 1739
1582 1759
1582 1915
1582 1933
1582 1961
1582 1963
1582 1999
1582 2028
1582 2038
1582 2105
1582 2108
1582 2114
1582 2143
1582 2151
1582 2155
1582 2207
1582 2230
1582 2253
1583 1590
1583 1606
1583 1637
1583 1645
1583 1716
1583 1753
1583 1775
1583 1776
1583 1792
1583 1825
1583 1831
1583 1864
1583 1866
1583 1871
1583 1878
1583 1879
1583 1913
1583 1931
1583 1945
1583 1957
1583 1984
1583 2025
1583 2046
1583 2060
1583 2066
1583 2092
1583 2109
1583 2113
1583 2124
1583 2133
1583 2146
1583 2176
1583 2184
1583 2189
1583 2225
1583 2237
1583 2255
1583 2260
1583 2262
1583 2272
1583 2274
1584 1599
1584 1680
1584 1767
1584 1864
1584 1962
1584 1987
1584 1994
1584 2005
1584 2036
1584 2106
1584 2110
1584 2117
1584 2174
1584 2221
1584 2233
1584 2284
1585 1610
1585 1666
1585 1736
1585 1861
1585 1947
1585 2044
1585 2052
1585 2107
1585 2218
1585 2230
1586 1595
1586 1612
1586 1620
1586 1633
1586 1743
1586 1778
1586 1815
1586 1834
1586 1854
1586 1866
1586 1885
1586 1928
1586 1950
1586 1963
1586 1986
1586 1999
1586 2008
1586 2015
1586 2057
1586 2110
1586 2140
1586 2162
1586 2175
1586 2190
1586 2225
1586 2264
1586 2304
1587 1753
1587 1924
1587 2037
1587 2068
1587 2109
1587 2113
1587 2141
1587 2171
1587 2176
1587 2192
1587 2215
1587 2219
1587 2234
1587 2242
1587 2262
1588 1677
1588 1679
1588 1754
1588 1760
1588 1763
1588 1782
1588 1789
1588 1828
1588 1859
1588 1867
1588 1906
1588 1907
1588 1919
1588 1961
1588 1980
1588 2013
1588 2024
1588 2068
1588 2147
1588 2151
1588 2154
1588 2167
1588 2191
1588 2204
1588 2228
1588 2244
1588 2272
1588 2304
1588 2311
1589 1613
1589 1665
1589 1666
1589 1694
1589 1696
1589 1705
1589 1720
1589 1721
1589 1739
1589 1759
1589 1791
1589 1797
1589 1846
1589 1862
1589 1898
1589 1938
1589 1947
1589 1963
1589 1981
1589 2038
1589 2044
1589 2052
1589 2053
1589 2077
1589 2086
1589 2099
1589 2152
1589 2188
1589 2199
1589 2239
1589 2297
1589 2302
1590 1625
1590 1634
1590 1637
1590 1650
1590 1667
1590 1669
1590 1697
1590 1703
1590 1708
1590 1715
1590 1717
1590 1730
1590 1736
1590 1738
1590 1746
1590 1751
1590 1752
1590 1765
1590 1776
1590 1782
1590 1792
1590 1796
1590 1798
1590 1812
1590 1815
1590 1825
1590 1840
1590 1844
1590 1849
1590 1851
1590 1853
1590 1857
1590 1859
1590 1860
1590 1864
1590 1866
1590 1874
1590 1879
1590 1882
1590 1888
1590 1911
1590 1921
1590 1931
1590 1951
1590 1984
1590 1992
1590 2019
1590 2025
1590 2037
1590 2046
1590 2049
1590 2066
1590 2084
1590 2097
1590 2100
1590 2113
1590 2120
1590 2133
1590 2150
1590 2154
1590 2156
1590 2160
1590 2177
1590 2184
1590 2185
1590 2206
1590 2215
1590 2242
1590 2245
1590 2260
1590 2261
1590 2274
1590 2280
1590 2308
1590 2310
1591 1620
1591 1647
1591 1736
1591 1739
1591 1756
1591 1822
1591 1889
1591 1898
1591 1933
1591 1943
1591 1981
1591 2004
1591 2044
1591 2102
1591 2152
1591 2202
1591 2217
1591 2218
1592 1597
1592 1605
1592 1608
1592 1616
1592 1651
1592 1652
1592 1661
1592 1662
1592 1665
1592 1666
1592 1682
1592 1691
1592 1694
1592 1711
1592 1720
1592 1721
1592 1731
1592 1736
1592 1738
1592 1757
1592 1758
1592 1791
1592 1797
1592 1819
1592 1846
1592 1855
1592 1861
1592 1875
1592 1883
1592 1889
1592 1933
1592 1937
1592 1947
1592 1957
1592 1972
1592 2001
1592 2002
1592 2004
1592 2011
1592 2020
1592 2026
1592 2028
1592 2044
1592 2052
1592 2053
1592 2077
1592 2080
1592 2102
1592 2114
1592 2142
1592 2173
1592 2178
1592 2217
1592 2239
1592 2253
1592 2256
1592 2287
1592 2294
1592 2302
1593 1610
1593 1647
1593 1721
1593 1736
1593 1898
1593 1918
1593 1947
1593 1949
1593 2038
1593 2152
1593 2287
1594 1618
1594 1623
1594 1680
1594 1685
1594 1692
1594 1767
1594 1806
1594 1963
1594 1966
1594 1987
1594 2005
1594 2013
1594 2062
1594 2096
1594 2205
1594 2209
1594 2212
1594 2268
1594 2299
1595 1598
1595 1682
1595 1706
1595 1717
1595 1726
1595 1741
1595 1762
1595 1783
1595 1790
1595 1873
1595 1893
1595 1928
1595 1962
1595 1964
1595 1986
1595 2037
1595 2048
1595 2089
1595 2105
1595 2143
1595 2174
1595 2203
1595 2281
1595 2295
1597 1662
1597 1682
1597 1791
1597 1828
1597 1838
1597 2009
1597 2173
1597 2178
1597 2253
1598 1606
1598 1630
1598 1635
1598 1650
1598 1658
1598 1659
1598 1693
1598 1697
1598 1702
1598 1713
1598 1738
1598 1740
1598 1748
1598 1760
1598 1771
1598 1774
1598 1799
1598 1803
1598 1825
1598 1829
1598 1834
1598 1844
1598 1853
1598 1869
1598 1873
1598 1891
1598 1911
1598 1950
1598 1951
1598 1956
1598 1958
1598 1974
1598 1992
1598 1995
1598 2022
1598 2037
1598 2046
1598 2055
1598 2060
1598 2066
1598 2067
1598 2081
1598 2088
1598 2150
1598 2154
1598 2163
1598 2175
1598 2206
1598 2211
1598 2213
1598 2225
1598 2231
1598 2236
1598 2255
1598 2270
1598 2289
1598 2295
1598 2304
1598 2306
1598 2307
1599 1618
1599 1638
1599 1672
1599 1719
1599 1873
1599 2005
1599 2034
1599 2062
1599 2078
1599 2106
1599 2123
1599 2132
1599 2143
1599 2258
1599 2281
1600 1607
1600 1650
1600 1713
1600 1734
1600 1755
1600 1803
1600 1812
1600 1848
1600 1874
1600 1899
1600 1921
1600 1951
1600 1974
1600 1982
1600 2037
1600 2055
1600 2071
1600 2156
1600 2225
1600 2248
1600 2252
1600 2265
1600 2306
1601 1815
1601 1876
1601 1885
1601 1968
1601 2012
1601 2015
1601 2017
1601 2057
1601 2135
1601 2161
1601 2222
1601 2270
1602 1625
1602 1656
1602 1720
1602 1725
1602 1801
1602 1816
1602 2114
1603 1693
1603 2083
1604 1652
1604 1757
1604 1794
1604 1820
1604 1847
1604 2004
1604 2011
1604 2044
1604 2198
1604 2302
1605 1612
1605 1638
1605 1672
1605 1769
1605 1824
1605 1896
1605 1908
1605 1989
1605 2003
1605 2030
1605 2072
1605 2073
1605 2078
1605 2123
1605 2202
1606 1684
1606 1697
1606 1702
1606 1709
1606 1732
1606 1774
1606 1796
1606 1823
1606 1828
1606 1834
1606 1846
1606 1852
1606 1869
1606 1873
1606 1899
1606 1913
1606 1916
1606 1919
1606 1949
1606 1950
1606 1958
1606 1963
1606 1964
1606 1969
1606 1974
1606 1977
1606 1998
1606 2022
1606 2043
1606 2062
1606 2088
1606 2107
1606 2163
1606 2225
1606 2272
1606 2289
1606 2295
1607 1713
1607 1899
1607 2003
1607 2046
1607 2306
1608 1616
1608 1636
1608 1662
1608 1665
1608 1736
1608 1739
1608 1759
1608 1791
1608 1847
1608 1970
1608 2002
1608 2020
1608 2061
1608 2110
1608 2155
1608 2239
1608 2256
1609 1629
1609 1643
1609 1748
1609 1831
1609 2047
1609 2160
1609 2206
1609 2219
1610 1656
1610 1665
1610 1666
1610 1686
1610 1696
1610 1721
1610 1736
1610 1759
1610 1819
1610 1846
1610 1861
1610 1898
1610 1938
1610 1947
1610 1953
1610 1970
1610 1981
1610 2001
1610 2038
1610 2044
1610 2052
1610 2152
1610 2178
1610 2199
1610 2239
1610 2256
1610 2287
1611 1634
1611 1724
1611 1730
1611 1734
1611 1751
1611 1755
1611 1772
1611 1784
1611 1787
1611 1792
1611 1813
1611 1825
1611 1844
1611 1852
1611 1874
1611 1878
1611 1921
1611 1925
1611 1931
1611 1935
1611 1936
1611 1982
1611 1984
1611 2088
1611 2120
1611 2133
1611 2146
1611 2160
1611 2177
1611 2206
1611 2219
1611 2229
1611 2232
1611 2237
1611 2260
1612 1618
1612 1633
1612 1646
1612 1718
1612 1732
1612 1737
1612 1742
1612 1778
1612 1815
1612 1824
1612 1828
1612 1834
1612 1841
1612 1843
1612 1863
1612 1908
1612 1948
1612 1956
1612 1963
1612 1974
1612 1987
1612 2008
1612 2043
1612 2051
1612 2062
1612 2072
1612 2073
1612 2088
1612 2110
1612 2116
1612 2144
1612 2162
1612 2202
1612 2225
1612 2259
1612 2310
1613 1652
1613 1656
1613 1661
1613 1691
1613 1722
1613 1736
1613 1739
1613 1797
1613 1820
1613 1832
1613 1865
1613 1889
1613 1898
1613 1966
1613 2001
1613 2011
1613 2028
1613 2044
1613 2080
1613 2173
1613 2230
1613 2256
1613 2309
1615 1619
1615 1621
1615 1623
1615 1676
1615 1793
1615 1804
1615 1809
1615 1816
1615 1867
1615 1896
1615 1909
1615 1924
1615 1957
1615 1977
1615 2027
1615 2104
1615 2130
1615 2143
1615 2147
1615 2151
1615 2164
1615 2166
1615 2167
1615 2182
1615 2202
1615 2210
1615 2214
1615 2225
1615 2233
1615 2240
1615 2312
1616 1694
1616 1721
1616 1798
1616 1972
1616 2020
1616 2044
1616 2199
1617 1665
1617 1678
1617 1712
1617 1733
1617 1794
1617 1855
1617 1914
1617 1970
1617 1985
1617 2061
1618 1638
1618 1655
1618 1719
1618 1778
1618 1890
1618 1948
1618 1994
1618 2005
1618 2027
1618 2051
1618 2210
1618 2241
1619 1621
1619 1625
1619 1664
1619 1676
1619 1680
1619 1697
1619 1708
1619 1751
1619 1793
1619 1809
1619 1835
1619 1844
1619 1870
1619 1909
1619 1996
1619 2089
1619 2095
1619 2098
1619 2130
1619 2151
1619 2164
1619 2166
1619 2167
1619 2185
1619 2193
1619 2202
1619 2214
1619 2225
1619 2240
1619 2268
1619 2269
1620 1644
1620 1668
1620 1717
1620 1752
1620 1753
1620 1843
1620 1857
1620 1864
1620 1873
1620 1927
1620 1933
1620 1943
1620 1952
1620 1957
1620 1986
1620 1994
1620 2008
1620 2016
1620 2027
1620 2036
1620 2089
1620 2102
1620 2105
1620 2124
1620 2151
1620 2174
1620 2175
1620 2198
1620 2202
1620 2208
1620 2260
1620 2264
1621 1625
1621 1663
1621 1664
1621 1676
1621 1724
1621 1741
1621 1751
1621 1760
1621 1767
1621 1771
1621 1782
1621 1793
1621 1795
1621 1801
1621 1809
1621 1810
1621 1813
1621 1816
1621 1844
1621 1845
1621 1859
1621 1867
1621 1870
1621 1874
1621 1888
1621 1908
1621 1909
1621 1957
1621 1958
1621 1963
1621 1979
1621 1996
1621 2027
1621 2040
1621 2049
1621 2051
1621 2095
1621 2098
1621 2108
1621 2120
1621 2130
1621 2151
1621 2156
1621 2162
1621 2164
1621 2166
1621 2167
1621 2193
1621 2196
1621 2202
1621 2210
1621 2225
1621 2237
1621 2255
1621 2258
1621 2260
1621 2271
1621 2274
1621 2289
1621 2311
1622 1678
1622 1985
1623 1655
1623 1699
1623 1726
1623 1781
1623 1791
1623 1880
1623 1896
1623 1900
1623 1920
1623 2030
1623 2062
1623 2078
1623 2082
1623 2118
1623 2132
1623 2143
1623 2192
1623 2196
1623 2198
1623 2210
1623 2214
1623 2229
1623 2233
1623 2264
1623 2268
1624 1761
1624 1911
1624 2138
1624 2235
1625 1643
1625 1676
1625 1683
1625 1708
1625 1716
1625 1723
1625 1741
1625 1751
1625 1767
1625 1771
1625 1776
1625 1793
1625 1805
1625 1809
1625 1816
1625 1836
1625 1844
1625 1845
1625 1849
1625 1874
1625 1879
1625 1882
1625 1899
1625 1908
1625 1909
1625 1913
1625 1952
1625 1979
1625 1983
1625 1987
1625 1991
1625 1996
1625 2008
1625 2023
1625 2027
1625 2046
1625 2098
1625 2100
1625 2127
1625 2130
1625 2151
1625 2164
1625 2166
1625 2196
1625 2203
1625 2225
1625 2255
1625 2268
1625 2269
1625 2276
1625 2308
1625 2311
1626 1713
1626 1742
1626 1760
1626 1775
1626 1806
1626 1891
1626 1894
1626 2017
1626 2025
1626 2055
1626 2174
1626 2183
1627 1939
1627 1953
1627 2234
1627 2242
1628 1680
1628 1697
1628 1767
1628 1821
1628 1886
1628 2143
1628 2154
1628 2212
1628 2268
1628 2289
1629 1643
1629 1717
1629 1775
1629 1815
1629 1831
1629 1870
1629 1876
1629 1885
1629 1968
1629 2008
1629 2015
1629 2089
1629 2180
1630 1633
1630 1638
1630 1646
1630 1660
1630 1742
1630 1745
1630 1751
1630 1752
1630 1760
1630 1762
1630 1774
1630 1782
1630 1799
1630 1804
1630 1805
1630 1864
1630 1871
1630 1883
1630 1891
1630 1894
1630 1897
1630 1925
1630 1926
1630 1931
1630 1946
1630 1987
1630 1992
1630 2007
1630 2021
1630 2034
1630 2049
1630 2066
1630 2073
1630 2081
1630 2115
1630 2117
1630 2128
1630 2138
1630 2147
1630 2190
1630 2195
1630 2221
1630 2236
1630 2279
1630 2280
1630 2310
1632 1633
1632 1815
1632 1885
1632 2016
1632 2172
1632 2182
1633 1648
1633 1676
1633 1700
1633 1718
1633 1774
1633 1778
1633 1803
1633 1815
1633 1829
1633 1842
1633 1848
1633 1853
1633 1858
1633 1866
1633 1873
1633 1879
1633 1885
1633 1911
1633 1921
1633 1931
1633 1950
1633 1953
1633 1974
1633 1986
1633 1993
1633 2015
1633 2022
1633 2051
1633 2056
1633 2057
1633 2060
1633 2068
1633 2076
1633 2101
1633 2110
1633 2140
1633 2160
1633 2162
1633 2185
1633 2190
1633 2221
1633 2236
1633 2259
1633 2275
1633 2304
1634 1643
1634 1724
1634 1730
1634 1751
1634 1772
1634 1799
1634 1803
1634 1825
1634 1827
1634 1844
1634 1849
1634 1874
1634 1878
1634 1885
1634 1903
1634 1925
1634 1931
1634 1936
1634 1982
1634 1984
1634 1992
1634 2008
1634 2017
1634 2027
1634 2043
1634 2067
1634 2089
1634 2120
1634 2128
1634 2146
1634 2148
1634 2171
1634 2179
1634 2203
1634 2215
1634 2219
1634 2235
1634 2242
1634 2260
1634 2288
1635 1741
1635 1743
1635 1751
1635 1803
1635 1898
1635 1950
1635 1958
1635 2037
1635 2055
1635 2154
1635 2213
1635 2220
1636 1739
1636 2155
1637 1650
1637 1669
1637 1708
1637 1728
1637 1740
1637 1776
1637 1792
1637 1908
1637 1921
1637 1951
1637 1986
1637 2039
1637 2046
1637 2066
1637 2067
1637 2115
1637 2133
1637 2156
1637 2260
1637 2274
1637 2292
1638 1646
1638 1655
1638 1672
1638 1674
1638 1685
1638 1699
1638 1709
1638 1769
1638 1802
1638 1817
1638 1828
1638 1834
1638 1863
1638 1869
1638 1873
1638 1883
1638 1886
1638 1890
1638 1970
1638 1999
1638 2021
1638 2022
1638 2034
1638 2062
1638 2073
1638 2082
1638 2117
1638 2143
1638 2195
1638 2208
1638 2273
1638 2310
1639 1706
1639 1718
1639 1723
1639 1752
1639 1798
1639 1842
1639 1858
1639 1864
1639 1879
1639 1896
1639 1912
1639 1983
1639 1988
1639 1995
1639 2008
1639 2056
1639 2100
1639 2174
1639 2259
1639 2264
1639 2275
1639 2301
1640 1657
1640 1668
1640 1713
1640 1742
1640 1820
1640 1843
1640 1873
1640 1891
1640 1894
1640 1964
1640 1971
1640 1988
1640 1994
1640 1995
1640 2055
1640 2073
1640 2122
1640 2147
1640 2186
1640 2187
1640 2259
1641 2212
1642 1668
1642 1726
1642 1814
1642 1834
1642 1835
1642 1873
1642 2129
1643 1669
1643 1677
1643 1701
1643 1703
1643 1740
1643 1775
1643 1831
1643 1849
1643 1859
1643 1878
1643 1885
1643 1927
1643 1931
1643 1961
1643 1968
1643 1996
1643 2015
1643 2025
1643 2042
1643 2047
1643 2109
1643 2135
1643 2157
1643 2167
1643 2170
1643 2179
1643 2222
1643 2223
1643 2260
1643 2261
1643 2262
1643 2277
1643 2286
1643 2288
1644 2032
1644 2194
1645 1646
1645 1692
1645 1709
1645 1763
1645 1802
1645 1803
1645 1804
1645 1812
1645 1822
1645 1824
1645 1841
1645 1845
1645 1852
1645 1866
1645 1868
1645 1869
1645 1880
1645 1883
1645 1896
1645 1907
1645 1945
1645 1963
1645 1980
1645 2013
1645 2019
1645 2045
1645 2059
1645 2074
1645 2104
1645 2112
1645 2143
1645 2144
1645 2187
1645 2246
1645 2260
1645 2272
1645 2273
1645 2284
1645 2296
1645 2305
1646 1650
1646 1679
1646 1684
1646 1690
1646 1755
1646 1774
1646 1778
1646 1782
1646 1802
1646 1804
1646 1860
1646 1869
1646 1883
1646 1926
1646 1956
1646 1966
1646 1977
1646 1987
1646 1989
1646 2013
1646 2021
1646 2034
1646 2049
1646 2051
1646 2073
1646 2079
1646 2101
1646 2104
1646 2117
1646 2143
1646 2144
1646 2147
1646 2195
1646 2220
1646 2272
1646 2273
1646 2280
1646 2284
1646 2295
1646 2296
1646 2306
1646 2310
1647 1739
1647 1756
1647 1801
1647 1820
1647 2001
1647 2004
1647 2009
1647 2044
1647 2152
1647 2217
1647 2218
1648 1703
1648 1731
1648 1796
1648 1895
1648 1934
1648 1953
1648 1999
1648 2056
1648 2076
1648 2111
1648 2187
1648 2259
1648 2296
1648 2304
1649 1863
1649 2008
1649 2310
1650 1658
1650 1703
1650 1713
1650 1730
1650 1734
1650 1738
1650 1740
1650 1748
1650 1755
1650 1765
1650 1786
1650 1787
1650 1803
1650 1812
1650 1813
1650 1818
1650 1825
1650 1840
1650 1844
1650 1845
1650 1852
1650 1869
1650 1874
1650 1918
1650 1931
1650 1932
1650 1935
1650 1951
1650 1956
1650 1969
1650 1977
1650 1989
1650 1992
1650 2003
1650 2021
1650 2024
1650 2037
1650 2039
1650 2046
1650 2055
1650 2067
1650 2068
1650 2071
1650 2101
1650 2104
1650 2111
1650 2133
1650 2141
1650 2149
1650 2156
1650 2171
1650 2176
1650 2177
1650 2206
1650 2219
1650 2227
1650 2242
1650 2252
1650 2255
1650 2265
1650 2269
1650 2274
1650 2277
1650 2280
1650 2289
1650 2292
1650 2304
1650 2306
1650 2311
1651 1652
1651 1686
1651 1861
1651 1862
1651 1889
1651 1930
1651 1943
1651 1961
1651 1985
1651 2044
1651 2107
1651 2137
1651 2253
1651 2302
1652 1719
1652 1733
1652 1794
1652 1797
1652 1890
1652 1943
1652 1985
1652 2004
1652 2028
1652 2044
1652 2093
1652 2253
1652 2302
1653 1781
1653 1796
1653 1849
1653 2056
1653 2308
1654 1683
1654 1697
1654 1809
1654 1837
1654 2017
1654 2027
1654 2047
1654 2060
1654 2095
1654 2098
1654 2240
1654 2250
1654 2300
1655 1778
1655 1890
1655 1900
1655 1949
1655 1987
1655 1999
1655 2051
1655 2138
1655 2143
1655 2210
1656 1722
1656 1725
1656 1797
1656 1801
1656 1816
1656 1938
1656 1952
1656 2080
1656 2164
1656 2174
1657 1675
1657 1726
1657 1732
1657 1741
1657 1744
1657 1829
1657 1873
1657 1913
1657 1927
1657 1964
1657 1990
1657 2022
1657 2070
1657 2088
1657 2108
1657 2110
1657 2197
1657 2281
1657 2303
1658 1713
1658 1738
1658 1740
1658 1748
1658 1854
1658 1956
1658 1976
1658 1992
1658 2003
1658 2016
1658 2017
1658 2055
1658 2067
1658 2081
1658 2118
1658 2211
1658 2236
1658 2270
1658 2276
1658 2292
1658 2306
1659 1676
1659 1741
1659 1834
1659 1873
1659 1974
1659 2115
1659 2175
1659 2212
1659 2231
1659 2307
1660 1740
1660 1776
1660 1785
1660 1931
1660 1961
1661 1682
1661 1828
1661 1838
1661 1898
1661 1947
1661 1981
1661 2004
1661 2044
1661 2178
1661 2230
1661 2287
1662 1696
1662 1791
1662 1847
1662 1892
1662 2009
1662 2020
1662 2178
1663 1668
1663 1672
1663 1676
1663 1717
1663 1723
1663 1726
1663 1748
1663 1809
1663 1814
1663 1815
1663 1870
1663 1873
1663 1878
1663 1886
1663 1908
1663 1976
1663 1996
1663 2027
1663 2057
1663 2069
1663 2095
1663 2127
1663 2129
1663 2146
1663 2177
1663 2182
1663 2203
1663 2236
1663 2237
1663 2240
1663 2274
1663 2276
1664 1793
1664 1801
1664 1809
1664 1913
1664 2040
1664 2098
1664 2166
1664 2225
1665 1666
1665 1714
1665 1720
1665 1736
1665 1739
1665 1757
1665 1759
1665 1797
1665 1816
1665 1889
1665 1969
1665 2001
1665 2038
1665 2044
1665 2052
1665 2077
1665 2091
1665 2178
1665 2199
1665 2218
1666 1711
1666 1736
1666 1739
1666 1791
1666 1801
1666 1816
1666 1820
1666 1830
1666 1847
1666 1861
1666 1981
1666 2044
1666 2077
1666 2152
1666 2155
1666 2188
1666 2199
1666 2230
1666 2239
1666 2283
1666 2294
1666 2297
1667 1669
1667 1706
1667 1708
1667 1736
1667 1792
1667 1825
1667 1844
1667 1849
1667 1853
1667 1857
1667 1866
1667 1879
1667 1882
1667 1951
1667 2046
1667 2049
1667 2066
1667 2100
1667 2103
1667 2113
1667 2133
1667 2177
1667 2184
1667 2185
1667 2260
1667 2261
1667 2280
1668 1672
1668 1687
1668 1717
1668 1726
1668 1742
1668 1745
1668 1748
1668 1803
1668 1814
1668 1821
1668 1835
1668 1873
1668 1885
1668 1901
1668 1922
1668 1958
1668 2015
1668 2057
1668 2089
1668 2116
1668 2121
1668 2129
1668 2146
1668 2172
1668 2232
1668 2270
1669 1675
1669 1703
1669 1706
1669 1708
1669 1717
1669 1724
1669 1746
1669 1787
1669 1825
1669 1836
1669 1849
1669 1855
1669 1866
1669 1888
1669 1921
1669 1927
1669 1931
1669 1951
1669 2007
1669 2049
1669 2066
1669 2084
1669 2089
1669 2097
1669 2101
1669 2103
1669 2133
1669 2150
1669 2151
1669 2160
1669 2177
1669 2206
1669 2215
1669 2232
1669 2242
1669 2245
1669 2254
1669 2258
1669 2261
1669 2269
1670 1886
1670 1907
1670 1910
1670 1918
1670 1920
1670 1924
1670 1947
1670 1949
1670 1963
1670 1974
1670 1975
1670 2013
1670 2022
1670 2029
1670 2043
1670 2045
1670 2058
1670 2075
1670 2086
1670 2094
1670 2104
1670 2112
1670 2120
1670 2234
1670 2244
1670 2273
1670 2296
1671 1708
1671 1715
1671 1717
1671 1782
1671 1790
1671 1792
1671 1859
1671 1880
1671 1921
1671 2023
1671 2049
1671 2065
1671 2120
1671 2126
1671 2134
1671 2149
1671 2177
1671 2240
1671 2260
1671 2269
1671 2280
1671 2302
1671 2304
1672 1674
1672 1713
1672 1726
1672 1769
1672 1795
1672 1820
1672 1824
1672 1828
1672 1835
1672 1841
1672 1843
1672 1886
1672 1924
1672 1972
1672 2008
1672 2011
1672 2013
1672 2022
1672 2043
1672 2062
1672 2065
1672 2082
1672 2093
1672 2143
1672 2198
1672 2303
1673 1782
1674 1709
1674 1792
1674 1841
1674 1852
1674 1869
1674 1880
1674 1931
1674 1949
1674 1999
1674 2019
1674 2082
1674 2143
1674 2163
1674 2192
1674 2273
1674 2295
1674 2296
1675 1704
1675 1752
1675 1781
1675 1785
1675 1818
1675 1823
1675 1864
1675 1921
1675 1927
1675 1931
1675 1940
1675 1962
1675 2000
1675 2008
1675 2015
1675 2038
1675 2049
1675 2089
1675 2105
1675 2151
1675 2174
1675 2212
1675 2240
1675 2281
1675 2298
1676 1708
1676 1713
1676 1732
1676 1741
1676 1746
1676 1751
1676 1753
1676 1760
1676 1771
1676 1785
1676 1787
1676 1793
1676 1796
1676 1805
1676 1809
1676 1810
1676 1829
1676 1844
1676 1896
1676 1898
1676 1899
1676 1909
1676 1913
1676 1931
1676 1948
1676 1956
1676 1957
1676 1958
1676 1961
1676 1963
1676 1977
1676 1979
1676 1983
1676 1987
1676 1989
1676 1992
1676 2027
1676 2035
1676 2046
1676 2047
1676 2051
1676 2056
1676 2065
1676 2101
1676 2110
1676 2117
1676 2130
1676 2134
1676 2144
1676 2147
1676 2151
1676 2156
1676 2164
1676 2182
1676 2191
1676 2195
1676 2197
1676 2202
1676 2220
1676 2225
1676 2228
1676 2233
1676 2255
1676 2268
1676 2269
1676 2276
1676 2289
1676 2303
1676 2311
1677 1679
1677 1703
1677 1743
1677 1754
1677 1755
1677 1760
1677 1789
1677 1836
1677 1849
1677 1859
1677 1908
1677 1911
1677 1919
1677 1921
1677 1927
1677 1961
1677 1980
1677 1982
1677 1984
1677 2023
1677 2042
1677 2049
1677 2060
1677 2068
1677 2101
1677 2127
1677 2147
1677 2151
1677 2154
1677 2156
1677 2167
1677 2171
1677 2190
1677 2191
1677 2204
1677 2228
1677 2240
1677 2244
1677 2258
1677 2261
1677 2269
1677 2277
1677 2280
1677 2304
1677 2311
1678 1711
1678 1733
1678 1797
1678 1847
1678 1883
1678 1898
1678 1985
1678 2011
1678 2044
1678 2061
1678 2132
1678 2173
1678 2253
1679 1684
1679 1697
1679 1720
1679 1754
1679 1760
1679 1763
1679 1789
1679 1802
1679 1804
1679 1824
1679 1852
1679 1859
1679 1869
1679 1907
1679 1919
1679 1921
1679 1924
1679 1956
1679 1963
1679 1977
1679 1980
1679 2003
1679 2013
1679 2019
1679 2024
1679 2045
1679 2060
1679 2068
1679 2101
1679 2104
1679 2112
1679 2123
1679 2144
1679 2147
1679 2151
1679 2154
1679 2163
1679 2167
1679 2187
1679 2191
1679 2202
1679 2204
1679 2228
1679 2240
1679 2244
1679 2272
1679 2274
1679 2287
1679 2289
1679 2295
1679 2304
1679 2311
1680 1683
1680 1699
1680 1746
1680 1753
1680 1765
1680 1767
1680 1795
1680 1821
1680 1870
1680 1928
1680 2046
1680 2062
1680 2089
1680 2106
1680 2145
1680 2184
1680 2212
1680 2221
1680 2255
1680 2268
1681 2103
1682 1739
1682 1828
1682 1838
1682 1898
1682 1933
1682 2011
1682 2044
1682 2173
1682 2178
1682 2253
1682 2281
1683 1697
1683 1809
1683 1821
1683 1837
1683 1844
1683 1870
1683 1909
1683 1967
1683 2027
1683 2060
1683 2095
1683 2096
1683 2125
1683 2145
1683 2212
1683 2240
1683 2299
1684 1824
1684 1834
1684 1835
1684 1845
1684 1974
1684 1999
1684 2003
1684 2013
1684 2036
1684 2045
1684 2059
1684 2060
1684 2066
1684 2071
1684 2074
1684 2123
1684 2147
1684 2225
1684 2251
1684 2273
1684 2295
1685 1802
1685 1817
1685 1848
1685 1852
1685 1890
1685 1956
1685 1963
1685 1987
1685 2013
1685 2051
1685 2062
1685 2073
1685 2078
1685 2123
1685 2198
1685 2210
1685 2309
1686 1869
1686 1889
1686 1930
1686 2044
1686 2091
1686 2302
1687 1748
1687 1857
1687 1885
1687 1921
1687 1925
1687 2189
1687 2219
1687 2262
1687 2274
1688 1767
1688 1775
1688 1873
1688 1885
1688 1968
1688 2106
1689 1836
1689 1842
1689 1843
1689 1853
1689 1857
1689 1879
1689 1927
1689 1940
1689 2008
1689 2066
1689 2081
1689 2160
1689 2185
1689 2220
1689 2261
1689 2264
1690 1702
1690 1724
1690 1834
1690 1845
1690 1860
1690 1868
1690 1915
1690 1926
1690 1963
1690 1974
1690 2029
1690 2045
1690 2072
1690 2101
1690 2123
1690 2220
1690 2272
1690 2295
1691 1797
1692 2013
1692 2246
1693 1790
1693 1883
1693 1893
1693 2048
1693 2083
1693 2143
1693 2144
1693 2147
1693 2163
1693 2295
1694 2143
1695 1933
1695 2155
1696 1711
1696 1721
1696 1757
1696 1773
1696 1791
1696 1832
1696 1846
1696 1847
1696 1898
1696 2001
1696 2044
1696 2053
1696 2137
1696 2199
1696 2239
1697 1716
1697 1723
1697 1741
1697 1750
1697 1754
1697 1778
1697 1790
1697 1793
1697 1796
1697 1804
1697 1809
1697 1818
1697 1834
1697 1837
1697 1874
1697 1899
1697 1909
1697 1913
1697 1919
1697 1929
1697 1931
1697 1950
1697 1974
1697 1991
1697 1993
1697 2008
1697 2022
1697 2027
1697 2056
1697 2060
1697 2069
1697 2082
1697 2095
1697 2104
1697 2120
1697 2129
1697 2151
1697 2154
1697 2164
1697 2166
1697 2167
1697 2175
1697 2184
1697 2204
1697 2210
1697 2233
1697 2240
1697 2248
1697 2252
1697 2268
1697 2289
1697 2304
1698 2010
1699 1764
1699 1769
1699 1781
1699 1828
1699 1884
1699 1886
1699 1890
1699 1999
1699 2039
1699 2043
1699 2062
1699 2072
1699 2132
1699 2198
1699 2209
1700 1706
1700 1723
1700 1745
1700 1755
1700 1786
1700 1806
1700 1835
1700 1842
1700 1850
1700 1864
1700 1906
1700 1953
1700 2056
1700 2111
1700 2156
1700 2252
1700 2282
1700 2284
1700 2304
1700 2308
1701 1772
1701 2305
1702 1724
1702 1769
1702 1779
1702 1789
1702 1802
1702 1825
1702 1845
1702 1918
1702 1945
1702 1949
1702 1956
1702 1963
1702 2024
1702 2037
1702 2045
1702 2065
1702 2072
1702 2128
1702 2202
1702 2273
1702 2277
1702 2295
1702 2306
1703 1708
1703 1724
1703 1743
1703 1781
1703 1787
1703 1796
1703 1821
1703 1825
1703 1836
1703 1849
1703 1851
1703 1874
1703 1878
1703 1887
1703 1895
1703 1909
1703 1961
1703 1966
1703 2046
1703 2056
1703 2101
1703 2148
1703 2151
1703 2177
1703 2261
1703 2265
1703 2277
1704 1767
1704 1870
1704 2008
1704 2174
1704 2281
1705 1905
1705 2044
1705 2136
1706 1723
1706 1745
1706 1798
1706 1857
1706 1864
1706 1879
1706 1888
1706 1946
1706 1951
1706 1962
1706 1986
1706 2008
1706 2066
1706 2089
1706 2103
1706 2150
1706 2160
1706 2245
1706 2252
1706 2284
1706 2290
1707 1727
1707 2234
1708 1717
1708 1724
1708 1746
1708 1755
1708 1786
1708 1792
1708 1793
1708 1825
1708 1836
1708 1844
1708 1848
1708 1849
1708 1864
1708 1866
1708 1888
1708 1921
1708 1957
1708 1982
1708 1984
1708 2049
1708 2097
1708 2151
1708 2156
1708 2160
1708 2177
1708 2206
1708 2240
1708 2242
1708 2254
1708 2260
1708 2261
1708 2265
1708 2269
1708 2277
1709 1774
1709 1802
1709 1834
1709 1840
1709 1845
1709 1852
1709 1869
1709 1872
1709 1907
1709 1949
1709 1950
1709 1999
1709 2003
1709 2024
1709 2034
1709 2058
1709 2059
1709 2060
1709 2073
1709 2154
1709 2195
1709 2295
1709 2296
1709 2306
1710 1985
1710 2044
1710 2151
1710 2199
1711 1721
1711 1736
1711 1756
1711 1757
1711 1759
1711 1819
1711 1873
1711 1876
1711 1943
1711 1947
1711 1952
1711 2001
1711 2002
1711 2006
1711 2044
1711 2052
1711 2053
1711 2199
1711 2218
1711 2302
1712 1757
1712 1826
1712 2049
1712 2230
1713 1738
1713 1740
1713 1741
1713 1743
1713 1748
1713 1760
1713 1765
1713 1771
1713 1775
1713 1799
1713 1806
1713 1864
1713 1873
1713 1891
1713 1894
1713 1899
1713 1913
1713 1951
1713 1956
1713 1958
1713 1964
1713 1974
1713 1992
1713 2037
1713 2039
1713 2046
1713 2055
1713 2063
1713 2067
1713 2081
1713 2101
1713 2110
1713 2111
1713 2118
1713 2156
1713 2175
1713 2183
1713 2211
1713 2213
1713 2225
1713 2236
1713 2248
1713 2252
1713 2255
1713 2259
1713 2306
1714 1736
1714 1755
1714 1865
1714 1950
1714 2142
1714 2256
1715 1717
1715 1776
1715 1792
1715 1859
1715 1873
1715 1921
1715 2019
1715 2023
1715 2049
1715 2065
1715 2120
1715 2133
1715 2260
1715 2280
1716 1753
1716 1846
1716 1938
1716 1959
1716 1961
1716 1963
1716 1966
1716 1974
1716 2043
1716 2151
1716 2163
1716 2167
1716 2192
1716 2199
1716 2202
1716 2210
1716 2225
1716 2289
1716 2295
1716 2304
1716 2309
1717 1726
1717 1746
1717 1752
1717 1782
1717 1798
1717 1814
1717 1835
1717 1842
1717 1844
1717 1864
1717 1870
1717 1873
1717 1879
1717 1908
1717 1909
1717 1927
1717 1928
1717 1951
1717 2008
1717 2016
1717 2049
1717 2065
1717 2066
1717 2089
1717 2105
1717 2113
1717 2115
1717 2116
1717 2120
1717 2124
1717 2151
1717 2174
1717 2177
1717 2245
1717 2260
1717 2269
1717 2274
1717 2286
1718 1778
1718 1798
1718 1815
1718 1829
1718 1842
1718 1858
1718 1874
1718 1879
1718 1885
1718 1913
1718 1953
1718 1966
1718 1986
1718 2056
1718 2057
1718 2162
1718 2175
1718 2190
1718 2259
1718 2275
1719 1798
1719 1890
1719 2028
1719 2062
1719 2143
1719 2284
1719 2309
1720 1721
1720 1736
1720 1816
1720 1828
1720 1830
1720 1846
1720 1869
1720 1981
1720 2002
1720 2044
1720 2052
1720 2053
1720 2077
1720 2091
1720 2119
1720 2152
1720 2153
1720 2199
1720 2218
1720 2287
1720 2302
1721 1725
1721 1729
1721 1736
1721 1756
1721 1819
1721 1820
1721 1828
1721 1846
1721 1898
1721 1947
1721 1966
1721 1981
1721 2001
1721 2002
1721 2044
1721 2052
1721 2077
1721 2144
1721 2199
1721 2210
1721 2256
1721 2278
1721 2283
1721 2287
1721 2294
1722 1797
1722 1952
1722 2080
1722 2164
1723 1738
1723 1745
1723 1748
1723 1751
1723 1752
1723 1776
1723 1798
1723 1842
1723 1846
1723 1864
1723 1870
1723 1879
1723 1963
1723 1983
1723 1999
1723 2008
1723 2089
1723 2103
1723 2115
1723 2163
1723 2234
1723 2240
1723 2245
1723 2252
1723 2258
1723 2310
1724 1727
1724 1784
1724 1787
1724 1789
1724 1808
1724 1825
1724 1839
1724 1844
1724 1845
1724 1849
1724 1851
1724 1878
1724 1895
1724 1904
1724 1911
1724 1931
1724 1936
1724 1969
1724 1982
1724 1984
1724 2014
1724 2045
1724 2049
1724 2072
1724 2097
1724 2113
1724 2128
1724 2141
1724 2168
1724 2171
1724 2176
1724 2177
1724 2203
1724 2215
1724 2232
1724 2242
1724 2254
1724 2258
1724 2274
1724 2277
1724 2280
1724 2288
1725 1816
1725 1832
1725 1938
1725 2164
1725 2199
1726 1746
1726 1790
1726 1814
1726 1835
1726 1842
1726 1873
1726 1875
1726 1922
1726 1927
1726 2008
1726 2023
1726 2026
1726 2057
1726 2062
1726 2089
1726 2116
1726 2129
1726 2147
1726 2174
1726 2268
1726 2295
1727 1734
1727 1774
1727 1793
1727 1803
1727 1808
1727 1810
1727 1825
1727 1839
1727 1845
1727 1848
1727 1849
1727 1874
1727 1925
1727 1931
1727 1969
1727 1998
1727 2043
1727 2056
1727 2065
1727 2068
1727 2076
1727 2113
1727 2120
1727 2127
1727 2128
1727 2176
1727 2192
1727 2200
1727 2215
1727 2234
1727 2237
1727 2254
1727 2263
1727 2265
1728 1738
1728 2039
1728 2046
1728 2184
1728 2260
1728 2274
1729 1819
1729 1898
1729 1918
1729 1947
1729 1949
1729 1978
1729 2001
1729 2044
1729 2199
1729 2256
1729 2278
1729 2283
1729 2287
1730 1734
1730 1825
1730 1844
1730 1874
1730 1936
1730 2024
1730 2069
1730 2168
1730 2206
1730 2215
1731 1759
1731 1934
1731 2001
1731 2002
1731 2038
1731 2207
1731 2297
1732 1744
1732 1815
1732 1829
1732 1854
1732 1874
1732 1913
1732 1945
1732 1953
1732 1963
1732 2008
1732 2115
1732 2154
1732 2197
1732 2252
1732 2303
1733 1739
1733 1773
1733 1797
1733 1801
1733 1846
1733 1933
1733 1943
1733 1985
1733 2044
1733 2061
1733 2114
1733 2253
1734 1787
1734 1803
1734 1812
1734 1813
1734 1825
1734 1840
1734 1844
1734 1848
1734 1874
1734 1904
1734 1931
1734 1935
1734 1969
1734 2024
1734 2037
1734 2113
1734 2120
1734 2128
1734 2133
1734 2177
1734 2206
1734 2219
1734 2234
1734 2252
1734 2265
1734 2312
1735 1924
1736 1759
1736 1819
1736 1830
1736 1846
1736 1847
1736 1879
1736 1885
1736 1889
1736 1898
1736 1934
1736 1947
1736 1970
1736 2001
1736 2002
1736 2013
1736 2038
1736 2044
1736 2052
1736 2053
1736 2066
1736 2142
1736 2152
1736 2188
1736 2199
1736 2230
1736 2239
1736 2243
1736 2256
1736 2283
1736 2287
1736 2297
1736 2310
1737 1812
1737 1825
1737 1874
1737 2066
1737 2120
1737 2133
1737 2177
1737 2206
1737 2260
1738 1740
1738 1748
1738 1772
1738 1848
1738 1911
1738 1921
1738 1927
1738 1951
1738 2016
1738 2017
1738 2037
1738 2039
1738 2046
1738 2055
1738 2067
1738 2069
1738 2089
1738 2103
1738 2118
1738 2129
1738 2160
1738 2170
1738 2177
1738 2211
1738 2255
1738 2266
1738 2271
1738 2298
1739 1757
1739 1819
1739 1834
1739 1873
1739 1933
1739 1999
1739 2001
1739 2004
1739 2044
1739 2110
1739 2123
1739 2143
1739 2152
1739 2155
1739 2178
1739 2218
1739 2239
1740 1748
1740 1831
1740 1885
1740 1951
1740 1968
1740 1974
1740 1992
1740 2015
1740 2017
1740 2027
1740 2055
1740 2067
1740 2109
1740 2170
1740 2189
1740 2245
1740 2260
1740 2262
1741 1743
1741 1744
1741 1829
1741 1868
1741 1873
1741 1913
1741 1927
1741 1954
1741 1964
1741 1974
1741 1979
1741 1990
1741 1995
1741 2007
1741 2043
1741 2049
1741 2060
1741 2062
1741 2063
1741 2070
1741 2081
1741 2088
1741 2108
1741 2115
1741 2121
1741 2130
1741 2140
1741 2154
1741 2163
1741 2175
1741 2177
1741 2189
1741 2192
1741 2213
1741 2220
1741 2236
1741 2266
1741 2271
1741 2281
1741 2295
1742 1750
1742 1843
1742 1864
1742 1891
1742 1894
1742 1974
1742 1994
1742 2122
1742 2172
1743 1771
1743 1796
1743 1806
1743 1821
1743 1849
1743 1851
1743 1874
1743 1894
1743 1906
1743 1908
1743 1916
1743 1950
1743 1953
1743 1963
1743 1964
1743 1966
1743 1971
1743 1974
1743 1993
1743 1995
1743 2037
1743 2063
1743 2079
1743 2127
1743 2154
1743 2190
1743 2213
1743 2237
1743 2304
1744 1829
1744 1872
1744 1963
1744 2056
1744 2073
1744 2108
1744 2197
1744 2295
1744 2303
1745 1751
1745 1752
1745 1776
1745 1792
1745 1798
1745 1825
1745 1842
1745 1864
1745 1879
1745 1925
1745 1928
1745 2069
1745 2094
1745 2210
1745 2252
1746 1751
1746 1752
1746 1755
1746 1792
1746 1809
1746 1835
1746 1844
1746 1849
1746 1864
1746 1870
1746 1909
1746 1921
1746 1927
1746 1928
1746 1931
1746 1953
1746 1966
1746 2046
1746 2049
1746 2089
1746 2113
1746 2124
1746 2151
1746 2193
1748 1765
1748 1825
1748 1837
1748 1844
1748 1874
1748 1885
1748 1904
1748 1908
1748 1921
1748 1925
1748 1926
1748 1931
1748 1951
1748 1992
1748 2017
1748 2037
1748 2039
1748 2055
1748 2067
1748 2089
1748 2118
1748 2146
1748 2177
1748 2189
1748 2206
1748 2211
1748 2219
1748 2258
1748 2262
1748 2288
1750 1843
1750 1885
1750 1891
1750 1965
1750 1974
1750 2007
1750 2057
1750 2089
1751 1760
1751 1767
1751 1776
1751 1785
1751 1792
1751 1801
1751 1804
1751 1805
1751 1809
1751 1816
1751 1851
1751 1870
1751 1931
1751 1950
1751 1953
1751 1957
1751 1963
1751 1967
1751 1987
1751 1996
1751 2095
1751 2098
1751 2106
1751 2117
1751 2127
1751 2128
1751 2130
1751 2151
1751 2164
1751 2166
1751 2167
1751 2182
1751 2193
1751 2196
1751 2225
1751 2269
1751 2310
1752 1798
1752 1842
1752 1857
1752 1864
1752 1879
1752 1928
1752 1951
1752 1986
1752 2036
1752 2039
1752 2066
1752 2115
1752 2271
1752 2281
1752 2298
1753 1860
1753 2043
1753 2046
1753 2066
1753 2103
1753 2118
1753 2192
1753 2260
1754 1760
1754 1763
1754 1789
1754 1859
1754 1919
1754 1963
1754 1980
1754 2024
1754 2068
1754 2104
1754 2147
1754 2151
1754 2191
1754 2192
1754 2204
1754 2228
1754 2240
1754 2272
1754 2295
1754 2304
1755 1772
1755 1784
1755 1786
1755 1790
1755 1803
1755 1813
1755 1818
1755 1825
1755 1835
1755 1848
1755 1859
1755 1874
1755 1888
1755 1911
1755 1921
1755 1931
1755 1932
1755 1935
1755 1949
1755 1950
1755 1953
1755 1954
1755 1957
1755 1963
1755 1969
1755 1977
1755 1982
1755 1984
1755 1989
1755 2013
1755 2023
1755 2049
1755 2056
1755 2060
1755 2076
1755 2084
1755 2101
1755 2104
1755 2111
1755 2120
1755 2134
1755 2144
1755 2149
1755 2150
1755 2156
1755 2160
1755 2162
1755 2177
1755 2227
1755 2232
1755 2234
1755 2237
1755 2245
1755 2248
1755 2252
1755 2265
1755 2267
1755 2269
1755 2277
1755 2288
1755 2304
1755 2306
1755 2308
1755 2311
1756 1758
1756 1779
1756 1875
1756 1947
1756 1978
1756 2004
1756 2018
1756 2038
1756 2044
1756 2052
1756 2101
1756 2115
1756 2155
1756 2217
1756 2252
1757 1791
1757 1816
1757 1889
1757 1898
1757 1905
1757 1972
1757 2001
1757 2011
1757 2018
1757 2044
1757 2053
1757 2199
1758 1838
1758 1846
1758 1898
1758 2004
1758 2044
1758 2155
1758 2230
1759 1832
1759 1846
1759 1847
1759 1898
1759 1905
1759 2001
1759 2002
1759 2011
1759 2038
1759 2044
1759 2052
1759 2117
1759 2155
1759 2178
1759 2199
1759 2207
1759 2230
1760 1763
1760 1771
1760 1775
1760 1776
1760 1785
1760 1805
1760 1857
1760 1885
1760 1911
1760 1919
1760 1927
1760 1931
1760 1967
1760 1974
1760 1980
1760 1987
1760 2011
1760 2015
1760 2027
1760 2035
1760 2037
1760 2049
1760 2055
1760 2068
1760 2077
1760 2079
1760 2116
1760 2127
1760 2147
1760 2151
1760 2175
1760 2177
1760 2183
1760 2190
1760 2191
1760 2195
1760 2204
1760 2225
1760 2237
1760 2240
1760 2259
1760 2265
1760 2268
1760 2274
1760 2289
1760 2304
1761 1783
1761 1860
1761 1903
1761 1973
1761 2081
1761 2094
1761 2103
1761 2229
1761 2240
1761 2295
1762 1806
1762 1948
1762 1962
1762 2036
1762 2139
1762 2143
1762 2225
1762 2292
1763 1769
1763 1804
1763 1812
1763 1822
1763 1828
1763 1841
1763 1880
1763 1883
1763 1896
1763 1906
1763 1949
1763 1963
1763 1980
1763 1988
1763 2019
1763 2021
1763 2024
1763 2030
1763 2068
1763 2073
1763 2074
1763 2086
1763 2116
1763 2147
1763 2151
1763 2187
1763 2195
1763 2204
1763 2244
1763 2284
1763 2295
1763 2304
1764 1828
1764 2062
1765 1776
1765 1908
1765 2046
1765 2055
1765 2100
1765 2103
1765 2156
1765 2245
1765 2276
1766 1856
1766 2135
1766 2277
1767 1801
1767 1806
1767 1870
1767 1956
1767 2005
1767 2079
1767 2089
1767 2106
1767 2130
1767 2210
1767 2214
1767 2221
1767 2225
1767 2307
1768 1912
1769 1781
1769 1802
1769 1824
1769 1828
1769 1834
1769 1906
1769 1922
1769 1958
1769 1963
1769 1999
1769 2034
1769 2062
1769 2063
1769 2073
1769 2082
1769 2124
1769 2195
1769 2208
1769 2275
1769 2309
1770 1775
1770 1821
1770 1983
1771 1782
1771 1786
1771 1799
1771 1801
1771 1805
1771 1806
1771 1813
1771 1816
1771 1829
1771 1836
1771 1861
1771 1866
1771 1872
1771 1880
1771 1896
1771 1913
1771 1958
1771 1961
1771 1963
1771 1964
1771 1975
1771 1987
1771 2022
1771 2023
1771 2035
1771 2037
1771 2055
1771 2056
1771 2059
1771 2065
1771 2070
1771 2079
1771 2097
1771 2110
1771 2147
1771 2151
1771 2163
1771 2191
1771 2204
1771 2220
1771 2225
1771 2228
1771 2237
1771 2240
1771 2252
1771 2259
1771 2311
1772 1787
1772 1851
1772 1871
1772 1885
1772 1904
1772 1936
1772 1950
1772 1984
1772 2118
1772 2203
1772 2215
1772 2265
1773 2053
1774 1799
1774 1831
1774 1854
1774 1866
1774 1877
1774 1891
1774 1897
1774 1925
1774 1926
1774 1931
1774 1946
1774 1973
1774 1992
1774 2007
1774 2012
1774 2067
1774 2071
1774 2081
1774 2138
1774 2146
1774 2190
1774 2206
1774 2221
1774 2236
1774 2279
1774 2304
1775 1866
1775 1891
1775 1894
1775 1911
1775 1945
1775 1968
1775 2025
1775 2055
1775 2092
1775 2109
1775 2161
1775 2170
1775 2183
1775 2232
1775 2260
1775 2262
1775 2286
1775 2308
1776 1782
1776 1785
1776 1792
1776 1814
1776 1844
1776 1864
1776 1879
1776 1967
1776 1991
1776 1996
1776 2046
1776 2049
1776 2100
1776 2117
1776 2124
1776 2151
1776 2245
1776 2260
1776 2289
1776 2298
1776 2308
1777 2027
1778 1815
1778 1890
1778 1908
1778 1956
1778 2034
1778 2051
1778 2132
1778 2162
1778 2202
1779 1796
1779 1812
1779 1825
1779 1840
1779 1845
1779 1869
1779 1880
1779 1899
1779 1918
1779 1924
1779 1949
1779 1974
1779 2024
1779 2043
1779 2045
1779 2055
1779 2072
1779 2076
1779 2101
1779 2104
1779 2111
1779 2120
1779 2147
1779 2234
1779 2251
1780 1804
1780 1834
1780 1907
1780 1949
1780 1963
1780 1974
1780 1977
1780 2045
1780 2060
1780 2093
1780 2104
1780 2140
1780 2187
1780 2272
1781 1821
1781 1966
1781 1974
1781 1999
1781 2030
1781 2062
1781 2078
1781 2132
1781 2237
1782 1804
1782 1859
1782 1874
1782 1908
1782 1921
1782 1927
1782 1953
1782 1961
1782 1967
1782 1979
1782 1988
1782 2049
1782 2070
1782 2120
1782 2127
1782 2154
1782 2171
1782 2191
1782 2220
1782 2237
1782 2274
1782 2280
1782 2311
1783 1853
1783 1860
1783 1903
1783 1986
1783 2046
1783 2094
1783 2103
1783 2185
1783 2240
1783 2245
1783 2292
1784 1799
1784 1825
1784 1831
1784 1848
1784 1849
1784 1873
1784 1888
1784 1921
1784 1982
1784 1984
1784 2156
1784 2265
1784 2288
1785 1804
1785 1857
1785 1885
1785 1891
1785 2104
1785 2117
1785 2127
1785 2128
1785 2147
1785 2151
1785 2164
1785 2240
1785 2298
1786 1787
1786 1806
1786 1812
1786 1825
1786 1848
1786 1852
1786 1874
1786 1888
1786 1918
1786 1919
1786 1921
1786 1931
1786 1949
1786 1953
1786 1956
1786 1969
1786 1977
1786 1979
1786 1982
1786 1984
1786 1989
1786 1991
1786 1993
1786 2024
1786 2056
1786 2068
1786 2070
1786 2076
1786 2104
1786 2120
1786 2128
1786 2144
1786 2149
1786 2156
1786 2177
1786 2204
1786 2234
1786 2252
1786 2265
1786 2277
1786 2295
1786 2306
1787 1812
1787 1825
1787 1844
1787 1845
1787 1848
1787 1851
1787 1852
1787 1874
1787 1878
1787 1911
1787 1918
1787 1921
1787 1935
1787 1982
1787 1984
1787 2024
1787 2049
1787 2066
1787 2089
1787 2104
1787 2133
1787 2156
1787 2177
1787 2180
1787 2189
1787 2206
1787 2254
1787 2269
1787 2277
1787 2280
1787 2288
1787 2306
1788 2042
1788 2226
1788 2242
1788 2267
1789 1885
1789 1953
1789 1954
1789 1982
1789 1984
1789 1989
1789 2024
1789 2101
1789 2147
1789 2151
1789 2190
1789 2223
1789 2234
1789 2244
1789 2277
1789 2304
1790 1796
1790 1802
1790 1803
1790 1860
1790 1893
1790 1903
1790 1913
1790 1932
1790 1947
1790 1953
1790 1974
1790 2013
1790 2023
1790 2037
1790 2048
1790 2055
1790 2101
1790 2120
1790 2144
1790 2149
1790 2156
1790 2163
1790 2174
1790 2203
1790 2220
1790 2227
1790 2258
1790 2259
1790 2269
1790 2289
1790 2295
1790 2304
1791 1797
1791 1801
1791 1815
1791 1819
1791 1832
1791 1846
1791 1847
1791 1892
1791 1898
1791 1914
1791 2001
1791 2002
1791 2020
1791 2038
1791 2044
1791 2052
1791 2178
1791 2199
1792 1844
1792 1849
1792 1864
1792 1921
1792 1932
1792 1953
1792 1954
1792 1957
1792 1982
1792 2023
1792 2037
1792 2049
1792 2066
1792 2103
1792 2133
1792 2151
1792 2227
1792 2260
1792 2277
1792 2280
1792 2295
1792 2306
1793 1809
1793 1810
1793 1848
1793 1864
1793 1909
1793 1913
1793 1924
1793 1939
1793 1949
1793 1957
1793 1974
1793 1991
1793 1993
1793 1996
1793 2040
1793 2068
1793 2128
1793 2130
1793 2135
1793 2151
1793 2164
1793 2166
1793 2167
1793 2210
1793 2225
1793 2234
1793 2240
1793 2242
1793 2260
1793 2263
1793 2265
1793 2289
1794 1855
1794 1914
1794 1934
1794 1985
1794 2001
1795 1806
1795 1823
1795 1958
1795 1971
1795 2016
1795 2027
1795 2079
1795 2130
1795 2167
1795 2225
1795 2268
1795 2289
1796 1803
1796 1806
1796 1848
1796 1849
1796 1851
1796 1864
1796 1874
1796 1887
1796 1893
1796 1895
1796 1899
1796 1913
1796 1931
1796 1953
1796 1966
1796 1989
1796 2019
1796 2023
1796 2055
1796 2056
1796 2068
1796 2076
1796 2079
1796 2101
1796 2111
1796 2115
1796 2120
1796 2147
1796 2156
1796 2197
1796 2220
1796 2246
1796 2261
1796 2265
1796 2304
1797 1847
1797 1938
1797 1943
1797 2004
1797 2028
1797 2142
1797 2173
1797 2232
1797 2253
1798 1806
1798 1825
1798 1842
1798 1854
1798 1864
1798 1879
1798 1948
1798 1951
1798 1983
1798 2008
1798 2015
1798 2049
1798 2056
1798 2066
1798 2143
1798 2196
1798 2245
1799 1810
1799 1825
1799 1851
1799 1854
1799 1871
1799 1874
1799 1878
1799 1903
1799 1911
1799 1924
1799 1925
1799 1926
1799 1931
1799 1953
1799 1958
1799 1973
1799 1974
1799 1984
1799 1992
1799 2013
1799 2037
1799 2049
1799 2067
1799 2081
1799 2094
1799 2109
1799 2112
1799 2113
1799 2118
1799 2133
1799 2138
1799 2141
1799 2148
1799 2160
1799 2161
1799 2170
1799 2171
1799 2175
1799 2176
1799 2189
1799 2190
1799 2232
1799 2234
1799 2235
1799 2236
1799 2242
1799 2245
1799 2260
1799 2279
1801 1816
1801 1914
1801 1952
1801 1963
1801 1985
1801 2040
1801 2061
1801 2164
1801 2199
1801 2202
1801 2214
1801 2233
1802 1803
1802 1804
1802 1822
1802 1834
1802 1840
1802 1845
1802 1852
1802 1869
1802 1872
1802 1873
1802 1907
1802 1949
1802 1950
1802 1956
1802 1966
1802 1977
1802 1980
1802 1999
1802 2013
1802 2021
1802 2024
1802 2044
1802 2045
1802 2059
1802 2060
1802 2065
1802 2066
1802 2073
1802 2112
1802 2123
1802 2147
1802 2176
1802 2187
1802 2195
1802 2295
1802 2296
1803 1813
1803 1825
1803 1844
1803 1848
1803 1852
1803 1866
1803 1873
1803 1874
1803 1882
1803 1899
1803 1908
1803 1925
1803 1931
1803 1935
1803 1954
1803 1969
1803 1974
1803 1982
1803 2037
1803 2043
1803 2055
1803 2056
1803 2065
1803 2068
1803 2076
1803 2101
1803 2111
1803 2120
1803 2154
1803 2168
1803 2206
1803 2220
1803 2225
1803 2234
1803 2236
1803 2248
1803 2260
1803 2263
1803 2265
1803 2304
1804 1812
1804 1822
1804 1841
1804 1845
1804 1868
1804 1883
1804 1895
1804 1896
1804 1907
1804 1915
1804 1924
1804 1949
1804 1951
1804 1956
1804 1975
1804 1977
1804 1980
1804 1984
1804 1987
1804 2003
1804 2013
1804 2019
1804 2021
1804 2060
1804 2062
1804 2074
1804 2086
1804 2093
1804 2097
1804 2104
1804 2128
1804 2187
1804 2191
1804 2195
1804 2202
1804 2232
1804 2265
1804 2272
1804 2304
1804 2306
1805 1863
1805 1958
1805 1967
1805 1987
1805 2037
1805 2117
1805 2123
1805 2143
1805 2147
1805 2225
1805 2285
1805 2310
1806 1823
1806 1849
1806 1858
1806 1874
1806 1894
1806 1897
1806 1899
1806 1948
1806 1956
1806 1966
1806 1977
1806 1994
1806 1999
1806 2005
1806 2012
1806 2013
1806 2021
1806 2027
1806 2035
1806 2056
1806 2079
1806 2087
1806 2115
1806 2130
1806 2135
1806 2144
1806 2156
1806 2196
1806 2200
1806 2210
1806 2212
1806 2213
1806 2225
1806 2252
1806 2259
1806 2261
1806 2268
1806 2272
1806 2275
1806 2284
1806 2292
1806 2298
1806 2304
1806 2306
1807 1955
1808 1825
1808 1839
1808 1857
1808 2097
1808 2242
1808 2254
1809 1821
1809 1837
1809 1870
1809 1931
1809 1983
1809 1984
1809 1996
1809 1999
1809 2012
1809 2027
1809 2047
1809 2060
1809 2069
1809 2095
1809 2098
1809 2146
1809 2151
1809 2164
1809 2166
1809 2167
1809 2182
1809 2196
1809 2201
1809 2210
1809 2212
1809 2214
1809 2225
1809 2233
1809 2240
1809 2264
1809 2271
1809 2289
1810 1848
1810 1878
1810 1918
1810 1924
1810 1939
1810 1949
1810 1953
1810 1979
1810 1982
1810 2013
1810 2068
1810 2094
1810 2097
1810 2109
1810 2112
1810 2141
1810 2148
1810 2156
1810 2171
1810 2176
1810 2220
1810 2234
1810 2242
1810 2244
1810 2263
1810 2265
1811 2246
1812 1813
1812 1822
1812 1824
1812 1825
1812 1828
1812 1840
1812 1841
1812 1843
1812 1844
1812 1845
1812 1848
1812 1852
1812 1869
1812 1874
1812 1880
1812 1883
1812 1896
1812 1918
1812 1919
1812 1931
1812 1935
1812 1949
1812 1951
1812 1977
1812 1984
1812 1988
1812 2003
1812 2012
1812 2019
1812 2021
1812 2024
1812 2043
1812 2060
1812 2065
1812 2066
1812 2068
1812 2086
1812 2104
1812 2112
1812 2133
1812 2177
1812 2187
1812 2195
1812 2206
1812 2219
1812 2284
1812 2306
1813 1825
1813 1846
1813 1852
1813 1874
1813 1899
1813 1918
1813 1919
1813 1935
1813 2024
1813 2037
1813 2049
1813 2055
1813 2066
1813 2069
1813 2120
1813 2177
1813 2206
1813 2225
1813 2311
1814 1835
1814 1873
1814 1879
1814 1965
1814 2008
1814 2057
1814 2089
1814 2116
1814 2129
1814 2260
1814 2299
1815 1879
1815 1885
1815 1891
1815 1894
1815 1931
1815 1963
1815 1974
1815 1986
1815 2008
1815 2015
1815 2057
1815 2067
1815 2087
1815 2089
1815 2138
1815 2140
1815 2162
1815 2181
1815 2182
1815 2190
1815 2212
1815 2232
1815 2236
1815 2245
1815 2251
1815 2271
1816 1915
1816 1938
1816 1948
1816 1952
1816 1961
1816 1963
1816 2030
1816 2082
1816 2151
1816 2164
1816 2210
1816 2287
1817 1963
1817 2034
1817 2062
1817 2132
1817 2202
1817 2214
1817 2295
1818 1825
1818 1844
1818 1874
1818 1932
1818 1989
1818 2023
1818 2037
1818 2156
1818 2220
1818 2223
1818 2227
1818 2277
1818 2295
1818 2311
1819 1846
1819 1861
1819 1898
1819 1934
1819 1947
1819 1981
1819 2001
1819 2002
1819 2044
1819 2052
1819 2099
1819 2199
1819 2302
1820 1830
1820 1843
1820 1846
1820 1898
1820 2002
1820 2004
1820 2009
1820 2011
1820 2044
1820 2287
1821 1824
1821 1854
1821 1873
1821 1886
1821 1951
1821 1963
1821 2069
1821 2145
1821 2196
1821 2212
1821 2268
1822 1828
1822 1841
1822 1880
1822 1883
1822 1896
1822 1906
1822 1949
1822 1988
1822 2019
1822 2021
1822 2030
1822 2074
1822 2112
1822 2175
1822 2187
1822 2202
1822 2284
1823 1899
1823 1913
1823 1974
1823 2037
1823 2252
1823 2275
1824 1828
1824 1841
1824 1843
1824 1863
1824 1869
1824 1886
1824 1900
1824 1924
1824 1928
1824 1956
1824 1963
1824 2003
1824 2043
1824 2065
1824 2073
1824 2082
1824 2120
1824 2123
1824 2140
1824 2143
1824 2198
1824 2202
1824 2273
1824 2295
1824 2306
1825 1831
1825 1839
1825 1840
1825 1844
1825 1845
1825 1848
1825 1849
1825 1852
1825 1860
1825 1866
1825 1869
1825 1874
1825 1879
1825 1888
1825 1904
1825 1908
1825 1911
1825 1918
1825 1921
1825 1925
1825 1926
1825 1931
1825 1935
1825 1936
1825 1949
1825 1951
1825 1969
1825 1982
1825 1984
1825 1989
1825 1992
1825 1998
1825 2003
1825 2008
1825 2021
1825 2024
1825 2037
1825 2049
1825 2065
1825 2066
1825 2068
1825 2069
1825 2076
1825 2084
1825 2089
1825 2097
1825 2104
1825 2113
1825 2120
1825 2128
1825 2133
1825 2146
1825 2150
1825 2151
1825 2156
1825 2160
1825 2168
1825 2171
1825 2176
1825 2177
1825 2206
1825 2215
1825 2219
1825 2227
1825 2232
1825 2234
1825 2236
1825 2242
1825 2245
1825 2254
1825 2258
1825 2260
1825 2261
1825 2265
1825 2269
1825 2274
1825 2280
1825 2295
1825 2305
1825 2306
1826 2080
1826 2253
1827 1848
1827 1878
1827 1939
1827 1961
1827 2042
1827 2068
1827 2109
1827 2176
1827 2179
1827 2232
1827 2234
1827 2263
1828 1838
1828 1841
1828 1873
1828 1874
1828 1883
1828 1884
1828 1886
1828 1906
1828 1928
1828 1988
1828 2008
1828 2019
1828 2021
1828 2043
1828 2044
1828 2051
1828 2053
1828 2062
1828 2077
1828 2082
1828 2112
1828 2124
1828 2143
1828 2173
1828 2178
1828 2198
1828 2209
1828 2210
1828 2253
1828 2284
1828 2309
1829 1853
1829 1854
1829 1868
1829 1872
1829 1913
1829 1953
1829 1963
1829 1964
1829 1977
1829 1999
1829 2056
1829 2070
1829 2104
1829 2108
1829 2115
1829 2156
1829 2197
1829 2208
1829 2213
1829 2220
1829 2252
1829 2259
1829 2275
1829 2295
1829 2303
1830 1846
1830 1864
1830 1898
1830 1938
1830 1948
1830 2044
1830 2114
1830 2142
1830 2152
1830 2199
1830 2239
1830 2287
1830 2302
1831 1876
1831 1885
1831 1911
1831 1921
1831 1927
1831 1931
1831 1968
1831 1984
1831 2025
1831 2033
1831 2047
1831 2057
1831 2067
1831 2135
1831 2150
1831 2160
1831 2189
1831 2226
1831 2260
1831 2262
1831 2267
1831 2270
1831 2286
1831 2288
1832 1898
1832 2018
1832 2020
1833 2060
1834 1840
1834 1845
1834 1852
1834 1863
1834 1868
1834 1869
1834 1873
1834 1907
1834 1910
1834 1913
1834 1918
1834 1922
1834 1949
1834 1974
1834 1988
1834 1998
1834 1999
1834 2003
1834 2022
1834 2024
1834 2030
1834 2043
1834 2062
1834 2066
1834 2075
1834 2116
1834 2140
1834 2190
1834 2251
1834 2272
1834 2279
1834 2310
1835 1842
1835 1844
1835 1879
1835 1921
1835 1931
1835 1950
1835 1958
1835 1991
1835 1995
1835 2043
1835 2057
1835 2060
1835 2065
1835 2089
1835 2120
1835 2129
1835 2146
1835 2151
1835 2154
1835 2221
1835 2225
1835 2306
1836 1849
1836 1872
1836 1896
1836 1908
1836 1921
1836 1940
1836 1954
1836 2023
1836 2030
1836 2079
1836 2150
1836 2151
1836 2160
1836 2174
1836 2220
1836 2223
1836 2261
1836 2269
1836 2311
1837 1844
1837 2027
1837 2054
1837 2060
1837 2089
1837 2095
1837 2161
1837 2212
1837 2240
1837 2299
1838 1930
1838 2044
1838 2064
1838 2080
1838 2173
1838 2178
1838 2253
1839 1845
1839 1848
1839 1849
1839 1888
1839 1969
1839 1982
1839 2068
1839 2097
1839 2113
1839 2128
1839 2171
1839 2176
1839 2177
1839 2203
1839 2215
1839 2234
1839 2242
1839 2245
1839 2254
1840 1845
1840 1852
1840 1869
1840 1874
1840 1918
1840 1935
1840 1949
1840 1977
1840 1998
1840 2024
1840 2066
1840 2097
1840 2104
1840 2232
1840 2234
1840 2251
1841 1883
1841 1896
1841 1922
1841 1951
1841 1977
1841 1988
1841 2019
1841 2021
1841 2059
1841 2062
1841 2082
1841 2104
1841 2112
1841 2120
1842 1844
1842 1857
1842 1864
1842 1879
1842 1910
1842 1940
1842 1983
1842 1991
1842 2008
1842 2016
1842 2056
1842 2089
1842 2129
1842 2174
1842 2177
1842 2259
1842 2275
1843 1853
1843 1894
1843 1924
1843 1940
1843 1974
1843 1988
1843 1994
1843 2019
1843 2110
1843 2122
1843 2146
1843 2147
1843 2172
1843 2174
1843 2185
1843 2186
1843 2187
1843 2201
1843 2249
1843 2264
1843 2301
1844 1849
1844 1852
1844 1853
1844 1864
1844 1874
1844 1879
1844 1903
1844 1904
1844 1918
1844 1921
1844 1931
1844 1935
1844 1936
1844 1940
1844 1951
1844 1969
1844 1982
1844 1984
1844 1991
1844 2021
1844 2023
1844 2037
1844 2046
1844 2049
1844 2066
1844 2089
1844 2113
1844 2120
1844 2125
1844 2128
1844 2133
1844 2146
1844 2151
1844 2168
1844 2177
1844 2185
1844 2193
1844 2206
1844 2212
1844 2219
1844 2227
1844 2234
1844 2260
1844 2269
1844 2274
1844 2289
1845 1852
1845 1863
1845 1869
1845 1878
1845 1907
1845 1918
1845 1919
1845 1924
1845 1931
1845 1949
1845 1956
1845 1963
1845 1974
1845 1989
1845 2021
1845 2024
1845 2045
1845 2060
1845 2062
1845 2072
1845 2074
1845 2097
1845 2104
1845 2123
1845 2143
1845 2148
1845 2187
1845 2209
1845 2215
1845 2219
1845 2254
1845 2272
1845 2277
1845 2284
1845 2295
1845 2306
1846 1847
1846 1870
1846 1873
1846 1889
1846 1892
1846 1898
1846 1922
1846 1938
1846 1981
1846 2011
1846 2020
1846 2038
1846 2044
1846 2052
1846 2056
1846 2077
1846 2112
1846 2178
1846 2186
1846 2198
1846 2199
1846 2210
1846 2218
1846 2256
1846 2287
1846 2306
1847 1858
1847 1889
1847 1898
1847 1943
1847 1978
1847 2001
1847 2004
1847 2011
1847 2020
1847 2038
1847 2044
1847 2045
1847 2053
1847 2064
1847 2093
1847 2178
1847 2199
1847 2232
1847 2253
1848 1852
1848 1869
1848 1874
1848 1888
1848 1895
1848 1898
1848 1911
1848 1921
1848 1924
1848 1925
1848 1931
1848 1935
1848 1939
1848 1949
1848 1954
1848 1969
1848 1977
1848 1982
1848 1984
1848 1989
1848 2051
1848 2060
1848 2068
1848 2076
1848 2084
1848 2097
1848 2101
1848 2104
1848 2113
1848 2120
1848 2128
1848 2134
1848 2149
1848 2150
1848 2156
1848 2160
1848 2167
1848 2168
1848 2171
1848 2177
1848 2200
1848 2226
1848 2227
1848 2234
1848 2242
1848 2252
1848 2260
1848 2263
1848 2265
1848 2269
1848 2289
1848 2302
1849 1851
1849 1864
1849 1866
1849 1878
1849 1895
1849 1921
1849 1940
1849 1951
1849 1966
1849 1969
1849 1984
1849 2046
1849 2056
1849 2066
1849 2097
1849 2128
1849 2133
1849 2146
1849 2150
1849 2151
1849 2156
1849 2160
1849 2177
1849 2203
1849 2215
1849 2223
1849 2240
1849 2245
1849 2254
1849 2260
1849 2261
1849 2265
1849 2269
1849 2295
1850 1888
1851 1859
1851 1878
1851 1887
1851 1966
1851 2056
1851 2148
1851 2177
1851 2254
1851 2261
1851 2277
1852 1863
1852 1869
1852 1874
1852 1906
1852 1907
1852 1913
1852 1918
1852 1919
1852 1924
1852 1935
1852 1949
1852 1963
1852 1998
1852 2013
1852 2021
1852 2024
1852 2060
1852 2062
1852 2073
1852 2074
1852 2086
1852 2104
1852 2112
1852 2123
1852 2133
1852 2143
1852 2168
1852 2177
1852 2187
1852 2195
1852 2206
1852 2260
1852 2265
1852 2312
1853 1854
1853 1864
1853 1882
1853 1885
1853 1903
1853 1927
1853 1940
1853 1963
1853 1964
1853 1967
1853 1973
1853 1974
1853 2022
1853 2088
1853 2094
1853 2100
1853 2103
1853 2108
1853 2129
1853 2185
1853 2192
1853 2225
1853 2264
1854 1872
1854 1882
1854 1897
1854 1913
1854 1951
1854 1967
1854 1973
1854 1974
1854 1999
1854 2046
1854 2067
1854 2081
1854 2093
1854 2110
1854 2157
1854 2177
1854 2185
1854 2255
1854 2259
1854 2304
1855 1898
1855 1914
1855 1985
1855 2044
1855 2061
1856 2135
1857 1879
1857 1888
1857 1895
1857 1921
1857 1927
1857 2008
1857 2046
1857 2075
1857 2084
1857 2103
1857 2113
1857 2150
1857 2186
1857 2219
1857 2225
1857 2245
1857 2254
1858 1873
1858 1879
1858 1928
1858 1968
1858 2005
1858 2016
1858 2035
1858 2064
1858 2108
1858 2115
1858 2124
1858 2181
1858 2208
1858 2213
1858 2221
1858 2259
1858 2275
1859 1921
1859 1927
1859 1961
1859 1975
1859 1980
1859 1996
1859 2024
1859 2042
1859 2049
1859 2147
1859 2151
1859 2154
1859 2156
1859 2190
1859 2191
1859 2204
1859 2240
1859 2258
1859 2261
1859 2280
1859 2295
1860 1866
1860 1869
1860 1903
1860 1926
1860 1989
1860 2037
1860 2046
1860 2049
1860 2066
1860 2068
1860 2094
1860 2101
1860 2103
1860 2148
1860 2177
1860 2184
1860 2220
1860 2240
1860 2244
1860 2280
1861 1938
1861 2018
1861 2020
1861 2043
1861 2073
1861 2091
1861 2099
1861 2294
1862 1898
1862 1930
1862 1970
1862 1981
1862 2004
1862 2011
1862 2044
1862 2077
1862 2099
1862 2199
1862 2302
1862 2304
1863 2034
1863 2116
1863 2195
1863 2296
1863 2310
1864 1870
1864 1873
1864 1879
1864 1882
1864 1898
1864 1903
1864 1927
1864 1951
1864 1957
1864 1983
1864 1986
1864 2008
1864 2027
1864 2046
1864 2048
1864 2055
1864 2100
1864 2122
1864 2124
1864 2172
1864 2177
1864 2185
1864 2206
1864 2225
1864 2230
1864 2252
1864 2284
1865 1873
1865 2302
1866 1879
1866 1925
1866 1926
1866 1927
1866 1931
1866 1936
1866 1945
1866 1986
1866 2008
1866 2046
1866 2049
1866 2066
1866 2068
1866 2113
1866 2146
1866 2221
1866 2227
1866 2242
1866 2245
1866 2260
1866 2261
1866 2274
1867 1906
1867 1908
1867 1959
1867 2147
1867 2151
1867 2304
1868 1915
1868 1977
1868 2013
1868 2187
1868 2272
1868 2296
1868 2305
1868 2308
1869 1873
1869 1918
1869 1924
1869 1926
1869 1949
1869 1956
1869 1963
1869 1999
1869 2013
1869 2019
1869 2021
1869 2024
1869 2034
1869 2051
1869 2055
1869 2059
1869 2073
1869 2093
1869 2101
1869 2110
1869 2195
1869 2220
1869 2265
1869 2272
1869 2296
1869 2304
1869 2306
1870 1909
1870 1927
1870 1928
1870 1957
1870 1963
1870 1983
1870 1996
1870 2008
1870 2027
1870 2089
1870 2098
1870 2105
1870 2106
1870 2125
1870 2164
1870 2196
1870 2212
1870 2225
1870 2233
1870 2268
1870 2271
1870 2301
1871 1903
1871 1992
1871 2025
1871 2195
1871 2225
1871 2260
1872 1896
1872 1913
1872 1915
1872 1963
1872 1964
1872 2030
1872 2108
1872 2115
1872 2138
1872 2197
1872 2220
1872 2252
1872 2259
1872 2295
1873 1886
1873 1891
1873 1894
1873 1909
1873 1916
1873 1922
1873 1927
1873 1948
1873 1951
1873 1955
1873 1957
1873 1958
1873 1961
1873 1963
1873 1964
1873 1969
1873 1971
1873 1974
1873 1986
1873 1987
1873 1999
1873 2016
1873 2022
1873 2027
1873 2036
1873 2056
1873 2062
1873 2082
1873 2100
1873 2115
1873 2116
1873 2123
1873 2129
1873 2130
1873 2143
1873 2158
1873 2175
1873 2195
1873 2198
1873 2212
1873 2230
1873 2231
1873 2232
1873 2236
1873 2242
1873 2249
1873 2252
1873 2259
1873 2271
1873 2289
1873 2298
1873 2303
1873 2307
1874 1879
1874 1895
1874 1908
1874 1909
1874 1918
1874 1931
1874 1935
1874 1936
1874 1953
1874 1957
1874 1963
1874 1969
1874 1974
1874 1989
1874 1991
1874 1993
1874 2008
1874 2013
1874 2024
1874 2027
1874 2037
1874 2049
1874 2055
1874 2068
1874 2070
1874 2076
1874 2079
1874 2084
1874 2101
1874 2104
1874 2111
1874 2113
1874 2120
1874 2128
1874 2133
1874 2146
1874 2149
1874 2151
1874 2154
1874 2156
1874 2177
1874 2204
1874 2206
1874 2219
1874 2225
1874 2227
1874 2232
1874 2234
1874 2248
1874 2252
1874 2258
1874 2263
1874 2265
1874 2274
1874 2280
1874 2289
1874 2304
1874 2306
1874 2308
1875 2026
1875 2044
1875 2256
1875 2287
1876 1885
1876 1968
1876 2015
1876 2047
1876 2135
1876 2170
1876 2222
1876 2257
1878 1903
1878 1911
1878 1924
1878 1925
1878 1931
1878 1953
1878 1984
1878 1989
1878 1992
1878 2013
1878 2086
1878 2094
1878 2097
1878 2101
1878 2109
1878 2112
1878 2113
1878 2141
1878 2148
1878 2156
1878 2171
1878 2176
1878 2177
1878 2203
1878 2215
1878 2232
1878 2234
1878 2242
1878 2244
1878 2254
1878 2260
1878 2261
1878 2295
1878 2304
1879 1885
1879 1921
1879 1951
1879 1962
1879 1983
1879 2008
1879 2016
1879 2066
1879 2089
1879 2133
1879 2174
1879 2232
1879 2242
1879 2248
1879 2260
1879 2269
1879 2310
1880 1883
1880 1896
1880 1961
1880 2016
1880 2019
1880 2021
1880 2037
1880 2074
1880 2078
1880 2108
1880 2112
1880 2174
1880 2175
1880 2240
1880 2311
1881 2170
1881 2238
1882 1899
1882 2046
1882 2066
1882 2185
1882 2242
1882 2245
1882 2276
1882 2295
1882 2303
1883 1896
1883 1970
1883 1987
1883 1999
1883 2013
1883 2019
1883 2021
1883 2034
1883 2060
1883 2073
1883 2074
1883 2110
1883 2112
1883 2195
1883 2284
1883 2295
1883 2304
1883 2306
1884 2132
1884 2209
1885 1931
1885 1968
1885 1974
1885 1976
1885 1986
1885 2015
1885 2031
1885 2042
1885 2056
1885 2057
1885 2088
1885 2126
1885 2127
1885 2135
1885 2162
1885 2170
1885 2179
1885 2185
1885 2189
1885 2190
1885 2201
1885 2222
1885 2232
1885 2239
1885 2262
1885 2270
1885 2288
1885 2304
1886 1910
1886 1920
1886 1961
1886 1963
1886 1974
1886 1986
1886 1999
1886 2034
1886 2043
1886 2051
1886 2058
1886 2062
1886 2075
1886 2082
1886 2147
1886 2195
1886 2273
1888 1908
1888 1911
1888 1921
1888 1951
1888 1962
1888 1982
1888 1984
1888 2084
1888 2097
1888 2103
1888 2109
1888 2113
1888 2150
1888 2156
1888 2160
1888 2177
1888 2232
1888 2242
1888 2245
1888 2258
1888 2265
1888 2274
1889 1898
1889 1978
1889 1981
1889 2001
1889 2011
1889 2044
1889 2052
1889 2099
1889 2152
1889 2178
1889 2199
1889 2239
1889 2287
1890 1892
1890 1999
1890 2051
1890 2062
1890 2078
1890 2132
1890 2143
1890 2175
1890 2198
1890 2209
1890 2210
1890 2233
1890 2241
1890 2284
1890 2307
1891 1894
1891 1971
1891 1974
1891 1988
1891 2027
1891 2045
1891 2054
1891 2055
1891 2183
1891 2190
1891 2203
1891 2235
1891 2251
1891 2295
1892 1905
1892 1938
1892 2009
1892 2020
1892 2044
1892 2055
1892 2178
1892 2199
1892 2304
1893 1903
1893 1911
1893 1953
1893 2007
1893 2008
1893 2045
1893 2048
1893 2055
1893 2093
1893 2108
1893 2111
1893 2144
1893 2163
1893 2203
1893 2252
1893 2295
1893 2296
1894 1950
1894 1974
1894 1995
1894 2055
1894 2062
1894 2115
1894 2122
1895 1921
1895 1953
1895 1966
1895 1969
1895 1974
1895 2037
1895 2056
1895 2076
1895 2101
1895 2111
1895 2120
1895 2252
1895 2265
1896 1915
1896 1959
1896 1963
1896 1988
1896 1995
1896 2005
1896 2019
1896 2030
1896 2051
1896 2074
1896 2112
1896 2123
1896 2143
1896 2151
1896 2164
1896 2210
1896 2214
1896 2220
1896 2233
1896 2246
1896 2312
1897 1926
1897 1946
1897 2025
1897 2170
1898 1918
1898 1933
1898 1934
1898 1947
1898 1981
1898 1995
1898 2001
1898 2002
1898 2004
1898 2011
1898 2038
1898 2041
1898 2044
1898 2052
1898 2053
1898 2061
1898 2077
1898 2119
1898 2137
1898 2152
1898 2188
1898 2199
1898 2218
1898 2230
1898 2243
1898 2256
1898 2294
1898 2302
1899 1951
1899 1953
1899 1963
1899 1974
1899 2022
1899 2046
1899 2101
1899 2110
1899 2225
1899 2231
1899 2248
1899 2252
1899 2255
1899 2289
1900 1999
1900 2140
1900 2143
1900 2147
1900 2202
1900 2251
1901 2105
1901 2129
1902 1963
1902 2001
1902 2006
1903 1931
1903 1936
1903 1969
1903 1983
1903 2014
1903 2025
1903 2043
1903 2049
1903 2081
1903 2094
1903 2103
1903 2120
1903 2138
1903 2146
1903 2148
1903 2163
1903 2176
1903 2183
1903 2185
1903 2186
1903 2203
1903 2219
1903 2220
1903 2229
1903 2232
1903 2235
1903 2295
1904 2066
1904 2179
1904 2219
1905 2009
1905 2011
1905 2136
1905 2142
1905 2239
1906 1907
1906 1919
1906 1963
1906 1980
1906 2062
1906 2074
1906 2154
1906 2191
1906 2202
1906 2204
1906 2208
1906 2272
1906 2305
1906 2311
1907 1918
1907 1919
1907 1924
1907 1949
1907 1963
1907 1980
1907 2003
1907 2029
1907 2034
1907 2045
1907 2058
1907 2059
1907 2060
1907 2062
1907 2073
1907 2187
1907 2191
1907 2202
1907 2272
1907 2277
1907 2296
1907 2305
1907 2312
1908 1911
1908 1921
1908 1927
1908 1957
1908 1987
1908 2023
1908 2046
1908 2057
1908 2072
1908 2078
1908 2088
1908 2094
1908 2103
1908 2111
1908 2120
1908 2127
1908 2135
1908 2151
1908 2156
1908 2167
1908 2222
1908 2225
1908 2237
1908 2245
1908 2257
1908 2258
1908 2260
1908 2264
1908 2274
1908 2277
1908 2280
1909 1996
1909 2027
1909 2047
1909 2087
1909 2095
1909 2098
1909 2151
1909 2164
1909 2172
1909 2202
1909 2210
1909 2225
1909 2268
1909 2271
1909 2289
1910 1920
1910 1963
1910 2003
1910 2029
1910 2030
1910 2043
1910 2058
1910 2059
1910 2073
1910 2075
1910 2140
1910 2246
1910 2251
1910 2272
1910 2273
1910 2296
1910 2305
1911 1921
1911 1961
1911 1984
1911 2007
1911 2045
1911 2049
1911 2051
1911 2060
1911 2067
1911 2093
1911 2111
1911 2138
1911 2156
1911 2232
1911 2235
1911 2242
1911 2245
1911 2260
1911 2264
1911 2267
1911 2277
1912 2089
1913 1945
1913 1953
1913 1963
1913 1974
1913 1995
1913 2022
1913 2056
1913 2062
1913 2101
1913 2115
1913 2133
1913 2167
1913 2185
1913 2197
1913 2213
1913 2220
1913 2260
1913 2280
1913 2289
1913 2303
1913 2304
1914 2061
1915 1933
1915 1963
1915 2013
1915 2030
1915 2086
1915 2108
1915 2191
1915 2202
1915 2220
1915 2272
1916 1971
1916 1974
1916 1995
1916 2022
1916 2066
1916 2117
1918 1924
1918 1935
1918 1939
1918 1949
1918 1969
1918 1974
1918 1982
1918 1998
1918 2024
1918 2045
1918 2072
1918 2104
1918 2128
1918 2133
1918 2177
1918 2234
1918 2251
1918 2256
1918 2265
1919 1921
1919 1924
1919 1949
1919 1950
1919 1956
1919 2060
1919 2062
1919 2073
1919 2074
1919 2076
1919 2084
1919 2104
1919 2133
1919 2141
1919 2154
1919 2177
1919 2191
1919 2195
1919 2204
1919 2206
1919 2272
1919 2277
1919 2284
1919 2304
1919 2305
1920 1963
1920 1974
1920 2029
1920 2043
1920 2058
1920 2075
1920 2147
1920 2273
1921 1927
1921 1931
1921 1949
1921 1950
1921 1961
1921 1966
1921 1977
1921 1982
1921 1984
1921 1989
1921 2023
1921 2049
1921 2051
1921 2060
1921 2084
1921 2089
1921 2097
1921 2101
1921 2104
1921 2120
1921 2133
1921 2150
1921 2154
1921 2156
1921 2160
1921 2177
1921 2191
1921 2206
1921 2215
1921 2245
1921 2260
1921 2261
1921 2265
1921 2267
1921 2269
1921 2280
1921 2288
1921 2306
1921 2308
1921 2311
1922 2116
1922 2129
1922 2140
1923 1999
1924 1939
1924 1949
1924 1953
1924 1963
1924 1974
1924 1998
1924 2013
1924 2019
1924 2062
1924 2068
1924 2072
1924 2084
1924 2086
1924 2094
1924 2097
1924 2104
1924 2112
1924 2122
1924 2141
1924 2147
1924 2148
1924 2171
1924 2176
1924 2187
1924 2188
1924 2234
1924 2242
1924 2244
1924 2265
1925 1926
1925 1931
1925 1936
1925 1992
1925 2049
1925 2076
1925 2168
1925 2186
1925 2206
1925 2211
1925 2215
1925 2229
1925 2234
1925 2236
1925 2258
1925 2260
1925 2265
1925 2267
1925 2277
1926 1931
1926 2025
1926 2066
1926 2081
1926 2101
1926 2138
1926 2146
1926 2215
1926 2220
1926 2236
1926 2272
1926 2274
1926 2280
1927 1931
1927 1964
1927 1966
1927 1986
1927 1990
1927 2007
1927 2015
1927 2044
1927 2046
1927 2049
1927 2066
1927 2070
1927 2074
1927 2088
1927 2105
1927 2124
1927 2127
1927 2140
1927 2147
1927 2154
1927 2161
1927 2186
1927 2189
1927 2200
1927 2213
1927 2228
1927 2229
1927 2245
1927 2261
1927 2264
1927 2266
1927 2292
1927 2311
1928 1962
1928 2008
1928 2019
1928 2021
1928 2037
1928 2062
1928 2066
1928 2081
1928 2105
1928 2124
1928 2174
1928 2175
1928 2200
1929 2172
1929 2289
1930 2053
1930 2178
1931 1936
1931 1949
1931 1957
1931 1967
1931 1969
1931 1974
1931 1982
1931 1984
1931 1991
1931 1992
1931 2008
1931 2012
1931 2014
1931 2024
1931 2027
1931 2033
1931 2037
1931 2043
1931 2049
1931 2054
1931 2067
1931 2069
1931 2070
1931 2076
1931 2081
1931 2089
1931 2104
1931 2111
1931 2113
1931 2120
1931 2128
1931 2138
1931 2146
1931 2148
1931 2160
1931 2168
1931 2177
1931 2183
1931 2185
1931 2189
1931 2206
1931 2215
1931 2219
1931 2221
1931 2225
1931 2227
1931 2232
1931 2235
1931 2236
1931 2240
1931 2252
1931 2260
1931 2265
1931 2266
1931 2268
1931 2274
1931 2280
1931 2289
1931 2295
1931 2308
1932 1949
1932 1953
1932 1954
1932 2037
1932 2086
1932 2101
1932 2104
1932 2144
1932 2147
1932 2149
1932 2163
1932 2223
1932 2227
1932 2269
1932 2277
1932 2295
1933 1934
1933 1999
1933 2004
1933 2005
1933 2108
1933 2143
1933 2253
1934 1948
1934 2001
1934 2044
1934 2239
1935 1953
1935 2024
1935 2072
1935 2120
1935 2128
1935 2177
1935 2206
1935 2242
1935 2248
1935 2254
1935 2265
1936 1949
1936 1974
1936 1982
1936 2024
1936 2076
1936 2089
1936 2146
1936 2148
1936 2168
1936 2177
1936 2206
1936 2215
1936 2219
1936 2221
1936 2254
1936 2260
1937 2044
1937 2209
1938 1959
1938 2009
1938 2011
1938 2040
1938 2044
1938 2056
1938 2167
1938 2239
1938 2252
1938 2253
1939 1949
1939 1953
1939 1982
1939 2037
1939 2068
1939 2171
1939 2175
1939 2184
1939 2234
1939 2242
1939 2263
1939 2265
1940 1991
1940 2008
1940 2046
1940 2081
1940 2156
1940 2164
1940 2177
1940 2185
1940 2220
1940 2274
1940 2281
1943 1970
1943 1985
1943 2004
1943 2020
1943 2028
1943 2137
1943 2253
1944 2015
1944 2128
1944 2184
1944 2304
1945 1948
1945 2025
1945 2056
1945 2092
1945 2109
1945 2260
1946 2066
1947 1952
1947 1981
1947 2044
1947 2052
1947 2064
1947 2099
1947 2151
1947 2152
1947 2188
1947 2227
1947 2230
1947 2239
1947 2294
1948 1987
1948 1995
1948 2022
1948 2089
1948 2093
1948 2210
1948 2231
1948 2268
1949 1954
1949 1956
1949 1963
1949 1974
1949 1977
1949 1982
1949 1989
1949 1998
1949 1999
1949 2003
1949 2013
1949 2024
1949 2045
1949 2051
1949 2060
1949 2062
1949 2065
1949 2073
1949 2074
1949 2086
1949 2093
1949 2104
1949 2120
1949 2134
1949 2143
1949 2150
1949 2156
1949 2176
1949 2177
1949 2187
1949 2195
1949 2198
1949 2223
1949 2232
1949 2242
1949 2251
1949 2256
1949 2265
1949 2272
1949 2275
1949 2277
1949 2295
1949 2296
1949 2304
1949 2306
1950 1965
1950 1974
1950 1993
1950 1995
1950 2037
1950 2060
1950 2069
1950 2127
1950 2150
1950 2154
1950 2156
1950 2208
1950 2225
1950 2236
1950 2248
1950 2252
1950 2289
1950 2298
1950 2304
1950 2306
1951 1958
1951 1967
1951 1992
1951 2007
1951 2017
1951 2023
1951 2039
1951 2046
1951 2051
1951 2055
1951 2066
1951 2067
1951 2100
1951 2151
1951 2175
1951 2177
1951 2185
1951 2200
1951 2211
1951 2245
1951 2254
1951 2255
1951 2264
1951 2271
1951 2274
1951 2304
1952 1963
1952 2038
1952 2164
1952 2187
1952 2199
1952 2294
1953 1954
1953 1969
1953 1974
1953 1984
1953 2013
1953 2056
1953 2068
1953 2074
1953 2076
1953 2086
1953 2090
1953 2094
1953 2101
1953 2109
1953 2111
1953 2113
1953 2126
1953 2128
1953 2134
1953 2141
1953 2148
1953 2149
1953 2156
1953 2171
1953 2176
1953 2204
1953 2223
1953 2227
1953 2232
1953 2234
1953 2244
1953 2252
1953 2261
1953 2263
1953 2269
1953 2276
1953 2277
1953 2295
1953 2304
1953 2308
1953 2311
1954 1980
1954 2037
1954 2090
1954 2101
1954 2119
1954 2149
1954 2156
1954 2204
1954 2220
1954 2223
1954 2227
1954 2269
1954 2272
1954 2277
1954 2295
1954 2304
1954 2311
1955 2146
1955 2307
1956 1958
1956 1977
1956 1987
1956 1992
1956 1999
1956 2003
1956 2037
1956 2043
1956 2055
1956 2065
1956 2067
1956 2074
1956 2086
1956 2104
1956 2118
1956 2120
1956 2144
1956 2187
1956 2259
1956 2304
1956 2306
1957 2008
1957 2013
1957 2017
1957 2027
1957 2049
1957 2066
1957 2089
1957 2095
1957 2098
1957 2151
1957 2164
1957 2166
1957 2167
1957 2193
1957 2202
1957 2225
1957 2245
1957 2260
1957 2269
1957 2277
1958 1994
1958 2022
1958 2055
1958 2213
1958 2225
1958 2264
1959 2027
1959 2151
1959 2192
1959 2214
1959 2240
1960 2135
1961 1974
1961 1980
1961 1989
1961 2023
1961 2042
1961 2177
1961 2204
1961 2220
1961 2232
1961 2265
1961 2311
1962 1999
1962 2036
1962 2174
1962 2221
1962 2225
1962 2245
1962 2281
1962 2292
1963 1966
1963 1974
1963 2006
1963 2013
1963 2019
1963 2030
1963 2043
1963 2045
1963 2051
1963 2058
1963 2060
1963 2062
1963 2073
1963 2074
1963 2075
1963 2079
1963 2082
1963 2086
1963 2093
1963 2115
1963 2120
1963 2123
1963 2132
1963 2143
1963 2147
1963 2151
1963 2154
1963 2156
1963 2164
1963 2166
1963 2167
1963 2187
1963 2191
1963 2197
1963 2199
1963 2202
1963 2204
1963 2209
1963 2225
1963 2228
1963 2233
1963 2240
1963 2246
1963 2259
1963 2260
1963 2272
1963 2275
1963 2279
1963 2283
1963 2295
1963 2296
1963 2303
1964 1990
1964 1995
1964 2007
1964 2037
1964 2062
1964 2063
1964 2070
1964 2081
1964 2088
1964 2108
1964 2115
1964 2121
1964 2135
1964 2140
1964 2154
1964 2163
1964 2175
1964 2189
1964 2197
1964 2213
1964 2236
1964 2264
1964 2266
1964 2271
1964 2289
1964 2295
1964 2304
1965 1995
1965 2089
1966 1988
1966 2034
1966 2051
1966 2062
1966 2101
1966 2120
1966 2130
1966 2167
1966 2202
1966 2210
1966 2265
1966 2268
1966 2274
1967 2089
1967 2103
1967 2129
1967 2147
1967 2175
1967 2185
1967 2225
1967 2268
1968 1976
1968 2015
1968 2016
1968 2017
1968 2067
1968 2127
1968 2170
1968 2286
1969 2076
1969 2077
1969 2120
1969 2128
1969 2156
1969 2168
1969 2215
1969 2234
1969 2242
1969 2252
1969 2254
1969 2265
1970 2001
1970 2004
1970 2006
1970 2034
1970 2044
1970 2099
1971 1974
1971 2108
1972 2011
1972 2080
1972 2199
1973 1974
1973 2081
1973 2185
1974 1986
1974 2015
1974 2022
1974 2024
1974 2029
1974 2038
1974 2043
1974 2045
1974 2054
1974 2058
1974 2060
1974 2069
1974 2070
1974 2075
1974 2081
1974 2088
1974 2122
1974 2140
1974 2156
1974 2185
1974 2190
1974 2195
1974 2204
1974 2210
1974 2225
1974 2236
1974 2237
1974 2239
1974 2248
1974 2251
1974 2252
1974 2266
1974 2274
1974 2289
1974 2302
1974 2303
1975 2013
1975 2049
1975 2116
1975 2147
1976 2015
1976 2135
1976 2270
1977 1999
1977 2013
1977 2024
1977 2045
1977 2062
1977 2086
1977 2093
1977 2104
1977 2111
1977 2116
1977 2120
1977 2140
1977 2144
1977 2147
1977 2149
1977 2156
1977 2163
1977 2187
1977 2232
1977 2251
1977 2272
1977 2273
1977 2303
1977 2304
1977 2306
1978 2011
1978 2044
1978 2091
1979 1986
1979 2022
1979 2049
1979 2063
1979 2070
1979 2108
1979 2130
1979 2162
1979 2192
1979 2258
1979 2274
1979 2277
1979 2295
1980 2024
1980 2049
1980 2060
1980 2068
1980 2104
1980 2147
1980 2151
1980 2154
1980 2190
1980 2191
1980 2204
1980 2228
1980 2244
1980 2272
1980 2280
1980 2304
1980 2311
1981 1985
1981 2002
1981 2020
1981 2044
1981 2052
1981 2152
1981 2156
1981 2199
1981 2239
1981 2287
1982 1992
1982 2068
1982 2084
1982 2104
1982 2120
1982 2134
1982 2141
1982 2146
1982 2150
1982 2156
1982 2160
1982 2177
1982 2203
1982 2206
1982 2215
1982 2232
1982 2234
1982 2265
1982 2267
1982 2269
1982 2277
1983 2089
1983 2292
1984 1992
1984 2025
1984 2027
1984 2049
1984 2068
1984 2086
1984 2101
1984 2113
1984 2120
1984 2133
1984 2141
1984 2148
1984 2150
1984 2151
1984 2156
1984 2171
1984 2177
1984 2203
1984 2215
1984 2226
1984 2232
1984 2234
1984 2235
1984 2236
1984 2242
1984 2245
1984 2258
1984 2260
1984 2264
1984 2265
1984 2267
1984 2274
1984 2277
1984 2288
1984 2304
1985 2011
1985 2020
1985 2044
1985 2061
1985 2156
1985 2294
1986 2036
1986 2044
1986 2057
1986 2108
1986 2124
1986 2162
1986 2274
1986 2292
1986 2308
1987 2021
1987 2027
1987 2073
1987 2079
1987 2088
1987 2093
1987 2111
1987 2117
1987 2130
1987 2143
1987 2164
1987 2195
1987 2231
1987 2237
1987 2268
1988 1995
1988 2051
1988 2055
1988 2073
1988 2122
1988 2127
1988 2183
1988 2198
1988 2277
1988 2284
1988 2295
1988 2296
1989 2066
1989 2101
1989 2104
1989 2120
1989 2156
1989 2197
1989 2220
1989 2260
1989 2277
1990 2007
1990 2057
1990 2070
1990 2121
1990 2266
1991 2023
1991 2043
1991 2046
1991 2049
1991 2066
1991 2084
1991 2129
1991 2151
1991 2167
1991 2177
1991 2219
1991 2225
1992 2017
1992 2037
1992 2055
1992 2067
1992 2081
1992 2094
1992 2101
1992 2146
1992 2211
1992 2236
1992 2295
1992 2306
1993 2070
1993 2204
1993 2236
1993 2289
1993 2304
1994 2106
1994 2110
1994 2122
1994 2147
1994 2174
1994 2301
1994 2303
1994 2307
1995 2022
1995 2037
1995 2056
1995 2062
1995 2063
1995 2069
1995 2070
1995 2073
1995 2079
1995 2089
1995 2213
1995 2225
1996 2027
1996 2042
1996 2047
1996 2095
1996 2098
1996 2127
1996 2167
1996 2225
1996 2240
1996 2289
1998 2024
1998 2068
1998 2151
1998 2176
1998 2234
1998 2242
1999 2005
1999 2013
1999 2016
1999 2058
1999 2062
1999 2073
1999 2082
1999 2093
1999 2110
1999 2143
1999 2147
1999 2163
1999 2182
1999 2195
1999 2198
1999 2225
1999 2249
1999 2296
1999 2304
1999 2306
1999 2308
1999 2309
2000 2008
2000 2174
2001 2002
2001 2004
2001 2011
2001 2020
2001 2026
2001 2044
2001 2052
2001 2053
2001 2152
2001 2155
2001 2178
2001 2217
2001 2239
2001 2297
2002 2044
2002 2052
2002 2119
2002 2137
2002 2199
2002 2294
2003 2037
2003 2055
2003 2060
2003 2065
2003 2067
2003 2068
2003 2074
2003 2143
2003 2147
2003 2198
2003 2272
2003 2295
2003 2306
2004 2006
2004 2028
2004 2044
2004 2051
2004 2079
2004 2304
2005 2013
2005 2078
2005 2106
2005 2123
2005 2132
2005 2143
2005 2209
2005 2284
2005 2292
2006 2099
2006 2217
2006 2253
2007 2027
2007 2045
2007 2070
2007 2088
2007 2093
2007 2111
2007 2121
2007 2140
2007 2180
2007 2189
2007 2257
2007 2266
2007 2279
2008 2016
2008 2027
2008 2037
2008 2089
2008 2174
2008 2212
2008 2232
2008 2258
2008 2268
2008 2271
2008 2281
2009 2137
2011 2020
2011 2044
2011 2053
2011 2156
2011 2287
2012 2027
2012 2081
2012 2087
2012 2159
2012 2161
2012 2182
2012 2203
2012 2222
2012 2235
2012 2236
2012 2275
2012 2298
2013 2044
2013 2052
2013 2060
2013 2063
2013 2074
2013 2086
2013 2094
2013 2104
2013 2107
2013 2112
2013 2115
2013 2123
2013 2141
2013 2148
2013 2163
2013 2171
2013 2176
2013 2191
2013 2195
2013 2202
2013 2234
2013 2244
2013 2272
2013 2295
2014 2031
2014 2049
2014 2087
2014 2146
2014 2229
2014 2277
2015 2017
2015 2023
2015 2031
2015 2057
2015 2088
2015 2103
2015 2121
2015 2127
2015 2135
2015 2162
2015 2182
2015 2185
2015 2189
2015 2222
2015 2260
2015 2270
2016 2017
2016 2027
2016 2058
2016 2067
2016 2069
2016 2079
2016 2089
2016 2208
2017 2027
2017 2032
2017 2067
2017 2088
2017 2135
2017 2161
2017 2211
2017 2222
2017 2266
2017 2298
2018 2107
2018 2239
2019 2021
2019 2073
2019 2074
2019 2082
2019 2086
2019 2094
2019 2104
2019 2187
2019 2195
2019 2246
2019 2305
2020 2044
2020 2156
2020 2178
2020 2199
2020 2230
2020 2287
2021 2034
2021 2065
2021 2073
2021 2074
2021 2086
2021 2104
2021 2112
2021 2195
2021 2280
2021 2306
2022 2073
2022 2130
2022 2192
2022 2225
2022 2289
2023 2042
2023 2150
2023 2151
2023 2160
2023 2176
2023 2177
2023 2203
2023 2220
2023 2227
2023 2258
2023 2261
2023 2269
2023 2274
2023 2277
2023 2295
2023 2311
2024 2068
2024 2072
2024 2097
2024 2104
2024 2133
2024 2144
2024 2147
2024 2151
2024 2168
2024 2177
2024 2191
2024 2204
2024 2206
2024 2228
2024 2234
2024 2244
2024 2251
2024 2265
2024 2295
2024 2304
2025 2066
2025 2092
2025 2170
2025 2260
2025 2262
2026 2287
2027 2048
2027 2060
2027 2067
2027 2089
2027 2095
2027 2098
2027 2127
2027 2166
2027 2196
2027 2210
2027 2212
2027 2225
2027 2240
2027 2245
2027 2268
2027 2271
2027 2289
2027 2298
2028 2044
2028 2080
2028 2102
2029 2034
2029 2043
2029 2058
2029 2073
2029 2144
2029 2158
2029 2192
2029 2195
2029 2273
2029 2303
2030 2140
2030 2284
2031 2146
2031 2179
2031 2219
2031 2288
2032 2290
2033 2266
2034 2062
2034 2065
2034 2073
2034 2115
2034 2116
2034 2195
2034 2202
2034 2214
2034 2225
2034 2310
2035 2079
2035 2181
2035 2213
2035 2268
2035 2301
2036 2124
2037 2055
2037 2058
2037 2067
2037 2068
2037 2081
2037 2094
2037 2101
2037 2103
2037 2117
2037 2120
2037 2133
2037 2149
2037 2156
2037 2163
2037 2175
2037 2206
2037 2213
2037 2223
2037 2227
2037 2231
2037 2234
2037 2236
2037 2248
2037 2259
2037 2263
2037 2269
2037 2274
2037 2277
2037 2303
2037 2306
2038 2044
2038 2188
2038 2199
2038 2207
2038 2227
2038 2239
2039 2046
2039 2055
2039 2103
2039 2156
2040 2098
2040 2166
2040 2225
2041 2053
2041 2091
2041 2099
2042 2151
2042 2167
2042 2179
2042 2267
2042 2277
2042 2288
2042 2311
2043 2049
2043 2058
2043 2065
2043 2075
2043 2084
2043 2088
2043 2120
2043 2146
2043 2163
2043 2192
2043 2215
2043 2219
2043 2251
2043 2296
2044 2052
2044 2053
2044 2061
2044 2064
2044 2077
2044 2091
2044 2093
2044 2152
2044 2199
2044 2217
2044 2218
2044 2230
2044 2239
2044 2243
2044 2253
2044 2256
2044 2287
2044 2294
2044 2302
2045 2058
2045 2072
2045 2093
2045 2111
2045 2123
2045 2187
2045 2265
2045 2295
2045 2304
2045 2305
2046 2066
2046 2069
2046 2094
2046 2103
2046 2113
2046 2146
2046 2150
2046 2156
2046 2177
2046 2184
2046 2185
2046 2193
2046 2245
2046 2255
2046 2274
2046 2276
2047 2095
2047 2167
2047 2225
2048 2067
2048 2100
2048 2144
2048 2163
2048 2190
2048 2203
2048 2295
2049 2066
2049 2097
2049 2117
2049 2120
2049 2127
2049 2133
2049 2151
2049 2160
2049 2167
2049 2176
2049 2177
2049 2206
2049 2260
2049 2261
2049 2269
2049 2280
2051 2060
2051 2160
2051 2192
2051 2198
2051 2202
2051 2210
2051 2241
2051 2246
2052 2053
2052 2077
2052 2091
2052 2114
2052 2151
2052 2152
2052 2178
2052 2199
2052 2218
2052 2256
2052 2287
2052 2294
2052 2302
2053 2077
2053 2091
2053 2142
2053 2239
2053 2294
2053 2297
2054 2057
2054 2146
2054 2236
2054 2299
2055 2067
2055 2076
2055 2110
2055 2111
2055 2118
2055 2156
2055 2183
2055 2211
2055 2227
2055 2248
2055 2259
2055 2306
2056 2085
2056 2120
2056 2156
2056 2158
2056 2175
2056 2220
2056 2248
2056 2259
2056 2261
2056 2265
2056 2274
2056 2275
2057 2089
2057 2129
2057 2162
2057 2258
2057 2270
2058 2060
2058 2072
2058 2074
2058 2075
2058 2079
2058 2104
2058 2144
2058 2147
2058 2273
2058 2296
2059 2072
2059 2073
2059 2074
2059 2079
2059 2184
2059 2195
2059 2240
2059 2284
2059 2296
2060 2069
2060 2073
2060 2074
2060 2095
2060 2101
2060 2104
2060 2148
2060 2154
2060 2160
2060 2192
2060 2195
2060 2204
2060 2206
2060 2210
2060 2240
2060 2272
2060 2273
2060 2295
2060 2306
2061 2274
2062 2070
2062 2072
2062 2073
2062 2082
2062 2088
2062 2089
2062 2093
2062 2104
2062 2132
2062 2140
2062 2143
2062 2145
2062 2174
2062 2187
2062 2191
2062 2192
2062 2198
2062 2202
2062 2209
2062 2212
2062 2214
2062 2233
2062 2246
2062 2275
2062 2303
2062 2304
2062 2305
2062 2309
2062 2310
2062 2312
2063 2070
2063 2130
2063 2208
2064 2199
2064 2230
2064 2283
2064 2294
2065 2082
2065 2120
2065 2147
2065 2192
2065 2295
2065 2305
2065 2306
2066 2089
2066 2101
2066 2113
2066 2133
2066 2160
2066 2177
2066 2206
2066 2220
2066 2260
2066 2261
2066 2271
2066 2274
2066 2280
2067 2069
2067 2118
2067 2170
2067 2183
2067 2211
2067 2232
2067 2236
2067 2255
2067 2286
2067 2306
2068 2097
2068 2110
2068 2141
2068 2147
2068 2151
2068 2154
2068 2156
2068 2171
2068 2176
2068 2190
2068 2191
2068 2204
2068 2213
2068 2227
2068 2234
2068 2240
2068 2242
2068 2244
2068 2252
2068 2259
2068 2263
2068 2265
2068 2295
2068 2304
2069 2079
2069 2124
2069 2160
2069 2183
2069 2274
2069 2308
2070 2088
2070 2108
2070 2115
2070 2121
2070 2127
2070 2128
2070 2140
2070 2154
2070 2163
2070 2177
2070 2189
2070 2190
2070 2252
2070 2257
2070 2266
2070 2289
2071 2163
2071 2295
2072 2128
2073 2079
2073 2093
2073 2099
2073 2195
2073 2231
2073 2251
2073 2273
2073 2280
2073 2296
2073 2310
2074 2123
2074 2147
2074 2175
2074 2195
2074 2213
2074 2295
2075 2202
2075 2225
2075 2273
2075 2296
2076 2101
2076 2111
2076 2120
2076 2128
2076 2177
2076 2234
2076 2265
2077 2099
2077 2178
2077 2253
2078 2132
2078 2164
2078 2210
2079 2268
2080 2173
2080 2253
2081 2138
2081 2163
2081 2204
2081 2206
2081 2213
2081 2220
2081 2236
2081 2295
2082 2093
2082 2123
2082 2143
2082 2147
2082 2303
2082 2306
2084 2103
2084 2120
2084 2171
2084 2186
2084 2245
2084 2254
2084 2265
2084 2306
2086 2094
2086 2104
2086 2148
2086 2234
2086 2244
2086 2277
2086 2304
2086 2306
2087 2127
2087 2159
2087 2182
2087 2271
2088 2094
2088 2140
2088 2185
2088 2189
2088 2236
2088 2257
2088 2266
2088 2289
2089 2135
2089 2146
2089 2160
2089 2161
2089 2174
2089 2177
2089 2185
2089 2196
2089 2221
2089 2223
2089 2225
2089 2229
2089 2232
2089 2245
2089 2258
2089 2266
2089 2268
2089 2274
2089 2281
2089 2289
2089 2299
2090 2277
2091 2239
2092 2219
2092 2260
2092 2262
2093 2104
2093 2187
2093 2198
2093 2231
2093 2241
2093 2296
2093 2302
2093 2304
2093 2309
2094 2101
2094 2103
2094 2109
2094 2112
2094 2113
2094 2141
2094 2148
2094 2171
2094 2176
2094 2177
2094 2185
2094 2234
2094 2244
2094 2254
2094 2274
2095 2098
2095 2161
2095 2167
2095 2196
2095 2201
2095 2214
2095 2225
2095 2240
2095 2250
2095 2300
2096 2205
2097 2100
2097 2109
2097 2128
2097 2171
2097 2176
2097 2177
2097 2203
2097 2215
2097 2227
2097 2234
2097 2242
2097 2245
2097 2254
2097 2261
2097 2274
2097 2277
2098 2106
2098 2125
2098 2127
2098 2151
2098 2166
2098 2167
2098 2172
2098 2185
2098 2193
2098 2225
2098 2257
2098 2268
2099 2114
2099 2136
2099 2152
2099 2287
2099 2302
2100 2124
2100 2154
2100 2185
2100 2242
2101 2111
2101 2134
2101 2141
2101 2148
2101 2149
2101 2154
2101 2220
2101 2227
2101 2232
2101 2265
2101 2272
2101 2280
2101 2304
2103 2129
2103 2150
2103 2156
2103 2185
2103 2240
2103 2245
2103 2274
2104 2120
2104 2128
2104 2132
2104 2134
2104 2143
2104 2144
2104 2147
2104 2177
2104 2187
2104 2191
2104 2202
2104 2227
2104 2232
2104 2242
2104 2265
2104 2269
2104 2272
2104 2277
2104 2296
2104 2304
2104 2306
2105 2124
2105 2174
2105 2175
2105 2208
2105 2264
2105 2281
2105 2303
2106 2143
2106 2174
2106 2198
2106 2206
2106 2221
2106 2233
2107 2137
2107 2230
2107 2283
2108 2115
2108 2162
2108 2174
2108 2175
2108 2181
2108 2303
2109 2148
2109 2171
2109 2232
2109 2234
2109 2242
2109 2254
2109 2260
2109 2262
2109 2277
2110 2129
2110 2155
2110 2175
2110 2185
2110 2197
2110 2220
2110 2231
2110 2240
2110 2255
2110 2259
2110 2276
2110 2303
2110 2304
2111 2115
2111 2120
2111 2200
2111 2220
2111 2259
2111 2277
2112 2141
2112 2148
2112 2171
2112 2176
2112 2187
2112 2195
2112 2234
2112 2244
2112 2305
2113 2148
2113 2171
2113 2176
2113 2193
2113 2215
2113 2234
2113 2242
2113 2254
2113 2258
2113 2260
2113 2265
2114 2188
2114 2302
2114 2309
2115 2124
2115 2197
2115 2213
2115 2214
2115 2271
2115 2292
2115 2303
2116 2123
2116 2129
2116 2143
2116 2147
2116 2163
2116 2295
2116 2310
2117 2147
2117 2195
2117 2220
2117 2245
2117 2310
2118 2255
2119 2199
2119 2230
2120 2128
2120 2156
2120 2171
2120 2177
2120 2195
2120 2206
2120 2219
2120 2234
2120 2237
2120 2252
2120 2261
2120 2265
2120 2274
2120 2280
2120 2304
2120 2305
2120 2306
2120 2308
2120 2311
2121 2180
2121 2189
2121 2262
2121 2266
2121 2270
2121 2288
2122 2172
2122 2174
2122 2249
2122 2301
2123 2143
2123 2196
2123 2198
2123 2230
2123 2295
2123 2309
2124 2185
2124 2208
2124 2213
2124 2261
2124 2264
2124 2274
2124 2292
2125 2129
2125 2182
2125 2212
2125 2221
2125 2225
2125 2249
2125 2268
2125 2299
2126 2304
2127 2151
2127 2159
2127 2161
2127 2226
2127 2240
2127 2271
2127 2289
2128 2151
2128 2203
2128 2227
2128 2234
2128 2242
2128 2254
2128 2263
2128 2265
2129 2135
2129 2162
2129 2175
2129 2237
2129 2257
2129 2259
2129 2301
2130 2164
2130 2167
2130 2193
2130 2196
2130 2210
2130 2268
2132 2143
2132 2198
2132 2202
2133 2177
2133 2206
2133 2258
2133 2260
2133 2280
2133 2289
2134 2156
2134 2272
2134 2277
2134 2304
2134 2305
2135 2151
2135 2161
2135 2222
2135 2270
2135 2288
2135 2308
2137 2178
2138 2150
2138 2215
2138 2235
2138 2236
2139 2292
2140 2162
2140 2251
2141 2148
2141 2156
2141 2171
2141 2234
2141 2242
2141 2244
2141 2277
2143 2147
2143 2163
2143 2175
2143 2209
2143 2210
2143 2233
2143 2246
2143 2309
2143 2310
2144 2147
2144 2163
2144 2203
2144 2227
2144 2251
2144 2295
2144 2304
2144 2306
2145 2209
2145 2212
2146 2154
2146 2186
2146 2219
2146 2221
2146 2236
2147 2151
2147 2186
2147 2187
2147 2190
2147 2191
2147 2195
2147 2204
2147 2228
2147 2229
2147 2233
2147 2240
2147 2273
2147 2298
2147 2304
2147 2310
2148 2171
2148 2176
2148 2232
2148 2234
2148 2244
2148 2295
2149 2156
2149 2177
2149 2223
2149 2227
2149 2240
2149 2265
2149 2277
2149 2295
2149 2304
2149 2308
2150 2156
2150 2160
2150 2245
2150 2254
2150 2258
2151 2156
2151 2164
2151 2166
2151 2167
2151 2190
2151 2191
2151 2192
2151 2193
2151 2204
2151 2206
2151 2214
2151 2225
2151 2228
2151 2236
2151 2240
2151 2244
2151 2252
2151 2268
2151 2269
2151 2283
2151 2289
2151 2298
2151 2304
2151 2311
2152 2217
2152 2218
2152 2302
2154 2167
2154 2204
2154 2228
2154 2252
2154 2258
2154 2265
2154 2311
2156 2160
2156 2166
2156 2167
2156 2177
2156 2197
2156 2204
2156 2223
2156 2225
2156 2226
2156 2227
2156 2237
2156 2242
2156 2252
2156 2265
2156 2267
2156 2288
2156 2295
2156 2304
2156 2311
2159 2271
2159 2284
2160 2177
2160 2206
2160 2245
2160 2265
2160 2274
2160 2288
2161 2180
2161 2216
2161 2222
2161 2270
2161 2286
2161 2290
2163 2192
2163 2203
2163 2210
2163 2236
2163 2295
2163 2309
2164 2166
2164 2202
2164 2210
2164 2214
2164 2225
2164 2233
2164 2240
2164 2268
2164 2271
2164 2312
2166 2210
2166 2225
2166 2246
2166 2252
2166 2289
2167 2202
2167 2204
2167 2210
2167 2214
2167 2219
2167 2225
2167 2237
2167 2240
2167 2252
2167 2274
2167 2289
2167 2311
2168 2177
2168 2206
2168 2215
2168 2234
2168 2252
2168 2254
2168 2265
2169 2252
2170 2260
2170 2267
2170 2288
2171 2176
2171 2184
2171 2186
2171 2215
2171 2232
2171 2234
2171 2242
2171 2244
2171 2267
2171 2274
2171 2304
2172 2221
2172 2249
2172 2268
2172 2289
2172 2301
2173 2178
2173 2253
2174 2237
2174 2260
2174 2261
2174 2281
2174 2309
2175 2221
2175 2225
2175 2231
2175 2236
2175 2248
2175 2259
2175 2307
2176 2234
2176 2242
2176 2244
2176 2254
2176 2260
2177 2203
2177 2206
2177 2215
2177 2219
2177 2227
2177 2240
2177 2242
2177 2254
2177 2258
2177 2261
2177 2265
2177 2274
2177 2288
2177 2295
2177 2306
2177 2308
2178 2198
2178 2199
2178 2217
2178 2253
2179 2219
2179 2267
2180 2189
2180 2257
2180 2266
2181 2208
2181 2212
2181 2213
2181 2309
2182 2190
2182 2249
2182 2274
2182 2301
2183 2260
2184 2252
2184 2263
2185 2264
2186 2187
2186 2229
2187 2229
2187 2272
2187 2296
2187 2304
2188 2207
2188 2243
2188 2255
2188 2256
2188 2283
2188 2287
2188 2294
2189 2260
2189 2262
2189 2266
2189 2274
2189 2286
2189 2288
2190 2191
2190 2204
2190 2228
2190 2244
2190 2251
2190 2304
2191 2204
2191 2240
2191 2244
2191 2272
2191 2304
2191 2305
2191 2311
2192 2210
2192 2214
2192 2225
2192 2237
2192 2265
2192 2277
2192 2289
2192 2295
2192 2312
2193 2196
2193 2202
2193 2225
2193 2252
2193 2268
2195 2225
2195 2280
2195 2306
2195 2311
2196 2213
2196 2214
2196 2225
2196 2268
2197 2227
2197 2303
2197 2304
2198 2209
2198 2210
2198 2212
2198 2241
2198 2264
2198 2276
2198 2307
2199 2256
2199 2283
2199 2287
2199 2294
2201 2270
2202 2210
2202 2214
2202 2225
2202 2284
2202 2289
2202 2312
2203 2215
2203 2227
2203 2232
2203 2254
2203 2276
2203 2277
2203 2295
2204 2228
2204 2234
2204 2244
2204 2272
2204 2295
2204 2304
2204 2311
2206 2215
2206 2219
2206 2225
2206 2236
2206 2260
2208 2213
2209 2212
2210 2214
2210 2225
2210 2233
2210 2241
2210 2289
2210 2312
2211 2267
2212 2268
2212 2299
2213 2236
2214 2225
2214 2233
2214 2312
2215 2232
2215 2234
2215 2242
2215 2254
2215 2265
2219 2254
2219 2255
2219 2262
2219 2274
2219 2288
2220 2259
2220 2272
2220 2295
2220 2304
2221 2301
2222 2270
2223 2227
2223 2232
2223 2258
2223 2261
2223 2269
2223 2277
2223 2304
2223 2305
2225 2233
2225 2240
2225 2248
2225 2252
2225 2263
2225 2268
2225 2289
2226 2267
2226 2270
2227 2232
2227 2234
2227 2269
2227 2274
2227 2277
2227 2295
2227 2306
2229 2261
2230 2283
2230 2287
2230 2294
2230 2297
2231 2259
2231 2307
2232 2234
2232 2242
2232 2254
2232 2261
2232 2265
2232 2271
2232 2277
2232 2304
2232 2306
2233 2284
2234 2242
2234 2244
2234 2254
2234 2263
2234 2265
2236 2279
2236 2295
2237 2260
2237 2264
2237 2274
2237 2295
2239 2287
2239 2294
2239 2302
2240 2264
2240 2269
2240 2274
2241 2304
2242 2254
2242 2257
2242 2260
2242 2265
2244 2272
2244 2304
2245 2254
2245 2258
2245 2260
2245 2261
2245 2269
2245 2274
2248 2252
2248 2303
2248 2306
2248 2310
2249 2292
2249 2301
2252 2259
2252 2265
2255 2306
2256 2278
2257 2266
2257 2289
2258 2261
2258 2264
2258 2269
2258 2311
2259 2275
2259 2295
2259 2304
2259 2310
2260 2262
2260 2264
2260 2265
2260 2274
2261 2264
2261 2265
2261 2277
2261 2280
2261 2308
2262 2267
2262 2270
2263 2265
2263 2311
2264 2308
2265 2302
2268 2289
2269 2277
2269 2295
2269 2304
2269 2306
2270 2271
2272 2277
2272 2304
2273 2284
2273 2304
2274 2304
2274 2308
2274 2311
2275 2284
2275 2296
2276 2306
2277 2288
2277 2295
2277 2304
2277 2305
2277 2306
2280 2304
2280 2311
2283 2287
2283 2294
2284 2295
2284 2296
2284 2304
2284 2306
2287 2294
2295 2304
2296 2306
2304 2306
2304 2311
