%%MatrixMarket matrix coordinate pattern symmetric
15594 15594 22785
1 14394
2 15
3 15
4 15
5 15
6 15
7 15
8 15
9 15
10 15
11 15
12 15
13 15
14 15
15 16
15 17
15 18
15 19
15 20
15 21
15 22
15 23
15 24
15 25
15 26
15 27
15 28
15 29
15 63
20 21
20 22
25 26
25 27
30 31
30 223
30 240
31 32
31 34
31 223
32 33
32 223
33 223
34 223
35 52
36 223
37 223
38 39
38 47
38 223
39 223
40 41
40 223
41 42
41 223
42 43
42 223
43 44
43 223
44 45
44 223
45 46
45 223
46 47
46 223
47 223
48 52
49 54
49 223
50 304
51 6503
52 53
52 54
52 63
52 77
52 78
52 79
52 80
52 81
52 82
52 83
52 84
52 85
52 86
52 87
52 88
52 89
52 90
52 91
52 92
52 93
52 94
52 95
52 96
52 97
52 98
52 99
52 100
52 101
52 102
52 103
52 104
52 105
52 106
52 107
52 108
52 109
52 110
52 111
52 112
52 113
52 114
52 115
52 116
52 178
52 220
52 221
52 222
52 223
52 6499
52 6500
52 6501
52 6502
52 6545
52 6546
52 6547
52 6548
52 6549
52 6550
52 6551
52 6552
52 6553
52 6554
52 6555
52 6556
54 55
54 56
54 57
54 58
54 59
54 63
54 66
54 67
54 68
54 69
54 70
54 71
54 72
54 73
54 74
54 75
54 76
54 119
54 158
54 159
54 160
54 161
54 162
54 163
54 164
54 165
54 166
54 167
54 168
54 169
54 170
54 171
54 172
54 173
54 174
54 175
54 176
54 177
54 210
54 211
54 212
54 223
54 6444
54 6445
54 6446
54 6447
54 6448
54 6449
54 6450
54 6451
54 6452
54 6455
54 6456
54 6457
54 6458
54 6459
54 6460
54 6461
54 6462
54 6463
54 6464
54 6465
54 6466
54 6467
54 6468
54 6469
54 6470
54 6471
54 6472
54 6473
54 6474
54 6475
54 6476
54 6477
54 6478
54 6479
54 6480
54 6481
54 6482
54 6483
54 6484
54 6485
54 6486
54 6487
54 6488
54 6489
54 6490
54 6491
54 6492
54 6493
54 6494
54 6495
54 6496
54 6497
54 6498
54 6503
54 6528
54 6529
54 6530
54 6531
54 6532
54 6533
54 6534
54 6535
54 6536
54 6537
54 6538
54 6539
54 6540
54 6541
54 6542
54 6543
54 6544
54 6660
54 7091
60 7253
61 7253
62 7253
63 119
63 223
63 6577
63 6578
63 7092
63 7117
63 7203
63 7204
63 7205
63 7206
63 7300
63 7301
64 65
64 7253
67 68
67 76
69 70
70 71
71 72
72 73
73 74
74 75
75 76
117 118
117 119
117 7080
118 119
119 120
119 121
119 122
119 123
119 124
119 125
119 126
119 127
119 128
119 129
119 130
119 131
119 132
119 133
119 134
119 135
119 136
119 137
119 138
119 139
119 140
119 141
119 142
119 143
119 144
119 145
119 146
119 147
119 148
119 149
119 150
119 151
119 152
119 153
119 154
119 155
119 156
119 157
119 213
119 214
119 215
119 216
119 217
119 218
119 219
119 223
119 6503
119 7076
119 7077
119 7078
119 7079
119 7080
119 7081
122 123
122 7078
138 213
146 147
147 148
148 149
150 151
151 152
153 154
154 155
155 156
156 157
179 223
180 223
181 223
182 223
183 223
184 223
185 223
186 187
186 207
186 223
187 188
187 223
188 189
188 223
189 223
190 223
191 223
192 199
192 223
193 199
193 223
194 199
194 223
195 196
195 198
195 200
195 223
196 197
196 223
197 223
198 223
199 201
199 223
199 266
199 6523
199 6526
200 201
200 202
200 223
201 223
202 203
202 223
203 204
203 223
204 205
204 223
205 206
205 223
206 223
207 208
207 223
208 223
209 223
210 211
211 212
213 214
214 215
215 216
216 217
217 218
218 219
220 221
221 222
223 224
223 225
223 226
223 227
223 228
223 229
223 230
223 231
223 232
223 233
223 234
223 235
223 236
223 237
223 238
223 239
223 240
223 241
223 242
223 243
223 244
223 245
223 246
223 247
223 248
223 249
223 250
223 251
223 252
223 253
223 254
223 255
223 256
223 257
223 258
223 259
223 260
223 261
223 262
223 263
223 264
223 265
223 266
223 267
223 268
223 269
223 270
223 271
223 272
223 273
223 6503
223 6504
223 6505
223 6506
223 6507
223 6508
223 6509
223 6510
223 6511
223 6512
223 6513
223 6514
223 6515
223 6516
223 6517
223 6518
223 6519
223 6520
223 6521
223 6522
223 6523
223 6524
223 6525
223 6526
223 6527
226 227
226 228
228 229
228 233
229 230
229 231
231 232
234 235
234 237
235 236
240 241
246 247
247 248
248 249
251 252
252 254
252 262
253 255
254 255
255 256
255 257
256 259
257 258
260 261
260 262
262 263
263 264
264 265
266 267
267 268
268 269
270 271
271 272
272 273
274 304
275 304
276 304
277 304
278 304
279 304
280 304
281 304
282 304
283 304
284 304
285 304
286 304
287 304
288 304
289 304
290 304
291 304
292 304
293 304
294 304
295 304
296 304
297 304
298 304
299 304
300 304
301 304
302 304
303 304
304 305
304 7253
306 14648
307 13823
308 14090
308 14096
309 15182
310 4081
311 15085
312 313
312 314
312 315
312 316
312 462
313 314
313 316
313 459
313 462
313 530
314 462
315 462
316 459
316 462
317 462
318 319
318 462
319 320
319 321
319 322
319 329
319 334
319 335
319 336
319 341
319 342
319 345
319 348
319 461
319 462
320 462
321 462
322 462
323 462
324 462
325 462
326 462
327 462
328 462
329 462
330 462
331 462
332 462
333 462
334 462
335 462
336 347
336 349
336 365
336 425
336 448
336 460
336 461
336 462
336 519
337 462
338 462
339 462
340 462
341 462
342 462
343 462
344 462
345 462
346 462
347 462
348 462
349 461
349 462
350 462
351 360
351 462
352 360
352 462
353 360
353 462
354 360
354 462
355 360
355 462
356 360
356 462
357 360
357 462
358 360
358 462
359 360
359 462
360 361
360 362
360 462
361 462
362 462
363 365
363 462
364 365
364 462
365 461
365 462
366 462
367 462
368 462
369 462
370 462
371 462
372 462
373 462
374 462
375 462
376 461
376 462
377 462
378 462
379 380
379 386
379 462
380 381
380 386
380 462
381 383
381 386
381 462
382 386
382 462
383 384
383 386
383 462
384 385
384 386
384 462
385 386
385 462
386 387
386 462
387 391
387 406
387 461
387 462
387 510
388 389
388 390
388 391
388 462
389 391
389 462
390 391
390 393
390 462
391 392
391 393
391 462
392 393
392 462
393 462
394 395
394 396
394 461
394 462
395 462
396 462
397 398
397 418
397 461
397 462
398 462
399 400
399 462
400 401
400 402
400 403
400 419
400 461
400 462
401 462
402 462
403 462
404 462
405 406
405 462
406 461
406 462
407 409
407 462
408 409
408 462
409 410
409 420
409 421
409 461
409 462
410 462
411 462
412 462
413 462
414 462
415 462
416 462
417 461
417 462
418 462
419 462
420 462
421 462
422 462
423 462
424 462
425 461
425 462
426 462
427 462
428 462
429 462
430 462
431 462
432 462
433 462
434 462
435 462
436 462
437 462
438 462
439 462
440 462
441 462
442 462
443 462
444 462
445 462
446 462
447 462
448 461
448 462
449 461
449 462
450 462
451 462
452 462
453 462
454 462
455 462
456 462
457 462
458 462
459 462
460 461
460 462
461 462
461 498
461 513
461 514
461 516
461 519
461 526
462 463
462 464
462 465
462 466
462 467
462 468
462 469
462 470
462 471
462 472
462 473
462 474
462 475
462 476
462 477
462 478
462 479
462 480
462 481
462 482
462 483
462 484
462 485
462 486
462 487
462 488
462 489
462 490
462 491
462 492
462 493
462 494
462 495
462 496
462 497
462 498
462 499
462 500
462 501
462 502
462 503
462 504
462 505
462 506
462 507
462 508
462 509
462 510
462 511
462 512
462 513
462 514
462 515
462 516
462 517
462 518
462 519
462 520
462 521
462 522
462 523
462 524
462 525
462 526
462 527
462 528
462 6304
486 487
487 488
506 507
506 510
507 508
507 510
508 509
508 510
509 510
521 526
522 526
526 527
529 530
530 4082
530 6306
531 15182
532 6391
533 14011
534 14201
535 14201
536 15374
537 14229
538 555
539 555
540 555
541 555
542 555
543 555
544 555
545 555
546 555
547 555
548 555
549 9284
550 9284
551 9284
552 9284
553 9284
554 9284
555 9128
555 9284
556 560
556 586
556 587
556 588
556 589
556 592
556 598
556 599
556 600
556 601
556 602
556 603
556 604
556 605
556 606
556 607
556 608
556 609
556 610
556 611
556 9284
557 560
557 569
557 570
557 571
557 572
557 573
557 574
557 575
557 576
557 577
557 578
557 579
557 580
557 581
557 582
557 583
557 584
557 590
557 591
557 616
557 617
557 9284
558 560
558 596
558 627
558 628
558 629
558 630
558 631
558 632
558 633
558 634
558 9284
559 560
559 612
559 613
559 614
559 615
559 620
559 622
559 623
559 624
559 9284
560 561
560 562
560 563
560 564
560 565
560 566
560 567
560 568
560 626
560 8837
560 9124
560 9125
560 9126
560 9127
560 9128
560 9135
560 9284
560 9288
560 9863
560 9864
561 626
561 9126
561 9128
561 9284
561 9288
562 626
562 9126
562 9128
562 9284
562 9288
563 626
563 9126
563 9128
563 9284
563 9288
564 626
564 9126
564 9128
564 9284
564 9288
565 626
565 9126
565 9128
565 9284
565 9288
566 626
566 9126
566 9128
566 9284
566 9288
567 626
567 9126
567 9128
567 9284
567 9288
568 626
568 9126
568 9128
568 9284
568 9288
569 9284
570 617
570 9284
585 9284
593 9284
594 9284
595 9284
597 9284
603 9284
609 9284
610 9284
611 9284
618 9284
619 9284
620 621
623 624
624 9284
625 9284
626 8837
626 9124
626 9126
626 9128
626 9135
626 9863
626 9864
629 630
629 631
629 632
633 9284
634 635
636 9284
637 9284
638 15246
639 15246
640 641
641 642
641 818
641 4019
642 643
642 644
642 645
642 646
642 647
648 714
648 729
649 710
650 651
650 653
650 720
651 652
651 653
651 720
653 654
653 720
655 656
655 659
655 736
656 657
656 659
656 736
658 782
658 787
659 660
659 736
661 738
661 783
661 787
661 804
662 723
662 868
663 720
663 780
664 665
664 710
664 717
665 666
665 710
665 717
666 720
666 780
667 672
667 715
668 710
668 715
669 670
669 671
669 710
670 671
671 710
671 719
673 674
673 675
673 710
674 675
675 710
675 719
676 711
677 678
677 679
677 681
677 716
678 679
678 681
678 710
678 716
678 720
678 780
679 680
679 681
679 710
679 716
680 710
681 710
681 716
682 693
683 693
684 693
685 691
686 693
687 688
687 689
687 690
687 691
687 693
687 695
687 700
687 701
687 702
687 706
687 722
691 692
691 693
691 695
691 700
691 701
691 702
691 704
693 694
693 695
693 700
693 701
693 702
695 696
695 697
695 698
695 699
695 700
695 701
695 702
695 703
695 705
695 707
695 708
695 727
700 702
701 702
701 720
702 713
709 710
709 711
709 712
709 714
709 715
709 716
709 717
709 718
709 719
710 711
710 712
710 714
710 715
710 716
710 717
710 718
710 719
710 724
710 726
710 728
710 729
710 730
710 735
711 712
711 714
711 715
711 716
711 717
711 718
711 719
711 720
712 714
712 715
712 716
712 717
712 718
712 719
712 720
712 728
714 715
714 716
714 717
714 718
714 719
714 720
714 729
715 716
715 717
715 718
715 719
715 720
716 717
716 718
716 719
716 720
717 718
717 719
717 720
718 719
718 720
719 726
720 723
720 734
720 792
720 797
720 868
721 723
723 868
724 725
724 726
725 726
731 732
731 733
731 734
732 734
733 734
736 737
736 746
736 753
736 776
736 778
736 779
736 780
736 781
736 782
736 783
736 784
736 785
736 786
736 787
736 788
736 794
736 795
736 796
736 806
736 819
736 820
736 828
736 843
737 778
738 783
739 787
740 741
740 796
740 805
740 806
741 796
742 746
743 746
744 746
745 746
745 753
746 747
746 748
746 749
746 750
746 751
746 752
746 753
746 754
746 755
746 756
746 757
746 758
746 759
746 760
746 761
746 762
746 763
746 764
746 765
746 766
746 767
746 768
746 769
746 770
746 771
746 772
746 773
746 774
746 775
746 777
746 789
778 779
778 781
778 782
778 783
778 784
778 785
778 786
778 787
778 788
779 780
779 781
779 782
779 783
779 784
779 785
779 786
779 787
779 788
780 787
780 792
780 796
780 797
781 782
781 783
781 784
781 785
781 786
781 787
781 788
781 823
782 783
782 784
782 785
782 786
782 787
782 788
783 784
783 785
783 786
783 787
783 788
783 804
784 785
784 786
784 787
784 788
784 824
784 826
784 827
785 786
785 787
785 788
785 828
785 829
785 830
786 787
786 788
786 791
786 821
786 822
787 788
787 798
787 799
787 800
787 801
787 803
787 807
787 808
787 810
787 812
787 813
787 814
787 816
787 821
787 822
787 823
787 824
787 826
787 827
787 828
787 829
787 830
787 831
788 803
788 810
790 824
793 795
794 795
796 805
796 806
798 799
798 800
798 802
798 812
799 800
799 801
799 802
799 803
799 812
800 801
800 803
800 812
801 803
801 812
802 812
803 812
805 806
806 818
807 808
807 809
807 810
807 811
808 809
808 810
809 810
810 812
812 816
813 814
813 815
813 816
813 817
814 815
814 816
815 816
818 819
818 820
818 828
818 6316
820 822
821 822
825 826
826 827
828 829
828 830
829 830
830 831
832 844
833 858
834 844
835 852
836 849
837 843
838 847
839 853
840 844
841 849
842 852
843 844
843 847
843 849
843 852
843 853
843 858
843 865
843 867
844 845
844 846
844 847
844 849
844 852
844 853
844 858
847 848
847 849
847 852
847 853
847 858
847 861
849 850
849 851
849 852
849 853
849 858
849 863
849 866
852 853
852 858
852 860
852 862
852 864
853 854
853 855
853 856
853 857
853 858
858 859
869 14011
870 15290
871 872
872 873
872 874
872 2641
873 874
873 1022
874 3488
875 877
875 1786
875 3756
876 877
876 1789
876 3754
877 878
877 879
877 1062
877 1793
877 3755
878 1792
878 3757
879 880
879 913
879 1062
879 1454
879 1484
879 1559
879 1582
879 1794
879 1796
879 3412
879 3715
879 3849
880 881
880 1062
880 3290
880 3294
880 3712
881 3295
881 3713
882 883
882 1062
882 1847
882 3709
882 3777
883 1062
883 1849
883 3774
883 3778
884 890
884 898
884 1062
884 3720
885 889
885 1618
885 3722
886 889
886 1637
886 3728
887 889
887 1622
887 3729
888 889
888 1646
888 3725
889 890
889 892
889 893
889 894
889 895
889 896
889 897
889 1062
889 1628
889 3724
890 891
890 1629
890 3726
891 1062
891 1630
891 1657
891 3403
891 3435
891 3727
892 1620
892 3730
893 1633
893 3731
894 1648
894 3732
895 1616
895 3733
896 1615
896 3721
897 1641
897 3734
898 1629
898 2786
898 3720
899 900
899 901
899 3737
900 901
900 1719
901 3738
902 903
902 904
903 905
903 2694
903 3514
904 905
905 2666
905 3514
906 907
906 989
906 3076
907 3076
907 3539
908 991
908 3148
908 3503
909 910
909 911
909 3650
910 911
910 3651
911 3652
912 1035
912 2367
913 914
913 916
914 915
914 916
914 1794
916 3715
917 1040
917 1927
918 1059
918 2367
919 920
919 921
919 923
919 924
919 2694
920 922
921 922
921 923
921 925
921 2666
923 3531
924 925
926 928
926 1512
926 3439
927 929
927 1062
927 1510
927 1544
927 3399
927 3417
927 3440
927 3479
928 1062
928 1513
928 3441
929 930
929 932
930 931
930 932
930 1510
930 1511
932 3440
933 934
933 935
934 1853
935 936
935 1851
935 1853
935 2694
935 3549
936 1854
937 938
937 3472
938 3473
939 940
939 3783
940 3784
941 942
941 950
942 951
943 944
943 954
944 3855
945 946
945 947
945 1784
945 2694
946 947
946 1785
946 2666
947 3531
948 949
948 2719
949 2721
950 951
950 952
950 2694
951 952
951 2666
952 3531
953 954
953 3854
954 2694
954 3621
954 3855
955 956
955 957
955 1279
956 957
956 2973
957 3578
958 1074
958 2367
959 960
959 2703
960 2713
961 1026
961 1927
962 1029
962 1927
963 1030
963 1927
964 965
964 2703
965 2713
966 967
966 2703
967 2713
968 969
968 1078
969 2683
970 971
970 1078
971 2683
972 973
972 1078
973 2683
974 1033
974 1927
975 1036
975 1927
976 1037
976 1927
977 1038
977 1927
978 1039
978 1927
979 1043
979 1927
980 1050
980 1927
981 1054
981 1927
982 1055
982 2367
983 1056
983 2367
984 1171
984 2367
985 1113
985 1927
986 987
986 1306
987 1308
988 989
988 3035
988 3536
989 990
989 995
989 998
989 1000
989 1003
989 1006
989 1008
989 1009
989 1010
989 1011
989 1012
989 1013
989 1014
989 1017
989 1018
989 1019
989 1020
989 1062
989 1394
989 1474
989 1533
989 1563
989 3044
989 3067
989 3081
989 3092
989 3122
989 3174
989 3178
989 3199
989 3539
989 3641
989 3650
989 3673
989 3679
989 3696
990 1022
990 1062
990 1374
990 1555
990 1574
990 1684
990 3123
990 3196
990 3347
990 3377
990 3388
990 3391
990 3428
990 3538
991 998
991 3503
992 998
992 3119
992 3505
993 998
993 3117
993 3506
994 998
994 3152
994 3508
995 3062
995 3509
996 998
996 3120
996 3511
997 998
997 3147
997 3535
998 999
998 1001
998 1002
998 1005
998 1007
998 1016
998 1062
998 3148
998 3537
999 3149
999 3542
1000 3164
1000 3526
1001 3118
1001 3530
1002 3150
1002 3533
1003 3105
1003 3543
1004 1006
1004 3374
1004 3490
1005 3146
1005 3540
1006 1015
1006 1062
1006 3375
1006 3500
1007 3116
1007 3529
1008 3113
1008 3532
1009 3140
1009 3534
1010 3089
1010 3525
1011 3132
1011 3528
1012 3137
1012 3556
1013 3195
1013 3513
1014 3214
1014 3507
1015 3376
1015 3561
1016 3151
1016 3504
1017 3160
1017 3541
1018 1600
1018 3502
1019 3053
1019 3527
1020 3157
1020 3544
1021 1189
1021 1927
1022 1023
1022 1062
1022 1434
1022 1500
1022 2637
1022 2641
1022 3360
1022 3363
1022 3367
1022 3431
1022 3488
1022 3699
1022 3786
1022 3797
1023 2643
1023 3550
1024 1139
1024 1927
1025 1162
1025 1927
1026 1083
1027 1083
1027 1903
1028 1083
1028 1862
1029 1083
1030 1083
1031 1083
1031 1893
1032 1078
1032 2669
1033 1083
1034 1197
1034 2596
1035 1057
1036 1083
1037 1083
1038 1083
1039 1083
1040 1083
1041 1083
1041 1886
1042 1083
1042 1914
1043 1083
1044 1083
1044 1863
1045 1083
1045 1921
1046 1083
1046 1876
1047 1083
1047 1902
1048 1083
1048 1922
1049 1083
1049 1923
1050 1083
1051 1083
1051 1878
1052 1083
1052 1887
1053 1132
1053 3856
1054 1083
1055 1057
1056 1057
1057 1058
1057 1059
1057 1070
1057 1071
1057 1074
1057 1170
1057 1171
1057 1172
1057 1175
1057 1183
1057 2367
1057 3629
1058 1060
1058 1062
1058 1132
1058 1135
1058 1197
1058 1203
1058 2368
1058 3630
1060 1061
1060 1062
1060 1078
1060 1084
1060 2369
1060 3341
1060 3464
1060 3631
1061 1062
1061 1346
1061 1438
1061 1444
1061 2370
1061 2694
1061 3632
1061 3813
1062 1068
1062 1084
1062 1218
1062 1219
1062 1221
1062 1226
1062 1232
1062 1263
1062 1264
1062 1278
1062 1279
1062 1283
1062 1287
1062 1331
1062 1358
1062 1365
1062 1374
1062 1379
1062 1382
1062 1402
1062 1405
1062 1406
1062 1438
1062 1444
1062 1447
1062 1454
1062 1483
1062 1484
1062 1487
1062 1490
1062 1516
1062 1544
1062 1569
1062 1657
1062 1747
1062 1748
1062 1770
1062 1781
1062 1796
1062 1806
1062 2694
1062 2786
1062 3196
1062 3320
1062 3328
1062 3331
1062 3350
1062 3381
1062 3398
1062 3417
1062 3448
1062 3519
1062 3650
1062 3670
1062 3682
1062 3709
1062 3736
1062 3737
1062 3770
1062 3779
1062 3821
1062 3845
1063 1064
1063 1065
1063 1068
1063 1069
1063 1420
1063 2792
1063 3518
1064 1065
1064 1066
1064 1068
1064 1069
1064 1415
1064 1420
1064 1421
1064 1587
1064 2787
1065 1066
1065 1068
1065 1069
1065 1415
1065 1420
1065 1421
1065 1588
1065 2788
1066 1068
1066 1069
1066 1412
1066 1413
1066 1414
1066 1415
1066 1416
1066 1417
1066 1418
1066 1419
1066 1420
1066 1421
1066 1422
1066 1597
1066 2789
1067 1591
1068 1069
1068 1415
1068 1420
1068 1421
1068 1592
1068 2791
1068 3317
1069 1415
1069 1420
1069 1421
1069 1595
1069 2785
1070 2109
1071 2098
1072 1078
1072 2677
1073 1078
1073 2678
1075 1078
1075 2680
1076 1078
1076 2682
1077 1078
1077 2681
1078 1136
1078 1137
1078 1138
1078 1148
1078 1157
1078 1176
1078 1177
1078 1200
1078 1238
1078 1240
1078 1322
1078 1324
1078 2667
1078 2683
1078 3624
1079 1083
1079 1204
1080 1083
1080 1205
1081 1083
1081 1206
1082 1083
1082 1929
1083 1084
1083 1085
1083 1086
1083 1087
1083 1088
1083 1089
1083 1090
1083 1091
1083 1092
1083 1093
1083 1094
1083 1095
1083 1096
1083 1097
1083 1098
1083 1099
1083 1100
1083 1101
1083 1102
1083 1103
1083 1104
1083 1105
1083 1106
1083 1107
1083 1108
1083 1109
1083 1110
1083 1111
1083 1112
1083 1113
1083 1114
1083 1115
1083 1116
1083 1117
1083 1118
1083 1119
1083 1120
1083 1121
1083 1122
1083 1123
1083 1124
1083 1125
1083 1126
1083 1127
1083 1128
1083 1129
1083 1139
1083 1140
1083 1141
1083 1142
1083 1143
1083 1144
1083 1145
1083 1146
1083 1147
1083 1149
1083 1150
1083 1151
1083 1152
1083 1153
1083 1154
1083 1155
1083 1156
1083 1158
1083 1159
1083 1160
1083 1161
1083 1162
1083 1163
1083 1164
1083 1165
1083 1166
1083 1167
1083 1168
1083 1169
1083 1178
1083 1179
1083 1180
1083 1181
1083 1182
1083 1184
1083 1185
1083 1186
1083 1187
1083 1188
1083 1189
1083 1190
1083 1191
1083 1192
1083 1193
1083 1194
1083 1195
1083 1196
1083 1927
1083 3625
1084 1928
1084 3626
1085 1349
1086 1888
1087 1889
1088 1867
1089 1859
1090 1890
1091 1930
1092 1880
1093 1350
1094 1868
1095 1882
1096 1924
1097 1917
1098 1208
1099 1209
1100 1210
1101 1211
1102 1212
1103 1213
1104 1925
1105 1864
1106 1894
1107 1214
1108 1215
1109 1216
1110 1217
1111 1909
1112 1872
1114 1891
1115 1860
1116 1874
1117 1892
1118 1883
1119 1910
1120 1895
1121 1926
1122 1901
1123 1911
1124 1912
1125 1920
1126 1896
1127 1897
1128 1898
1129 1207
1130 1132
1130 3857
1131 1132
1131 3858
1132 3622
1132 3859
1133 1135
1133 1506
1134 1135
1134 1504
1135 1173
1135 1174
1135 1505
1135 3627
1136 2670
1137 2671
1138 2672
1140 1244
1141 1904
1142 1899
1143 1865
1144 1866
1145 1905
1146 1906
1147 1907
1148 2673
1149 1271
1150 1272
1151 1869
1152 1908
1153 1900
1154 1870
1155 1273
1156 1871
1157 2674
1158 1873
1159 1913
1160 1274
1161 1310
1163 1875
1164 1915
1165 1441
1166 1877
1167 1311
1168 1442
1169 1916
1170 1312
1172 2110
1173 1507
1174 1508
1175 1443
1176 2675
1177 2676
1178 1879
1179 1881
1180 1918
1181 1313
1182 1314
1183 1315
1184 1861
1185 1316
1186 1317
1187 1318
1188 1919
1190 1451
1191 1884
1192 1885
1193 1319
1194 1320
1195 1452
1196 1321
1197 1198
1197 1199
1197 2598
1197 3628
1198 2597
1199 2599
1200 2679
1201 1203
1201 1343
1202 1203
1202 1344
1203 1345
1203 3623
1204 1927
1205 1927
1206 1927
1207 1927
1208 1927
1209 1927
1210 1927
1211 1927
1212 1927
1213 1927
1214 1927
1215 1927
1216 1927
1217 1927
1218 1219
1218 1221
1218 1226
1218 1228
1218 1232
1218 1236
1218 1237
1218 3257
1218 3616
1218 3690
1218 3781
1219 3258
1219 3267
1219 3381
1219 3615
1220 1221
1220 3242
1220 3614
1221 1222
1221 1223
1221 1230
1221 1234
1221 3243
1221 3617
1222 3244
1222 3619
1223 3245
1223 3618
1224 1226
1224 3235
1224 3608
1225 1226
1225 3236
1225 3611
1226 1227
1226 1229
1226 1231
1226 3237
1226 3612
1227 3238
1227 3613
1228 3239
1228 3489
1229 3233
1229 3496
1230 3240
1230 3497
1231 3234
1231 3498
1232 1233
1232 1235
1232 3264
1232 3609
1233 3265
1233 3610
1234 3241
1234 3557
1235 3262
1235 3558
1236 3260
1236 3563
1237 3266
1237 3633
1238 1239
1239 2683
1240 1241
1241 2683
1242 1243
1243 1290
1243 2971
1243 3570
1244 1927
1245 1246
1245 1330
1245 3424
1245 3487
1247 1248
1247 3005
1247 3682
1248 3005
1248 3687
1249 1250
1249 2703
1250 2713
1251 1252
1251 3341
1252 3344
1253 1254
1253 1392
1254 1263
1254 1393
1254 3605
1255 1262
1255 1661
1256 1262
1256 1667
1257 1262
1257 1668
1258 1262
1258 1669
1259 1262
1259 1663
1260 1262
1260 1662
1261 1262
1261 1666
1262 1263
1262 1664
1262 3602
1263 1264
1263 1266
1263 1268
1263 1665
1263 3030
1263 3603
1264 3014
1264 3604
1264 3682
1264 3804
1264 3808
1265 1266
1265 1673
1266 1674
1266 3501
1267 1268
1267 1671
1268 1670
1268 1672
1269 1270
1269 2703
1270 2713
1271 1927
1272 1927
1273 1927
1274 1927
1275 1276
1275 3341
1276 3344
1277 1283
1277 3301
1277 3484
1278 1279
1278 1283
1278 1287
1278 1302
1278 1496
1278 1527
1278 1727
1278 2723
1278 2734
1278 2972
1278 3579
1279 1331
1279 1352
1279 1483
1279 2973
1279 3578
1280 1283
1280 3309
1280 3577
1281 1283
1281 3289
1281 3580
1282 1283
1282 3581
1282 3746
1283 1294
1283 1295
1283 1298
1283 1299
1283 1300
1283 1301
1283 3303
1283 3582
1284 1287
1284 3574
1284 3815
1285 1287
1285 2992
1285 3583
1286 1287
1286 2970
1286 3575
1287 1288
1287 1289
1287 1290
1287 1291
1287 1292
1287 1293
1287 1296
1287 1297
1287 2971
1287 3576
1288 3568
1288 3741
1289 1304
1289 3569
1290 3570
1291 2784
1291 3571
1292 3572
1292 3742
1293 3573
1293 3823
1294 3316
1294 3584
1295 3299
1295 3485
1296 3452
1296 3486
1297 1509
1297 3499
1298 1335
1298 3564
1299 3567
1299 3719
1300 3310
1300 3606
1301 3311
1301 3607
1302 1303
1302 3494
1303 2972
1303 3494
1304 2971
1304 3569
1305 1306
1305 1307
1306 1308
1306 1309
1306 1444
1306 3694
1307 1308
1308 1309
1308 2049
1308 3695
1309 3517
1310 1927
1311 1927
1312 2367
1313 1927
1314 1927
1315 2367
1316 1927
1317 1927
1318 1927
1319 1927
1320 1927
1321 1927
1322 1323
1323 2683
1324 1325
1325 2683
1326 1327
1326 2703
1327 2713
1328 1329
1328 2703
1329 2713
1330 1331
1330 3487
1331 1332
1331 3424
1331 3559
1331 3747
1332 3425
1332 3554
1333 1335
1334 1335
1335 1336
1335 3303
1335 3564
1337 1338
1337 3341
1338 3344
1339 1340
1339 3341
1340 3344
1341 1342
1341 3355
1342 3356
1343 1345
1344 1345
1345 2368
1345 3623
1346 1347
1346 1348
1346 3663
1347 1348
1347 2370
1347 3664
1348 3632
1349 1927
1350 1927
1351 1352
1351 1353
1351 3578
1352 1353
1353 2973
1354 1355
1354 1357
1354 3448
1355 1356
1355 1357
1355 2636
1357 3451
1358 1365
1358 1551
1358 1855
1358 2625
1358 3320
1358 3448
1358 3586
1358 3670
1359 1365
1359 1366
1359 2619
1360 1365
1360 2613
1360 3589
1361 1365
1361 2616
1361 3588
1362 1365
1362 1367
1362 2610
1363 1365
1363 2624
1363 3585
1364 1365
1364 2629
1364 3587
1365 1368
1365 2615
1365 3590
1366 2619
1366 3590
1367 2610
1367 3590
1368 1369
1368 1370
1369 1370
1369 3590
1370 2611
1370 2615
1371 1372
1371 1373
1371 1374
1372 1373
1372 1375
1372 1376
1373 1377
1374 1376
1374 1377
1376 1377
1376 2786
1376 3123
1377 3538
1378 1379
1378 3521
1378 3835
1379 1380
1379 1381
1379 1382
1379 1383
1379 1387
1379 3522
1379 3836
1380 3468
1380 3495
1381 3552
1381 3831
1382 1467
1382 1490
1382 1523
1382 1547
1382 1777
1382 1806
1382 3221
1382 3232
1382 3336
1382 3398
1382 3524
1382 3636
1382 3827
1382 3838
1382 3845
1383 1384
1383 1385
1384 1385
1384 3522
1385 1386
1385 3836
1387 1388
1387 1390
1388 1390
1388 3522
1389 1390
1390 1391
1390 3836
1392 1393
1393 1665
1393 3605
1394 1396
1394 3492
1395 1396
1396 3122
1396 3492
1397 1405
1397 1839
1397 3591
1398 1405
1398 1817
1398 3592
1399 1405
1399 1833
1399 3599
1400 1405
1400 1824
1400 3600
1401 1405
1401 1812
1401 3593
1402 1403
1402 1835
1402 3595
1403 1404
1403 1836
1403 3596
1404 1405
1404 1837
1404 3597
1405 1406
1405 1407
1405 1408
1405 1409
1405 1410
1405 1411
1405 1813
1405 1830
1405 3594
1405 3758
1406 1487
1406 1831
1406 3598
1407 1826
1407 3547
1408 1840
1408 3553
1409 3565
1409 3707
1410 1841
1410 3601
1411 1844
1411 3620
1415 1420
1415 1421
1415 1586
1415 3279
1420 1421
1420 1593
1420 3270
1421 1594
1421 3282
1423 1424
1423 1427
1423 3328
1424 1425
1424 1426
1424 1427
1424 3220
1427 3334
1428 1429
1428 3779
1428 3853
1429 3780
1429 3853
1430 1431
1430 1433
1430 1516
1431 1432
1431 1433
1431 1517
1433 1518
1434 1436
1434 1437
1435 1436
1436 1437
1436 2641
1437 3488
1438 1439
1438 1440
1439 1440
1439 2370
1439 2786
1440 3632
1441 1927
1442 1927
1443 2367
1444 1471
1444 2049
1444 2729
1444 3355
1444 3517
1444 3660
1445 1447
1445 1448
1445 3548
1446 1447
1446 2047
1446 3515
1447 2048
1447 3516
1448 2048
1448 3548
1449 1450
1449 3355
1450 3356
1451 1927
1452 1927
1453 1454
1453 1457
1453 3711
1454 1458
1454 3714
1455 1457
1456 1457
1457 1458
1457 3711
1458 1794
1458 2786
1458 3714
1459 1460
1459 1461
1459 1463
1459 1464
1459 2694
1460 1462
1461 1462
1461 1463
1461 1465
1461 2666
1463 3531
1464 1465
1466 1467
1466 1468
1466 3524
1467 1468
1468 1469
1468 1470
1468 3232
1471 1472
1471 1473
1472 1473
1472 2049
1473 3517
1474 1475
1474 1477
1475 1477
1475 3539
1476 1477
1477 1478
1477 3122
1479 1480
1480 1481
1480 1482
1480 3545
1481 1483
1481 2786
1481 2973
1481 3562
1482 1483
1482 3545
1483 3562
1484 1485
1484 1486
1484 3801
1485 1486
1485 1794
1485 2786
1485 3802
1486 3715
1486 3803
1487 1488
1487 1489
1487 3703
1488 1489
1488 1831
1488 2786
1488 3704
1489 3598
1489 3706
1490 1491
1490 1492
1490 1539
1490 3523
1491 1541
1491 3483
1492 1493
1492 1495
1493 1494
1493 1495
1493 1539
1495 3523
1496 1497
1496 1499
1497 1498
1497 1499
1497 2972
1499 3579
1500 1501
1500 1503
1501 1502
1501 1503
1501 2641
1503 3488
1504 1505
1505 1506
1505 1507
1505 1508
1505 2368
1505 3627
1509 2971
1509 3499
1510 1545
1510 2786
1510 3401
1510 3418
1510 3440
1510 3481
1512 1513
1512 1514
1512 3439
1513 2786
1513 3441
1515 3453
1516 1517
1516 1518
1516 1519
1516 3328
1516 3454
1517 1518
1517 1520
1517 2786
1517 3220
1517 3453
1518 1522
1518 3334
1518 3455
1519 1520
1519 1522
1520 1521
1520 1522
1523 1525
1523 1526
1524 1525
1525 1526
1525 3232
1526 3524
1527 1529
1527 1532
1528 1529
1529 1530
1529 1531
1529 1532
1529 2972
1532 3579
1533 1534
1533 1538
1534 1535
1534 1536
1534 1537
1534 1538
1534 3122
1538 3539
1539 1541
1539 2786
1539 3232
1539 3523
1540 1541
1541 3483
1542 1543
1542 3813
1543 3814
1544 1545
1544 1546
1545 1546
1545 2786
1546 3440
1547 1548
1547 1550
1548 1549
1548 1550
1548 3232
1550 3524
1551 1552
1551 1554
1552 1553
1552 1554
1552 2625
1554 3586
1555 1556
1555 1558
1556 1557
1556 1558
1556 3123
1558 3538
1559 1560
1559 1562
1560 1561
1560 1562
1560 1794
1562 3715
1563 1565
1563 1567
1564 1565
1565 1566
1565 1567
1565 3122
1567 3539
1568 1569
1568 1570
1568 1572
1569 1571
1569 1573
1570 1571
1570 1572
1571 1573
1571 2786
1572 1573
1574 1576
1574 1577
1575 1576
1576 1577
1576 3123
1577 3538
1578 1579
1578 1581
1578 3737
1579 1580
1579 1581
1579 1719
1581 3738
1582 1583
1582 1585
1583 1584
1583 1585
1583 1794
1585 3715
1586 1587
1586 1588
1586 1591
1586 1592
1586 1593
1586 1594
1586 1595
1586 1597
1586 3279
1587 1588
1587 1591
1587 1592
1587 1593
1587 1594
1587 1595
1587 1597
1587 2787
1587 3518
1588 1591
1588 1592
1588 1593
1588 1594
1588 1595
1588 1597
1588 2788
1588 3518
1588 3520
1589 1591
1589 1598
1590 1591
1590 1598
1591 1592
1591 1593
1591 1594
1591 1595
1591 1596
1591 1597
1591 2790
1591 3518
1591 3520
1592 1593
1592 1594
1592 1595
1592 1597
1592 2791
1592 3518
1593 1594
1593 1595
1593 1597
1593 3270
1593 3518
1594 1595
1594 1597
1594 3282
1595 1597
1595 2785
1595 3518
1595 3520
1596 1598
1597 2789
1599 1600
1600 1601
1600 1602
1600 1603
1600 1604
1600 3122
1600 3502
1605 15182
1606 15204
1607 14011
1608 15204
1609 14011
1610 14720
1611 15290
1612 15182
1613 1614
1614 14241
1614 15182
1615 1628
1615 3721
1616 1628
1616 3733
1617 1618
1618 1628
1618 1634
1618 1635
1618 3722
1619 1637
1620 1628
1620 3730
1621 1622
1622 1623
1622 1624
1622 1625
1622 1626
1622 1627
1622 1628
1622 1631
1622 1632
1622 3729
1628 1629
1628 1633
1628 1637
1628 1641
1628 1646
1628 1648
1628 2786
1628 3724
1629 1630
1629 3726
1630 1656
1630 2786
1630 3405
1630 3436
1630 3727
1633 3731
1636 1637
1637 1638
1637 1639
1637 1640
1637 3728
1641 3734
1642 1646
1643 1646
1644 1646
1645 1646
1646 1647
1646 3725
1648 1649
1648 3732
1650 1651
1650 1652
1650 1657
1651 1652
1651 1653
1651 1656
1652 1660
1654 1655
1654 1656
1654 1658
1654 1659
1656 1657
1656 1660
1656 2786
1656 3408
1657 1658
1657 1660
1657 3407
1658 1659
1659 1660
1660 3409
1660 3727
1661 1664
1662 1664
1663 1664
1664 1665
1664 1666
1664 1667
1664 1668
1664 1669
1664 3602
1665 1672
1665 1674
1665 2786
1665 3014
1665 3031
1665 3603
1670 1672
1670 3603
1671 1672
1673 1674
1674 3501
1675 1676
1675 1677
1675 1678
1675 1679
1675 1680
1675 1681
1675 1682
1675 1683
1675 1684
1675 1685
1675 3123
1684 1685
1685 3538
1686 1717
1687 1717
1688 1717
1689 1717
1690 1717
1691 1717
1692 1717
1693 1717
1694 1717
1695 1717
1696 1717
1697 1717
1698 1717
1699 1717
1700 1717
1701 1717
1702 1717
1703 1717
1704 1717
1705 1717
1706 1717
1707 1717
1708 1717
1709 1717
1710 1717
1711 1717
1712 1717
1713 1717
1714 1717
1715 1717
1716 1717
1717 1718
1717 1720
1717 1721
1717 1722
1717 1723
1717 1724
1717 1725
1717 1726
1717 3735
1717 3739
1718 1719
1718 2786
1718 3736
1718 3740
1719 2786
1719 3351
1719 3737
1719 3738
1727 1731
1727 3546
1728 1731
1729 1731
1730 1731
1731 1732
1731 1733
1731 1734
1731 2972
1731 3546
1735 1738
1736 1738
1737 1738
1738 1739
1738 3769
1738 3772
1739 1761
1739 2786
1739 3457
1739 3762
1739 3770
1739 3773
1740 1741
1740 1742
1740 1747
1741 1742
1741 1761
1742 3771
1743 1744
1743 1746
1743 1747
1744 1745
1744 1746
1744 1761
1746 3771
1747 1748
1747 1751
1747 1761
1747 1770
1747 1781
1747 3765
1747 3770
1747 3771
1748 1749
1748 1750
1748 1755
1748 1758
1748 3667
1748 3751
1749 3634
1749 3635
1750 1756
1750 1757
1751 1752
1751 1753
1752 1753
1752 1761
1753 3771
1754 1756
1755 1756
1755 1758
1755 1761
1755 2786
1755 3634
1755 3668
1755 3752
1756 1757
1757 1758
1758 3635
1758 3669
1758 3753
1758 3771
1759 1760
1759 1765
1759 1770
1760 1765
1760 1771
1761 1767
1761 1782
1761 2786
1761 3767
1761 3771
1762 1763
1762 1767
1762 3665
1762 3666
1764 1765
1765 1766
1765 1767
1767 1769
1767 1770
1767 1771
1767 2786
1768 1769
1769 1772
1769 1773
1770 1771
1770 1772
1770 3665
1771 1773
1771 3666
1771 3771
1772 1773
1774 1775
1774 1776
1774 3417
1775 1776
1775 3418
1776 3419
1777 1778
1777 1780
1778 1779
1778 1780
1778 3232
1780 3524
1781 1782
1781 1783
1781 3444
1782 1783
1782 2786
1782 3446
1783 3447
1783 3771
1784 1785
1786 1787
1786 1793
1786 3756
1788 1789
1789 1793
1789 3754
1790 1792
1791 1792
1792 1793
1792 3757
1793 1794
1793 2786
1793 3755
1794 2786
1794 3294
1794 3414
1794 3422
1794 3715
1794 3850
1795 1796
1795 1797
1795 3421
1796 1798
1796 3422
1797 1798
1797 3421
1798 3422
1798 3715
1799 1801
1799 1802
1799 1806
1800 1801
1801 1802
1801 1809
1802 1804
1803 1804
1803 1805
1803 1808
1804 1806
1804 1809
1804 3524
1805 1806
1805 1808
1806 1809
1807 1808
1808 1809
1809 2786
1809 3232
1810 1812
1811 1812
1812 1830
1812 3593
1813 1814
1813 1816
1814 1815
1814 1816
1814 1830
1816 3594
1817 1818
1817 1819
1817 1830
1817 3592
1820 1824
1821 1824
1822 1824
1823 1824
1824 1830
1824 3600
1825 1826
1826 1827
1826 1829
1826 1830
1826 3547
1828 1841
1830 1831
1830 1833
1830 1837
1830 1839
1830 1840
1830 1841
1830 1844
1830 2786
1830 3594
1830 3707
1830 3759
1831 2786
1831 3598
1832 1833
1833 3599
1834 1837
1835 1836
1835 2786
1835 3595
1836 1837
1836 3596
1837 3597
1838 1839
1839 3591
1840 3553
1841 1842
1841 3601
1843 1844
1844 3620
1845 1846
1846 1848
1846 3442
1846 3443
1847 1848
1847 1849
1847 2786
1847 3777
1848 2786
1848 3709
1848 3710
1849 2786
1849 3775
1849 3778
1850 3775
1851 1852
1852 1853
1853 1854
1853 2666
1853 3549
1855 1856
1855 1858
1856 1857
1856 1858
1856 2625
1858 3586
1859 1927
1860 1927
1861 1927
1862 1927
1863 1927
1864 1927
1865 1927
1866 1927
1867 1927
1868 1927
1869 1927
1870 1927
1871 1927
1872 1927
1873 1927
1874 1927
1875 1927
1876 1927
1877 1927
1878 1927
1879 1927
1880 1927
1881 1927
1882 1927
1883 1927
1884 1927
1885 1927
1886 1927
1887 1927
1888 1927
1889 1927
1890 1927
1891 1927
1892 1927
1893 1927
1894 1927
1895 1927
1896 1927
1897 1927
1898 1927
1899 1927
1900 1927
1901 1927
1902 1927
1903 1927
1904 1927
1905 1927
1906 1927
1907 1927
1908 1927
1909 1927
1910 1927
1911 1927
1912 1927
1913 1927
1914 1927
1915 1927
1916 1927
1917 1927
1918 1927
1919 1927
1920 1927
1921 1927
1922 1927
1923 1927
1924 1927
1925 1927
1926 1927
1927 1928
1927 1929
1927 1930
1927 3625
1928 2369
1928 2786
1928 3626
1931 2367
1932 2367
1933 2367
1934 2367
1935 2367
1936 2367
1937 2367
1938 2367
1939 2367
1940 2367
1941 2367
1942 2367
1943 2367
1944 2367
1945 2367
1946 2367
1947 2367
1948 2367
1949 2047
1950 2047
1951 2047
1952 2047
1953 2047
1954 2047
1955 2047
1956 2047
1957 2047
1958 2047
1959 2047
1960 2047
1961 2047
1962 2047
1963 2047
1964 2047
1965 2047
1966 2047
1967 2047
1968 2047
1969 2047
1970 2047
1971 2047
1972 2047
1973 2047
1974 2047
1975 2047
1976 2047
1977 2047
1978 2047
1979 2047
1980 2047
1981 2047
1982 2047
1983 2047
1984 2047
1985 2047
1986 2047
1987 2047
1988 2047
1989 2047
1990 2047
1991 2047
1992 2047
1993 2047
1994 2047
1995 2047
1996 2047
1997 2047
1998 2047
1999 2047
2000 2047
2001 2047
2002 2047
2003 2047
2004 2047
2005 2047
2006 2047
2007 2047
2008 2047
2009 2047
2010 2047
2011 2047
2012 2047
2013 2047
2014 2047
2015 2047
2016 2047
2017 2047
2018 2047
2019 2047
2020 2047
2021 2047
2022 2047
2023 2047
2024 2047
2025 2047
2026 2047
2027 2047
2028 2047
2029 2047
2030 2047
2031 2047
2032 2047
2033 2047
2034 2047
2035 2047
2036 2047
2037 2047
2038 2047
2039 2047
2040 2047
2041 2047
2042 2047
2043 2047
2044 2047
2045 2047
2046 2047
2047 2048
2047 2050
2047 2051
2047 2052
2047 2053
2047 2054
2047 2055
2047 2056
2047 2057
2047 2058
2047 2059
2047 2060
2047 2061
2047 2062
2047 2063
2047 2064
2047 2065
2047 2066
2047 2067
2047 2068
2047 2069
2047 2070
2047 2071
2047 2072
2047 2073
2047 2074
2047 2075
2047 2076
2047 2077
2047 2078
2047 2079
2047 2080
2047 2081
2047 2082
2047 2083
2047 2573
2047 3515
2048 2786
2048 3516
2049 2370
2049 2732
2049 2786
2049 3356
2049 3517
2049 3661
2084 2367
2085 2367
2086 2367
2087 2367
2088 2367
2089 2367
2090 2367
2091 2367
2092 2367
2093 2367
2094 2367
2095 2367
2096 2367
2097 2367
2098 2367
2099 2367
2100 2367
2101 2367
2102 2367
2103 2367
2104 2367
2105 2367
2106 2367
2107 2367
2108 2367
2109 2367
2110 2367
2111 2367
2112 2367
2113 2367
2114 2367
2115 2367
2116 2367
2117 2367
2118 2367
2119 2367
2120 2367
2121 2367
2122 2367
2123 2367
2124 2367
2125 2367
2126 2367
2127 2367
2128 2367
2129 2367
2130 2367
2131 2367
2132 2367
2133 2367
2134 2367
2135 2367
2136 2367
2137 2367
2138 2367
2139 2367
2140 2367
2141 2367
2142 2367
2143 2367
2144 2367
2145 2367
2146 2367
2147 2367
2148 2367
2149 2367
2150 2367
2151 2367
2152 2367
2153 2367
2154 2367
2155 2367
2156 2367
2157 2367
2158 2367
2159 2367
2160 2367
2161 2367
2162 2367
2163 2367
2164 2367
2165 2367
2166 2367
2167 2367
2168 2367
2169 2367
2170 2367
2171 2367
2172 2367
2173 2367
2174 2367
2175 2367
2176 2367
2177 2367
2178 2367
2179 2367
2180 2367
2181 2367
2182 2367
2183 2367
2184 2367
2185 2367
2186 2367
2187 2367
2188 2367
2189 2367
2190 2367
2191 2367
2192 2367
2193 2367
2194 2367
2195 2367
2196 2367
2197 2367
2198 2367
2199 2367
2200 2367
2201 2367
2202 2367
2203 2367
2204 2367
2205 2367
2206 2367
2207 2367
2208 2367
2209 2367
2210 2367
2211 2367
2212 2367
2213 2367
2214 2367
2215 2367
2216 2367
2217 2367
2218 2367
2219 2367
2220 2367
2221 2367
2222 2367
2223 2367
2224 2367
2225 2367
2226 2367
2227 2367
2228 2367
2229 2367
2230 2367
2231 2367
2232 2367
2233 2367
2234 2367
2235 2367
2236 2367
2237 2367
2238 2367
2239 2367
2240 2367
2241 2367
2242 2367
2243 2367
2244 2367
2245 2367
2246 2367
2247 2367
2248 2367
2249 2367
2250 2367
2251 2367
2252 2367
2253 2367
2254 2367
2255 2367
2256 2367
2257 2367
2258 2367
2259 2367
2260 2367
2261 2367
2262 2367
2263 2367
2264 2367
2265 2367
2266 2367
2267 2367
2268 2367
2269 2367
2270 2367
2271 2367
2272 2367
2273 2367
2274 2367
2275 2367
2276 2367
2277 2367
2278 2367
2279 2367
2280 2367
2281 2367
2282 2367
2283 2367
2284 2367
2285 2367
2286 2367
2287 2367
2288 2367
2289 2367
2290 2367
2291 2367
2292 2367
2293 2367
2294 2367
2295 2367
2296 2367
2297 2367
2298 2367
2299 2367
2300 2367
2301 2367
2302 2367
2303 2367
2304 2367
2305 2367
2306 2367
2307 2367
2308 2367
2309 2367
2310 2367
2311 2367
2312 2367
2313 2367
2314 2367
2315 2367
2316 2367
2317 2367
2318 2367
2319 2367
2320 2367
2321 2367
2322 2367
2323 2367
2324 2367
2325 2367
2326 2367
2327 2367
2328 2367
2329 2367
2330 2367
2331 2367
2332 2367
2333 2367
2334 2367
2335 2367
2336 2367
2337 2367
2338 2367
2339 2367
2340 2367
2341 2367
2342 2367
2343 2367
2344 2367
2345 2367
2346 2367
2347 2367
2348 2367
2349 2367
2350 2367
2351 2367
2352 2367
2353 2367
2354 2367
2355 2367
2356 2367
2357 2367
2358 2367
2359 2367
2360 2367
2361 2367
2362 2367
2363 2367
2364 2367
2365 2367
2366 2367
2367 2368
2367 2371
2367 2372
2367 2373
2367 2374
2367 2375
2367 2376
2367 2377
2367 2378
2367 2379
2367 2380
2367 2381
2367 2382
2367 2383
2367 2384
2367 2385
2367 2386
2367 2387
2367 2388
2367 2389
2367 2390
2367 2391
2367 2392
2367 2393
2367 2394
2367 2395
2367 2396
2367 2397
2367 2398
2367 2399
2367 2400
2367 2401
2367 2402
2367 2403
2367 2404
2367 2405
2367 2406
2367 2407
2367 2408
2367 2409
2367 2410
2367 2411
2367 2412
2367 2413
2367 2414
2367 2415
2367 2416
2367 2417
2367 2418
2367 2419
2367 2420
2367 2421
2367 2422
2367 2423
2367 2424
2367 2425
2367 2426
2367 2427
2367 2428
2367 2429
2367 2430
2367 2431
2367 2432
2367 2433
2367 2434
2367 2435
2367 2436
2367 2437
2367 2438
2367 2439
2367 2440
2367 2441
2367 2442
2367 2443
2367 2444
2367 2445
2367 2446
2367 2447
2367 2448
2367 2449
2367 2450
2367 2451
2367 2452
2367 2453
2367 2454
2367 2455
2367 2456
2367 2457
2367 2458
2367 2459
2367 2460
2367 2461
2367 2462
2367 2463
2367 2464
2367 2465
2367 2466
2367 2467
2367 2468
2367 2469
2367 2470
2367 2471
2367 2472
2367 2473
2367 2474
2367 2475
2367 2476
2367 2477
2367 2478
2367 2479
2367 2480
2367 2481
2367 2482
2367 2483
2367 2484
2367 2485
2367 2486
2367 2487
2367 2488
2367 2489
2367 2490
2367 2491
2367 2492
2367 2493
2367 2494
2367 2495
2367 2496
2367 2497
2367 2498
2367 2499
2367 2500
2367 2501
2367 2502
2367 2503
2367 2504
2367 2505
2367 2506
2367 2507
2367 2508
2367 2509
2367 2510
2367 2511
2367 2512
2367 2513
2367 2514
2367 2515
2367 2516
2367 2517
2367 2518
2367 2519
2367 2520
2367 2521
2367 2522
2367 2523
2367 2524
2367 2525
2367 2526
2367 2527
2367 2528
2367 2529
2367 2530
2367 2531
2367 2532
2367 2533
2367 2534
2367 2535
2367 2536
2367 2537
2367 2538
2367 2539
2367 2540
2367 2541
2367 2542
2367 2543
2367 2544
2367 2545
2367 2546
2367 2547
2367 2548
2367 2549
2367 2550
2367 2551
2367 2552
2367 2553
2367 2554
2367 2555
2367 2556
2367 2559
2367 2560
2367 2561
2367 2562
2367 2563
2367 2565
2367 2566
2367 2567
2367 2571
2367 2572
2367 2574
2367 2575
2367 2576
2367 2577
2367 2578
2367 2579
2367 2580
2367 2581
2367 2583
2367 2584
2367 2585
2367 2586
2367 2587
2367 2588
2367 2589
2367 2590
2367 2591
2367 2592
2367 2593
2367 2594
2367 2595
2367 2600
2367 3629
2368 2369
2368 2598
2368 2786
2368 3630
2368 3859
2369 2370
2369 2683
2369 2786
2369 3344
2369 3466
2369 3631
2370 2666
2370 2786
2370 3632
2370 3814
2557 2970
2558 2970
2564 2970
2568 2970
2569 2970
2570 2970
2582 2970
2596 2598
2597 2598
2598 2599
2598 3628
2601 2602
2601 2604
2601 3448
2602 2603
2602 2604
2602 2636
2604 3451
2605 2606
2605 2608
2605 3448
2606 2607
2606 2608
2606 2636
2608 3451
2609 2610
2610 2615
2612 2613
2613 2614
2613 2615
2613 3589
2615 2616
2615 2619
2615 2624
2615 2625
2615 2629
2615 2786
2615 3590
2616 2617
2616 3588
2618 2624
2619 2620
2619 2621
2622 2624
2623 2624
2624 3585
2625 2636
2625 2786
2625 3321
2625 3586
2625 3671
2626 2629
2627 2629
2628 2629
2629 3587
2630 2635
2631 2635
2632 2635
2633 2635
2634 2635
2635 2636
2635 3449
2635 3450
2636 2786
2636 3448
2636 3451
2637 2639
2637 2640
2638 2639
2639 2640
2639 2641
2640 3488
2641 2643
2641 2786
2641 3123
2641 3361
2641 3364
2641 3368
2641 3432
2641 3488
2641 3700
2641 3788
2641 3799
2642 2643
2643 2644
2643 3550
2645 2654
2645 2656
2646 2654
2646 2657
2647 2654
2647 2658
2648 2654
2648 2659
2649 2654
2649 2660
2650 2654
2650 2661
2651 2654
2651 2662
2652 2654
2652 2663
2653 2654
2653 2664
2654 2665
2654 2694
2654 3512
2655 2666
2655 2704
2655 3491
2656 2665
2657 2665
2658 2665
2659 2665
2660 2665
2661 2665
2662 2665
2663 2665
2664 2665
2665 2666
2665 3512
2666 2694
2666 2713
2666 2715
2666 2721
2666 2786
2666 3473
2666 3531
2666 3784
2666 3855
2667 2668
2668 2683
2669 2683
2670 2683
2671 2683
2672 2683
2673 2683
2674 2683
2675 2683
2676 2683
2677 2683
2678 2683
2679 2683
2680 2683
2681 2683
2682 2683
2683 3624
2684 2685
2684 2703
2685 2713
2686 2687
2686 2703
2687 2713
2688 2689
2688 2703
2689 2713
2690 2691
2690 2703
2691 2713
2692 2693
2692 2703
2693 2713
2694 2703
2694 2704
2694 2714
2694 2719
2694 3472
2694 3531
2694 3783
2695 2703
2695 2705
2696 2703
2696 2706
2697 2703
2697 2707
2698 2703
2698 2708
2699 2703
2699 2709
2700 2703
2700 2710
2701 2703
2701 2711
2702 2703
2702 2712
2703 2713
2703 3551
2704 3491
2705 2713
2706 2713
2707 2713
2708 2713
2709 2713
2710 2713
2711 2713
2712 2713
2713 3551
2714 2715
2714 3566
2715 3566
2716 2717
2716 2719
2717 2721
2718 2719
2718 2720
2719 2721
2719 2722
2720 2721
2721 2722
2722 3531
2723 2724
2723 2726
2724 2725
2724 2726
2724 2972
2726 3579
2727 2729
2727 2730
2728 2729
2728 2731
2729 2732
2729 2733
2730 2732
2731 2732
2732 2733
2733 3517
2734 2735
2734 2736
2735 2736
2735 2972
2736 3579
2737 2970
2738 2970
2739 2970
2740 2970
2741 2970
2742 2970
2743 2970
2744 2970
2745 2970
2746 2970
2747 2970
2748 2970
2749 2970
2750 2970
2751 2970
2752 2970
2753 2970
2754 2970
2755 2970
2756 2970
2757 2970
2758 2970
2759 2970
2760 2970
2761 2970
2762 2970
2763 2970
2764 2970
2765 2970
2766 2970
2767 2970
2768 2970
2769 2970
2770 2970
2771 2970
2772 2970
2773 2970
2774 2970
2775 2970
2776 2970
2777 2970
2778 2970
2779 2970
2780 2970
2781 2970
2782 2970
2783 2970
2784 2971
2784 3571
2785 2787
2785 2788
2785 2789
2785 2790
2785 2791
2785 2792
2785 3270
2785 3279
2785 3282
2786 2791
2786 2971
2786 2972
2786 2973
2786 3013
2786 3014
2786 3122
2786 3123
2786 3148
2786 3197
2786 3220
2786 3228
2786 3232
2786 3237
2786 3243
2786 3257
2786 3258
2786 3264
2786 3294
2786 3303
2786 3321
2786 3327
2786 3351
2786 3375
2786 3383
2786 3418
2786 3422
2786 3424
2786 3519
2786 3651
2786 3671
2786 3826
2786 3836
2786 3847
2786 3851
2787 2788
2787 2789
2787 2790
2787 2791
2787 2792
2787 3270
2787 3279
2787 3282
2788 2789
2788 2790
2788 2791
2788 2792
2788 3270
2788 3279
2788 3282
2789 2790
2789 2791
2789 2792
2789 3270
2789 3275
2789 3276
2789 3277
2789 3278
2789 3279
2789 3280
2789 3281
2789 3282
2789 3283
2789 3284
2790 2791
2790 2792
2790 3270
2790 3271
2790 3272
2790 3273
2790 3274
2790 3279
2790 3282
2791 2792
2791 3270
2791 3279
2791 3282
2791 3318
2792 3270
2792 3518
2792 7253
2792 11011
2793 2970
2794 2970
2795 2970
2796 2970
2797 2970
2798 2970
2799 2970
2800 2970
2801 2970
2802 2970
2803 2970
2804 2970
2805 2970
2806 2970
2807 2970
2808 2970
2809 2970
2810 2970
2811 2970
2812 2970
2813 2970
2814 2970
2815 2970
2816 2970
2817 2970
2818 2970
2819 2970
2820 2970
2821 2970
2822 2970
2823 2970
2824 2970
2825 2970
2826 2970
2827 2970
2828 2970
2829 2970
2830 2970
2831 2970
2832 2970
2833 2970
2834 2970
2835 2970
2836 2970
2837 2970
2838 2970
2839 2970
2840 2970
2841 2970
2842 2970
2843 2970
2844 2970
2845 2970
2846 2970
2847 2970
2848 2970
2849 2970
2850 2970
2851 2970
2852 2970
2853 2970
2854 2970
2855 2970
2856 2970
2857 2970
2858 2970
2859 2970
2860 2970
2861 2970
2862 2970
2863 2970
2864 2970
2865 2970
2866 2970
2867 2970
2868 2970
2869 2970
2870 2970
2871 2970
2872 2970
2873 2970
2874 2970
2875 2970
2876 2970
2877 2970
2878 2970
2879 2970
2880 2970
2881 2970
2882 2970
2883 2970
2884 2970
2885 2970
2886 2970
2887 2970
2888 2970
2889 2970
2890 2970
2891 2970
2892 2970
2893 2970
2894 2970
2895 2970
2896 2970
2897 2970
2898 2970
2899 2970
2900 2970
2901 2970
2902 2970
2903 2970
2904 2970
2905 2970
2906 2970
2907 2970
2908 2970
2909 2970
2910 2970
2911 2970
2912 2970
2913 2970
2914 2970
2915 2970
2916 2970
2917 2970
2918 2970
2919 2970
2920 2970
2921 2970
2922 2970
2923 2970
2924 2970
2925 2970
2926 2970
2927 2970
2928 2970
2929 2970
2930 2970
2931 2970
2932 2970
2933 2970
2934 2970
2935 2970
2936 2970
2937 2970
2938 2970
2939 2970
2940 2970
2941 2970
2942 2970
2943 2970
2944 2970
2945 2970
2946 2970
2947 2970
2948 2970
2949 2970
2950 2970
2951 2970
2952 2970
2953 2970
2954 2970
2955 2970
2956 2970
2957 2970
2958 2970
2959 2970
2960 2970
2961 2970
2962 2970
2963 2970
2964 2970
2965 2970
2966 2970
2967 2970
2968 2970
2969 2970
2970 2971
2970 2974
2970 2975
2970 2976
2970 2977
2970 2978
2970 2979
2970 2980
2970 2981
2970 2982
2970 2983
2970 2984
2970 2985
2970 2986
2970 2987
2970 2988
2970 2989
2970 2993
2970 2994
2970 2995
2970 2996
2970 2997
2970 2998
2970 2999
2970 3575
2971 2972
2971 2992
2971 3452
2971 3576
2971 3741
2971 3742
2971 3815
2971 3823
2972 2973
2972 3303
2972 3579
2973 3424
2973 3578
2990 2992
2991 2992
2992 3583
2992 3816
3000 3005
3001 3005
3002 3005
3003 3005
3004 3005
3005 3007
3005 3008
3005 3009
3005 3010
3005 3011
3005 3012
3005 3013
3006 3022
3013 3014
3013 3022
3013 3026
3013 3682
3013 3685
3013 3687
3014 3604
3014 3805
3014 3809
3015 3022
3016 3022
3017 3022
3018 3022
3019 3022
3020 3022
3021 3022
3022 3023
3022 3470
3022 3471
3024 3026
3025 3026
3026 3027
3026 3028
3026 3029
3026 3683
3026 3688
3030 3031
3030 3032
3031 3032
3032 3603
3033 3035
3034 3035
3035 3036
3035 3037
3035 3038
3035 3039
3035 3040
3035 3041
3035 3042
3035 3043
3035 3122
3035 3536
3044 3045
3044 3049
3045 3046
3045 3047
3045 3048
3045 3049
3045 3122
3049 3539
3050 3053
3051 3053
3052 3053
3053 3054
3053 3055
3053 3056
3053 3057
3053 3122
3053 3527
3058 3062
3059 3062
3060 3062
3061 3062
3062 3063
3062 3064
3062 3065
3062 3066
3062 3122
3062 3509
3067 3068
3067 3555
3068 3069
3068 3070
3068 3071
3068 3122
3068 3555
3072 3076
3073 3076
3074 3076
3075 3076
3076 3077
3076 3078
3076 3079
3076 3080
3076 3122
3081 3082
3081 3084
3082 3083
3082 3084
3082 3122
3084 3539
3085 3089
3086 3089
3087 3089
3088 3089
3089 3090
3089 3091
3089 3122
3089 3525
3092 3093
3092 3095
3093 3094
3093 3095
3093 3122
3095 3539
3096 3105
3097 3105
3098 3105
3099 3105
3100 3105
3101 3105
3102 3105
3103 3105
3104 3105
3105 3106
3105 3107
3105 3108
3105 3122
3105 3543
3109 3113
3110 3113
3111 3113
3112 3113
3113 3114
3113 3115
3113 3122
3113 3532
3116 3148
3116 3529
3117 3148
3117 3506
3118 3148
3118 3530
3119 3148
3119 3505
3120 3148
3120 3511
3121 3132
3122 3123
3122 3132
3122 3137
3122 3140
3122 3148
3122 3157
3122 3160
3122 3164
3122 3175
3122 3185
3122 3195
3122 3206
3122 3214
3122 3375
3122 3539
3122 3644
3122 3651
3122 3675
3122 3680
3122 3697
3123 3197
3123 3348
3123 3378
3123 3389
3123 3392
3123 3429
3123 3538
3124 3157
3125 3132
3126 3132
3127 3132
3128 3132
3129 3132
3130 3132
3131 3132
3132 3528
3133 3137
3134 3137
3135 3137
3136 3137
3137 3138
3137 3556
3139 3140
3140 3141
3140 3142
3140 3143
3140 3144
3140 3145
3140 3534
3146 3148
3146 3540
3147 3148
3147 3535
3148 3149
3148 3150
3148 3151
3148 3152
3148 3537
3149 3542
3150 3533
3151 3504
3152 3508
3153 3157
3154 3157
3155 3157
3156 3157
3157 3544
3158 3160
3159 3160
3160 3541
3161 3164
3162 3164
3163 3164
3164 3165
3164 3166
3164 3167
3164 3168
3164 3169
3164 3526
3170 3171
3170 3172
3170 3650
3171 3172
3171 3651
3172 3652
3173 3175
3174 3175
3174 3177
3175 3176
3175 3177
3177 3539
3178 3185
3178 3510
3179 3185
3180 3185
3181 3185
3182 3185
3183 3185
3184 3185
3185 3186
3185 3510
3187 3195
3188 3195
3189 3195
3190 3195
3191 3195
3192 3195
3193 3195
3194 3195
3195 3513
3196 3197
3196 3198
3197 3198
3198 3538
3199 3206
3199 3207
3200 3206
3201 3206
3202 3206
3203 3206
3204 3206
3205 3206
3206 3207
3207 3539
3208 3214
3209 3214
3210 3214
3211 3214
3212 3214
3213 3214
3214 3507
3215 3218
3216 3218
3217 3218
3218 3219
3218 3220
3218 3477
3218 3478
3220 3328
3220 3334
3220 3371
3220 3795
3220 3851
3221 3223
3221 3224
3222 3223
3223 3224
3223 3232
3224 3524
3225 3227
3226 3227
3227 3228
3227 3817
3227 3820
3228 3229
3228 3818
3228 3821
3229 3230
3229 3819
3229 3822
3231 3828
3232 3337
3232 3524
3232 3637
3232 3826
3232 3828
3232 3836
3232 3839
3232 3847
3233 3237
3233 3496
3234 3237
3234 3498
3235 3237
3235 3608
3236 3237
3236 3611
3237 3238
3237 3257
3237 3612
3238 3613
3239 3257
3239 3489
3240 3243
3240 3497
3241 3243
3241 3557
3242 3243
3242 3614
3243 3244
3243 3245
3243 3257
3243 3617
3244 3619
3245 3618
3246 3247
3246 3248
3246 3257
3246 3781
3246 3782
3249 3260
3250 3260
3251 3260
3252 3260
3253 3260
3254 3260
3255 3260
3256 3260
3257 3258
3257 3260
3257 3264
3257 3266
3257 3616
3257 3692
3258 3268
3258 3383
3258 3615
3259 3260
3260 3261
3260 3563
3262 3264
3262 3558
3263 3266
3264 3265
3264 3609
3265 3610
3266 3633
3267 3268
3267 3269
3268 3269
3269 3615
3270 3279
3270 3282
3279 3282
3282 11011
3285 3289
3286 3289
3287 3289
3288 3289
3289 3303
3289 3580
3290 3291
3290 3293
3291 3292
3291 3293
3291 3294
3293 3712
3294 3295
3294 3712
3295 3296
3295 3297
3295 3713
3298 3299
3299 3300
3299 3303
3299 3485
3301 3303
3301 3484
3302 3309
3303 3309
3303 3310
3303 3311
3303 3316
3303 3582
3303 3719
3303 3746
3304 3309
3305 3309
3306 3309
3307 3309
3308 3309
3309 3577
3310 3606
3311 3607
3312 3316
3313 3316
3314 3316
3315 3316
3316 3584
3317 3318
3317 3319
3318 3319
3320 3321
3320 3322
3320 3790
3321 3322
3321 3791
3322 3586
3322 3792
3323 3324
3323 3327
3323 3329
3323 3335
3325 3326
3326 3327
3326 3330
3326 3332
3327 3331
3327 3333
3328 3334
3328 3370
3328 3477
3328 3779
3328 3793
3329 3331
3329 3335
3330 3331
3330 3332
3331 3333
3332 3333
3333 3335
3334 3373
3334 3478
3334 3780
3334 3796
3336 3337
3336 3339
3337 3338
3337 3339
3339 3524
3340 3341
3340 3343
3341 3342
3341 3344
3341 3346
3342 3345
3343 3344
3344 3345
3344 3346
3346 3631
3347 3348
3347 3349
3348 3349
3349 3538
3350 3351
3350 3352
3350 3737
3351 3352
3352 3738
3353 3354
3353 3355
3354 3356
3355 3356
3355 3357
3355 3358
3356 3357
3356 3359
3357 3517
3358 3359
3360 3361
3360 3362
3361 3362
3362 3488
3363 3364
3363 3366
3364 3365
3364 3366
3366 3488
3367 3368
3367 3369
3368 3369
3369 3488
3370 3371
3370 3373
3371 3372
3371 3373
3374 3375
3374 3490
3375 3376
3375 3500
3376 3561
3377 3378
3377 3380
3378 3379
3378 3380
3380 3538
3381 3382
3381 3383
3381 3386
3382 3384
3382 3387
3383 3384
3383 3386
3384 3387
3385 3519
3386 3387
3386 3615
3388 3389
3388 3390
3389 3390
3390 3538
3391 3392
3391 3394
3392 3393
3392 3394
3394 3538
3395 3396
3395 3472
3396 3473
3397 3398
3397 3475
3397 3824
3398 3476
3398 3826
3399 3401
3399 3402
3400 3401
3401 3402
3402 3440
3403 3405
3403 3406
3404 3405
3405 3406
3406 3727
3407 3408
3407 3409
3408 3409
3410 3411
3410 3660
3411 3661
3412 3414
3412 3416
3413 3414
3414 3415
3414 3416
3416 3715
3417 3418
3417 3419
3418 3419
3419 3440
3420 3421
3421 3422
3423 3425
3424 3425
3424 3559
3424 3748
3425 3426
3425 3427
3425 3554
3428 3429
3428 3430
3429 3430
3430 3538
3431 3432
3431 3434
3432 3433
3432 3434
3434 3488
3435 3436
3435 3438
3436 3437
3436 3438
3438 3727
3439 3441
3440 3482
3442 3443
3442 3709
3443 3710
3444 3446
3444 3447
3445 3446
3446 3447
3448 3449
3448 3451
3449 3450
3450 3451
3451 3586
3452 3486
3453 3454
3453 3455
3454 3455
3456 3457
3456 3459
3456 3770
3457 3458
3457 3459
3459 3773
3460 3461
3460 3462
3460 3670
3461 3462
3461 3671
3462 3672
3463 3464
3463 3465
3464 3466
3464 3493
3465 3466
3466 3493
3467 3468
3468 3469
3468 3495
3468 3836
3470 3471
3470 3682
3471 3687
3472 3473
3472 3474
3473 3474
3474 3531
3475 3476
3475 3824
3476 3524
3476 3826
3477 3478
3479 3481
3479 3482
3480 3481
3481 3482
3483 3523
3484 3582
3485 3582
3486 3576
3487 3559
3488 3538
3488 3550
3488 3702
3488 3787
3488 3800
3489 3616
3490 3500
3491 3531
3492 3539
3493 3631
3494 3579
3495 3522
3496 3612
3497 3617
3498 3612
3499 3576
3500 3539
3500 3561
3501 3603
3502 3539
3503 3537
3504 3537
3505 3537
3506 3537
3507 3539
3508 3537
3509 3539
3510 3539
3511 3537
3512 3531
3513 3539
3514 3531
3515 3516
3516 3548
3517 3632
3517 3662
3519 3723
3521 3522
3521 3835
3522 3524
3522 3552
3522 3836
3523 3524
3524 3640
3524 3830
3524 3837
3524 3844
3525 3539
3526 3539
3527 3539
3528 3539
3529 3537
3530 3537
3531 3549
3531 3551
3531 3566
3531 3621
3531 3632
3531 3785
3532 3539
3533 3537
3534 3539
3535 3537
3536 3539
3537 3539
3537 3540
3537 3542
3538 3539
3539 3541
3539 3543
3539 3544
3539 3555
3539 3556
3539 3649
3539 3652
3539 3678
3539 3681
3539 3698
3545 3562
3546 3579
3547 3594
3552 3831
3553 3594
3554 3559
3557 3617
3558 3609
3559 3560
3559 3578
3559 3750
3562 3578
3563 3616
3564 3582
3565 3594
3565 3707
3567 3582
3567 3719
3568 3576
3568 3741
3569 3576
3570 3576
3571 3576
3572 3576
3572 3742
3573 3576
3573 3823
3574 3576
3574 3815
3575 3576
3576 3579
3576 3583
3577 3582
3578 3579
3579 3582
3580 3582
3581 3582
3581 3746
3582 3584
3582 3606
3582 3607
3585 3590
3586 3590
3586 3672
3587 3590
3588 3590
3589 3590
3591 3594
3592 3594
3593 3594
3594 3597
3594 3598
3594 3599
3594 3600
3594 3601
3594 3620
3594 3760
3595 3596
3596 3597
3602 3603
3603 3604
3603 3605
3604 3687
3604 3807
3604 3811
3608 3612
3609 3610
3609 3616
3611 3612
3612 3613
3612 3616
3614 3617
3615 3616
3616 3617
3616 3633
3616 3693
3616 3782
3617 3618
3617 3619
3621 3855
3622 3630
3622 3859
3623 3630
3624 3631
3625 3626
3626 3631
3627 3630
3628 3630
3629 3630
3630 3631
3631 3632
3632 3812
3634 3635
3636 3637
3636 3640
3637 3638
3637 3639
3637 3640
3641 3644
3641 3649
3642 3644
3643 3644
3644 3645
3644 3646
3644 3647
3644 3648
3644 3649
3650 3651
3650 3652
3650 3653
3651 3652
3651 3654
3652 3655
3653 3654
3653 3655
3654 3655
3656 3657
3657 3658
3657 3659
3657 3847
3658 3659
3658 3845
3659 3844
3660 3661
3660 3662
3661 3662
3663 3664
3665 3666
3667 3668
3667 3669
3668 3669
3670 3671
3670 3672
3671 3672
3673 3675
3673 3678
3674 3675
3675 3676
3675 3677
3675 3678
3679 3680
3679 3681
3680 3681
3682 3683
3682 3684
3682 3687
3683 3688
3684 3685
3684 3689
3685 3686
3685 3689
3687 3688
3687 3689
3690 3692
3690 3693
3691 3692
3692 3693
3694 3695
3696 3697
3696 3698
3697 3698
3699 3700
3699 3702
3700 3701
3700 3702
3703 3704
3703 3706
3704 3705
3704 3706
3707 3708
3709 3710
3710 3777
3711 3714
3712 3713
3712 3715
3714 3715
3715 3755
3715 3848
3716 3719
3717 3719
3718 3719
3720 3726
3721 3724
3722 3724
3724 3725
3724 3726
3724 3728
3724 3729
3724 3730
3724 3731
3724 3732
3724 3733
3724 3734
3726 3727
3735 3736
3735 3739
3736 3737
3736 3740
3737 3738
3738 3740
3739 3740
3743 3746
3744 3746
3745 3746
3747 3748
3747 3750
3748 3749
3748 3750
3751 3752
3751 3753
3752 3753
3754 3755
3755 3756
3755 3757
3758 3759
3758 3760
3759 3760
3761 3762
3761 3764
3761 3770
3762 3763
3762 3764
3764 3773
3765 3767
3765 3768
3766 3767
3767 3768
3768 3771
3769 3770
3769 3772
3770 3773
3771 3773
3772 3773
3774 3775
3774 3776
3775 3776
3776 3778
3777 3778
3779 3780
3779 3851
3780 3851
3781 3782
3783 3784
3783 3785
3784 3785
3786 3787
3786 3788
3787 3788
3788 3789
3790 3791
3790 3792
3791 3792
3793 3795
3793 3796
3794 3795
3795 3796
3797 3799
3797 3800
3798 3799
3799 3800
3801 3802
3801 3803
3802 3803
3804 3805
3804 3807
3805 3806
3805 3807
3808 3809
3808 3811
3809 3810
3809 3811
3812 3813
3812 3814
3813 3814
3817 3818
3817 3820
3818 3819
3818 3821
3819 3822
3820 3821
3821 3822
3824 3825
3824 3826
3827 3828
3827 3830
3828 3829
3828 3830
3831 3836
3832 3835
3833 3835
3834 3835
3835 3836
3837 3838
3837 3839
3838 3839
3840 3841
3840 3843
3840 3844
3841 3843
3841 3845
3842 3843
3843 3846
3843 3847
3844 3845
3844 3847
3845 3847
3848 3849
3848 3850
3849 3850
3851 3853
3852 3853
3854 3855
3856 3859
3857 3859
3858 3859
3860 14856
3861 6391
3862 6316
3862 7655
3863 3868
3864 3868
3865 3868
3866 3874
3866 15540
3867 3868
3867 3873
3868 3869
3868 3870
3871 3873
3872 3876
3873 3874
3873 3875
3873 3877
3873 3879
3873 6353
3873 7655
3875 3876
3877 3878
3880 14394
3881 14596
3882 9288
3882 9889
3883 7889
3884 3933
3885 3933
3886 3933
3887 3933
3888 3933
3889 3933
3890 4006
3891 3894
3892 3894
3893 3894
3894 3895
3894 3896
3894 3922
3897 3898
3897 3899
3897 3900
3897 3901
3897 3902
3897 3903
3897 3904
3897 3905
3897 3906
3897 3907
3897 3908
3897 3909
3897 3910
3897 3911
3897 3912
3897 3913
3897 3922
3914 3922
3915 3916
3915 3917
3915 4000
3916 4000
3917 4000
3918 3922
3919 3922
3920 3922
3921 3922
3922 4019
3923 3933
3924 4003
3925 4003
3926 3933
3927 3933
3928 3991
3929 3991
3930 3991
3931 3933
3932 3933
3933 3934
3933 3989
3933 3990
3933 3991
3933 3992
3933 3993
3933 3998
3933 4019
3933 4026
3933 4027
3935 3992
3936 3993
3937 3993
3938 3990
3939 3991
3940 3990
3941 3991
3942 3991
3943 3989
3944 3992
3945 3989
3946 3990
3947 3989
3948 3989
3949 3989
3950 3990
3951 3991
3952 3992
3953 3992
3954 3992
3955 3992
3956 3993
3957 3993
3958 3993
3959 3992
3960 3990
3961 3990
3962 3990
3963 3990
3964 3990
3965 3990
3966 3990
3967 3990
3968 3990
3969 3991
3970 3991
3971 3992
3972 3993
3973 3993
3974 3989
3975 3989
3976 3990
3977 3993
3978 3990
3979 3990
3980 3989
3981 3991
3982 3990
3983 3991
3984 3990
3985 3989
3986 3991
3987 3990
3988 3989
3989 3990
3989 3991
3989 3992
3989 3993
3989 3998
3989 4009
3989 4019
3990 3991
3990 3992
3990 3993
3990 3994
3990 3995
3990 3996
3990 3997
3990 3998
3990 3999
3990 4007
3990 4008
3990 4011
3990 4013
3990 4014
3990 4019
3991 3992
3991 3993
3991 3998
3991 4012
3991 4015
3991 4017
3991 4018
3991 4019
3992 3993
3992 3998
3992 4019
3993 3998
3993 4010
3993 4016
3993 4019
3998 4000
3998 4001
3998 4002
3998 4003
3998 4004
3998 4005
3998 4006
3998 4019
3998 4020
3998 4052
4000 4001
4000 4002
4000 4003
4000 4004
4000 4005
4000 4006
4000 4019
4001 4002
4001 4003
4001 4004
4001 4005
4001 4006
4001 4030
4001 4031
4001 4032
4001 4033
4001 4035
4002 4003
4002 4004
4002 4005
4002 4006
4002 4019
4002 6378
4003 4004
4003 4005
4003 4006
4004 4005
4004 4006
4004 4019
4005 4006
4006 4019
4006 4020
4006 4028
4019 4020
4019 4028
4019 6316
4019 6323
4019 7656
4019 8830
4020 4021
4020 4022
4020 4023
4020 4024
4020 4025
4021 4023
4021 4024
4021 4025
4022 4025
4023 4024
4023 4025
4023 4036
4024 4025
4024 4037
4029 4035
4030 4031
4030 4033
4030 4035
4031 4032
4031 4033
4031 4035
4032 4033
4032 4035
4033 4034
4033 4035
4038 4052
4039 4052
4040 4052
4041 4052
4042 4052
4043 4052
4044 4052
4045 4052
4046 4052
4047 4052
4048 4052
4049 4052
4050 4052
4051 4052
4052 4053
4052 4054
4052 4055
4052 4056
4052 4057
4052 4058
4052 4059
4052 4060
4052 4061
4052 4062
4052 4063
4064 4068
4064 4071
4065 4068
4065 4071
4066 4068
4066 4071
4067 4068
4067 4071
4068 4069
4068 4070
4068 4071
4069 4071
4070 4071
4071 6378
4072 14218
4073 14090
4074 9289
4074 9300
4075 14223
4076 13694
4077 14216
4077 14774
4078 13659
4079 14856
4080 14648
4081 6315
4081 7655
4083 4088
4083 5918
4084 4088
4084 5918
4085 4088
4085 5918
4086 4088
4086 5918
4087 4088
4087 5918
4088 4089
4088 4090
4088 4092
4088 4094
4088 4095
4088 4096
4088 4097
4088 4098
4088 5918
4089 5918
4090 5918
4091 5918
4092 5918
4093 5918
4093 5919
4094 5918
4095 5918
4096 5918
4097 5918
4098 5918
4099 5918
4099 5919
4100 4109
4100 5918
4101 4109
4101 5918
4102 4109
4102 5918
4103 4109
4103 5918
4104 4109
4104 5918
4105 4109
4105 5918
4106 4109
4106 5918
4107 4109
4107 5918
4108 4109
4108 5918
4109 4110
4109 5918
4110 5918
4111 4112
4111 4113
4111 5918
4112 5392
4112 5918
4113 5919
4113 6303
4114 5918
4115 4120
4115 5918
4116 4120
4116 5918
4117 4120
4117 5918
4118 4120
4118 5918
4119 4120
4119 5918
4120 4121
4120 4122
4120 4123
4120 4124
4120 4125
4120 4126
4120 4127
4120 4128
4120 4129
4120 4130
4120 4131
4120 4132
4120 4133
4120 4134
4120 4135
4120 4136
4120 4137
4120 4138
4120 4139
4120 4140
4120 5918
4121 5918
4122 5918
4123 5918
4124 5918
4125 5918
4126 5918
4127 5918
4128 5918
4129 5918
4130 5918
4131 5918
4132 5918
4133 5918
4134 5918
4135 5918
4136 5918
4137 5918
4138 5918
4139 5918
4140 5918
4141 4143
4141 4144
4141 4150
4142 4143
4142 4150
4143 4150
4144 4145
4144 4150
4145 4146
4145 4150
4146 4147
4146 4150
4147 4148
4147 4150
4148 4149
4148 4150
4149 4150
4149 4152
4150 4151
4150 4152
4150 4153
4150 4154
4150 4155
4150 4156
4150 4157
4150 4158
4150 4159
4150 4160
4150 4161
4150 4162
4150 5919
4150 6228
4152 4153
4153 4154
4154 4155
4155 4156
4156 4157
4156 5919
4157 4158
4157 5919
4158 4159
4158 5919
4159 4162
4159 5919
4160 4161
4160 4162
4160 5919
4161 5919
4162 5919
4163 4164
4163 4169
4163 4176
4164 4176
4164 4182
4165 4176
4166 4176
4167 4176
4168 4176
4169 4170
4169 4176
4170 4172
4170 4176
4171 4176
4171 4178
4171 4179
4171 5919
4172 4176
4173 4174
4173 4176
4174 4175
4174 4176
4175 4176
4175 4177
4176 4177
4176 4178
4176 4179
4176 4180
4176 4181
4176 4182
4176 4183
4176 4184
4176 5919
4176 6228
4177 4178
4178 5919
4179 4183
4179 5919
4183 4184
4183 5919
4184 5919
4185 5918
4186 4198
4186 5918
4187 4198
4187 5918
4188 4198
4188 5918
4189 4198
4189 5918
4190 4198
4190 5918
4191 4198
4191 5918
4192 4198
4192 5918
4193 4198
4193 5918
4194 4198
4194 5918
4195 4198
4195 5918
4196 4198
4196 5918
4197 4198
4197 5918
4198 4199
4198 4200
4198 4201
4198 4202
4198 4203
4198 4204
4198 4205
4198 4206
4198 4207
4198 4208
4198 4209
4198 4210
4198 4211
4198 4212
4198 5918
4199 5918
4200 5918
4201 5918
4202 5918
4203 5918
4204 5918
4205 5918
4206 5918
4207 5918
4208 5918
4209 5918
4210 5918
4211 5918
4212 5918
4213 5918
4213 5919
4214 4242
4214 5918
4215 5918
4216 4242
4216 5918
4217 4242
4217 5918
4218 4242
4218 5918
4219 5918
4220 4242
4220 5918
4221 5918
4222 5918
4223 4242
4223 5918
4224 4242
4224 5918
4225 4242
4225 5918
4226 4242
4226 5918
4227 4242
4227 5918
4228 4242
4228 5918
4229 4242
4229 5918
4230 4242
4230 5918
4231 5918
4232 5918
4233 5918
4234 5918
4235 5918
4236 4242
4236 5918
4237 4242
4237 5918
4238 4242
4238 5918
4239 5918
4240 5918
4241 5918
4242 4244
4242 4248
4242 4249
4242 4250
4242 4251
4242 4252
4242 4255
4242 4258
4242 4259
4242 4260
4242 4261
4242 4262
4242 4263
4242 4264
4242 4265
4242 4270
4242 4271
4242 4272
4242 4277
4242 4278
4242 4279
4242 4284
4242 4285
4242 4286
4242 4290
4242 4291
4242 4292
4242 4294
4242 4295
4242 4296
4242 4297
4242 4298
4242 4299
4242 4300
4242 4301
4242 4302
4242 4303
4242 4304
4242 4305
4242 4306
4242 4307
4242 4308
4242 4309
4242 4310
4242 4311
4242 4312
4242 4313
4242 4324
4242 4325
4242 4329
4242 4330
4242 4331
4242 4332
4242 4335
4242 4337
4242 4338
4242 4339
4242 4340
4242 4343
4242 4344
4242 4363
4242 4364
4242 4365
4242 4366
4242 4367
4242 4368
4242 4369
4242 4370
4242 4371
4242 4372
4242 4373
4242 4374
4242 4375
4242 4383
4242 4396
4242 4397
4242 4398
4242 4399
4242 4400
4242 4401
4242 4402
4242 4403
4242 4404
4242 4405
4242 4406
4242 4407
4242 4408
4242 4409
4242 4410
4242 4411
4242 4412
4242 4413
4242 4431
4242 4433
4242 4475
4242 5918
4242 5919
4242 11023
4243 5918
4244 5918
4245 5918
4246 5918
4246 5919
4247 5918
4248 5918
4249 5918
4250 5918
4251 5918
4252 5918
4253 5918
4254 4346
4254 4347
4254 4352
4254 4353
4254 4354
4254 4355
4254 4356
4254 4357
4254 4358
4254 4359
4254 4361
4254 4385
4254 4386
4254 4387
4254 4390
4254 4391
4254 4392
4254 4394
4254 4430
4254 4436
4254 4456
4254 4457
4254 4458
4254 4550
4254 5718
4254 5781
4254 5918
4254 5919
4255 5918
4256 5918
4257 5918
4258 5918
4259 5918
4260 5918
4261 5918
4262 5918
4263 5918
4264 5918
4265 5918
4266 5918
4267 5918
4268 5918
4269 5918
4270 5918
4271 5918
4272 5918
4273 5918
4274 5918
4275 5918
4276 5918
4276 5919
4277 5918
4278 5918
4279 5918
4280 5918
4281 5918
4281 5919
4282 5918
4283 5918
4283 5919
4284 5918
4285 5918
4286 5918
4287 5918
4288 5918
4289 5918
4290 5918
4291 5918
4292 5918
4293 5918
4294 5918
4295 5918
4296 5918
4297 5918
4298 5918
4299 5918
4300 5918
4301 5918
4302 5918
4303 5918
4304 5918
4305 5918
4306 5918
4307 5918
4308 5918
4309 5918
4310 5918
4311 5918
4312 5918
4313 5918
4314 5918
4315 5918
4316 5918
4317 5918
4318 5918
4319 5918
4320 5918
4321 5918
4322 5918
4323 5918
4323 5919
4324 5918
4325 5918
4326 5918
4326 5919
4327 5918
4328 5918
4329 5918
4330 5918
4331 5918
4332 5918
4333 5918
4334 5918
4335 5918
4336 5918
4337 5918
4338 5918
4339 5918
4340 5918
4341 5918
4342 5918
4343 5918
4344 5918
4345 5918
4347 5919
4348 5918
4348 5997
4349 5918
4350 5918
4351 5918
4355 5919
4356 5919
4360 13823
4362 5918
4363 5918
4364 5918
4365 5918
4366 5918
4367 5918
4368 5918
4369 5918
4370 5918
4371 5918
4372 5918
4373 5918
4374 5918
4375 5918
4376 5918
4377 5918
4378 5918
4379 5918
4380 5918
4381 5918
4382 5918
4383 5918
4384 5918
4384 5919
4388 5676
4388 5918
4389 5676
4389 5918
4393 5918
4393 5997
4395 5918
4396 5918
4397 5918
4398 5918
4399 5918
4400 5918
4401 5918
4402 5918
4403 5918
4404 5918
4405 5918
4406 5918
4407 5918
4408 5918
4409 5918
4410 5918
4411 5918
4412 5918
4413 5918
4414 5918
4415 5918
4416 5918
4417 5918
4418 5918
4419 5918
4420 5918
4421 5918
4422 5918
4423 5918
4424 5918
4425 5918
4426 5918
4427 5918
4428 5918
4428 5919
4429 5918
4429 5919
4431 5918
4432 5918
4433 5918
4434 5918
4435 5918
4437 5676
4437 5918
4438 4455
4438 5918
4439 4455
4439 5918
4440 4455
4440 5918
4441 4455
4441 5918
4442 4455
4442 5918
4442 5919
4443 4455
4443 5918
4443 5919
4444 4455
4444 5918
4445 4455
4445 5918
4446 4455
4446 5918
4447 4455
4447 5918
4448 4455
4448 5918
4449 4455
4449 5918
4450 4455
4450 5918
4451 4455
4451 5918
4452 4455
4452 5918
4453 4455
4453 5918
4454 4455
4454 5918
4455 5918
4455 5919
4459 4474
4459 5918
4460 4474
4460 5918
4461 4474
4461 5918
4462 4474
4462 5918
4463 4474
4463 5918
4464 4474
4464 5918
4465 5918
4465 5919
4466 4474
4466 5918
4467 4474
4467 5918
4468 4474
4468 5918
4469 4474
4469 5918
4470 4474
4470 5918
4471 4474
4471 5918
4472 4474
4472 5918
4473 4474
4473 5918
4474 5857
4474 5918
4474 5919
4475 5918
4476 4480
4476 5918
4477 4480
4477 5918
4478 4480
4478 5918
4479 4480
4479 5918
4480 5918
4481 4483
4481 5918
4482 4483
4482 5918
4483 4484
4483 4485
4483 5918
4484 5918
4485 5918
4486 4890
4486 5918
4487 5337
4487 5919
4488 5919
4489 5919
4490 5120
4490 5919
4491 5120
4491 5919
4492 4890
4492 5918
4493 5918
4494 4890
4494 5918
4495 4890
4495 5918
4496 5676
4496 5918
4497 4890
4497 5918
4498 4890
4498 5918
4499 4890
4499 5918
4500 4890
4500 5918
4501 4890
4501 5918
4502 4890
4502 5918
4503 4890
4503 5918
4504 4890
4504 5918
4505 4890
4505 5918
4506 4890
4506 5918
4507 4890
4507 5918
4508 4890
4508 5918
4509 4890
4509 5918
4510 4890
4510 5918
4511 4890
4511 5918
4512 4890
4512 5918
4513 4890
4513 5918
4514 5918
4515 5918
4516 5918
4517 4890
4517 5918
4518 4519
4518 5918
4519 4520
4519 5918
4520 5918
4521 5918
4522 5918
4523 4524
4523 5918
4524 4525
4524 5918
4525 5918
4526 4890
4526 5918
4527 4890
4527 5918
4528 4890
4528 5918
4529 4890
4529 5918
4530 4890
4530 5918
4531 4890
4531 5918
4532 5120
4532 5919
4533 5918
4533 5919
4534 5918
4534 5919
4535 5337
4535 5919
4536 5919
4537 5919
4538 5919
4539 5919
4540 5120
4540 5919
4541 5918
4541 5919
4542 5337
4542 5919
4543 4780
4543 5919
4544 5337
4544 5919
4545 4780
4545 5919
4546 5120
4546 5919
4547 5120
4547 5919
4548 5120
4548 5919
4549 5120
4549 5919
4550 5919
4551 5919
4552 5120
4552 5919
4553 5918
4553 5919
4554 5918
4554 5919
4555 5918
4555 5919
4556 5919
4557 5918
4557 5919
4558 5918
4558 5919
4559 5919
4560 5120
4560 5919
4561 5918
4561 5919
4562 5918
4562 5919
4563 5918
4563 5919
4564 5918
4564 5919
4565 5918
4565 5919
4566 5918
4566 5919
4567 5918
4567 5919
4568 5918
4568 5919
4569 5919
4570 5919
4571 5918
4571 5919
4572 5918
4572 5919
4573 5918
4573 5919
4574 5918
4574 5919
4575 5918
4575 5919
4576 5918
4576 5919
4577 5918
4577 5919
4578 5918
4578 5919
4579 5918
4579 5919
4580 5918
4580 5919
4581 5918
4581 5919
4582 5918
4582 5919
4583 5918
4583 5919
4584 5918
4584 5919
4585 5918
4585 5919
4586 5918
4586 5919
4587 5918
4587 5919
4588 5918
4588 5919
4589 5918
4589 5919
4590 5918
4590 5919
4591 5918
4591 5919
4592 5918
4592 5919
4593 5918
4593 5919
4594 5918
4594 5919
4595 5918
4595 5919
4596 5918
4596 5919
4597 5918
4597 5919
4598 4780
4598 5919
4599 5919
4600 5918
4600 5919
4601 5120
4601 5919
4602 5918
4602 5919
4603 5918
4603 5919
4604 5918
4604 5919
4605 5918
4605 5919
4606 5918
4606 5919
4607 5918
4607 5919
4608 5918
4608 5919
4609 5918
4609 5919
4610 5918
4610 5919
4611 5918
4611 5919
4612 5120
4612 5919
4613 5997
4614 5918
4614 5919
4615 4890
4615 5918
4616 4890
4616 5918
4617 4890
4617 5918
4618 4890
4618 5918
4619 4890
4619 5918
4620 4890
4620 5918
4621 4890
4621 5918
4622 4890
4622 5918
4623 4890
4623 5918
4624 4890
4624 5918
4625 4890
4625 5918
4626 4890
4626 5918
4627 4890
4627 5918
4628 4890
4628 5918
4629 4890
4629 5918
4630 4890
4630 5918
4631 4890
4631 5918
4632 4890
4632 5918
4633 4890
4633 5918
4634 4890
4634 5918
4635 4890
4635 5918
4636 4890
4636 5918
4637 4890
4637 5918
4638 4890
4638 5918
4639 4890
4639 5918
4640 4890
4640 5918
4641 5918
4642 5918
4643 5918
4644 5918
4645 4890
4645 5918
4646 4890
4646 5918
4647 4890
4647 5918
4648 4890
4648 5918
4649 5918
4650 5918
4651 5918
4652 5918
4653 5918
4654 4890
4654 5918
4655 4890
4655 5918
4656 4890
4656 5918
4657 4890
4657 5918
4658 4890
4658 5918
4659 4890
4659 5918
4660 4890
4660 5918
4661 4890
4661 5918
4662 4890
4662 5918
4663 4890
4663 5918
4664 5918
4665 4890
4665 5918
4666 4890
4666 5918
4667 4890
4667 5918
4668 4890
4668 5918
4669 4890
4669 5918
4670 4890
4670 5918
4671 4890
4671 5918
4672 4890
4672 5918
4673 4890
4673 5918
4674 4890
4674 5918
4675 4890
4675 5918
4676 4890
4676 5918
4677 4890
4677 5918
4678 4890
4678 5918
4679 4890
4679 5918
4680 4890
4680 5918
4681 4890
4681 5918
4682 4890
4682 5918
4683 4890
4683 5918
4684 4890
4684 5918
4685 5918
4686 5918
4687 5918
4688 4890
4688 5918
4689 4890
4689 5918
4690 4890
4690 5918
4691 4890
4691 5918
4692 4890
4692 5918
4693 5918
4693 5919
4694 5918
4694 5919
4695 5918
4695 5919
4696 5918
4696 5919
4697 5918
4697 5919
4698 5918
4698 5919
4699 5918
4699 5919
4700 5918
4700 5919
4701 5918
4701 5919
4702 5918
4702 5919
4703 5918
4703 5919
4704 5918
4704 5919
4705 4890
4705 5918
4706 4890
4706 5918
4707 4890
4707 5918
4708 4890
4708 5918
4709 4890
4709 5918
4710 4890
4710 5918
4711 4890
4711 5918
4712 5918
4713 5918
4714 5918
4715 5918
4716 4890
4716 5918
4717 5918
4718 4890
4718 5918
4719 4890
4719 5918
4720 4890
4720 5918
4721 4890
4721 5918
4722 4890
4722 5918
4723 4890
4723 5918
4724 4890
4724 5918
4725 4890
4725 5918
4726 4890
4726 5918
4727 4890
4727 5918
4728 4890
4728 5918
4729 4890
4729 5918
4730 4890
4730 5918
4731 4890
4731 5918
4732 4890
4732 5918
4733 4890
4733 5918
4734 4890
4734 5918
4735 4890
4735 5918
4736 4890
4736 5918
4737 4890
4737 5918
4738 4890
4738 5918
4739 4890
4739 5918
4740 4890
4740 5918
4741 4890
4741 5918
4742 4890
4742 5918
4743 4890
4743 5918
4744 4890
4744 5918
4745 4890
4745 5918
4746 4890
4746 5918
4747 4890
4747 5918
4748 4890
4748 5918
4749 4890
4749 5918
4750 4890
4750 5918
4751 5918
4752 5918
4753 5918
4754 5918
4755 5918
4756 5918
4757 5918
4758 5918
4759 5918
4760 5918
4761 5918
4762 5918
4763 4890
4763 5918
4764 4890
4764 5918
4765 4890
4765 5918
4766 4890
4766 5918
4767 4890
4767 5918
4768 4890
4768 5918
4769 4890
4769 5918
4770 4890
4770 5918
4771 4890
4771 5918
4772 4890
4772 5918
4773 4890
4773 5918
4774 4890
4774 5918
4775 4890
4775 5918
4776 5918
4777 4890
4777 5918
4778 5918
4779 4890
4779 5918
4780 4950
4780 5720
4780 5721
4780 5722
4780 5723
4780 5738
4780 5739
4780 5740
4780 5741
4780 5742
4780 5743
4780 5752
4780 5760
4780 5761
4780 5762
4780 5765
4780 5766
4780 5777
4780 5778
4780 5779
4780 5780
4780 5781
4780 5918
4780 5919
4781 4890
4781 5918
4782 4890
4782 5918
4783 4890
4783 5918
4784 4890
4784 5918
4785 4890
4785 5918
4786 5918
4787 4890
4787 5918
4788 4890
4788 5918
4789 4890
4789 5918
4790 5918
4791 4890
4791 5918
4792 4890
4792 5918
4793 4890
4793 5918
4794 4890
4794 5918
4795 4890
4795 5918
4796 4890
4796 5918
4797 4890
4797 5918
4798 4890
4798 5918
4799 4890
4799 5918
4800 4890
4800 5918
4801 5918
4801 6228
4802 4890
4802 5918
4803 4890
4803 5918
4804 4890
4804 5918
4805 4890
4805 5918
4806 4890
4806 5918
4807 4890
4807 5918
4808 4890
4808 5918
4809 4890
4809 5918
4810 5918
4811 4890
4811 5918
4812 4890
4812 5918
4813 4890
4813 5918
4814 4890
4814 5918
4815 4890
4815 5918
4816 4890
4816 5918
4817 4890
4817 5918
4818 4890
4818 5918
4819 4890
4819 5918
4820 4890
4820 5918
4821 4890
4821 5918
4822 4890
4822 5918
4823 4890
4823 5918
4824 4890
4824 5918
4825 4890
4825 5918
4826 4890
4826 5918
4827 4890
4827 5918
4828 4890
4828 5918
4829 4890
4829 5918
4830 4890
4830 5918
4831 4890
4831 5918
4832 4890
4832 5918
4833 4890
4833 5918
4834 4890
4834 5918
4835 4890
4835 5918
4836 4890
4836 5918
4837 4890
4837 5918
4838 4890
4838 5918
4839 4890
4839 5918
4840 4890
4840 5918
4841 5918
4842 5918
4843 5918
4844 5918
4845 5918
4846 5918
4847 5918
4848 5918
4849 5918
4850 5918
4851 5918
4852 5918
4853 5918
4854 5918
4855 5918
4856 4890
4856 5918
4857 4890
4857 5918
4858 4890
4858 5918
4859 4890
4859 5918
4860 5918
4861 5918
4862 5918
4863 5918
4864 4890
4864 5918
4865 5918
4866 4890
4866 5918
4867 4890
4867 5918
4868 4890
4868 5918
4869 4890
4869 5918
4870 5918
4871 4890
4871 5918
4872 4890
4872 5918
4873 5918
4874 5918
4875 4890
4875 5918
4876 4890
4876 5918
4877 4890
4877 5918
4878 5918
4879 4890
4879 5918
4880 4890
4880 5918
4881 5918
4881 5919
4882 5918
4883 4890
4883 5918
4884 4890
4884 5918
4885 5918
4886 4890
4886 5918
4887 4890
4887 5918
4888 5918
4889 4890
4889 5918
4890 4891
4890 4892
4890 4896
4890 4897
4890 4898
4890 4899
4890 4901
4890 4902
4890 4903
4890 4904
4890 4905
4890 4907
4890 4908
4890 4909
4890 4910
4890 4911
4890 4913
4890 4915
4890 4916
4890 4918
4890 4920
4890 4921
4890 4922
4890 4926
4890 4927
4890 4928
4890 4930
4890 4931
4890 4932
4890 4933
4890 4934
4890 4935
4890 4936
4890 4937
4890 4940
4890 4941
4890 4947
4890 4948
4890 4949
4890 4952
4890 4953
4890 4954
4890 4955
4890 4956
4890 4957
4890 4958
4890 4964
4890 4966
4890 4967
4890 4968
4890 4969
4890 4970
4890 4971
4890 4972
4890 4973
4890 4974
4890 4975
4890 4976
4890 4977
4890 4978
4890 4979
4890 4980
4890 4981
4890 4982
4890 4983
4890 4984
4890 4985
4890 4986
4890 4988
4890 4989
4890 4990
4890 4991
4890 4992
4890 4993
4890 4994
4890 4995
4890 4996
4890 4997
4890 4998
4890 4999
4890 5000
4890 5001
4890 5002
4890 5003
4890 5004
4890 5005
4890 5006
4890 5007
4890 5008
4890 5009
4890 5010
4890 5011
4890 5012
4890 5013
4890 5014
4890 5015
4890 5016
4890 5017
4890 5018
4890 5019
4890 5020
4890 5021
4890 5022
4890 5023
4890 5027
4890 5036
4890 5037
4890 5039
4890 5043
4890 5044
4890 5048
4890 5049
4890 5050
4890 5051
4890 5052
4890 5054
4890 5056
4890 5057
4890 5058
4890 5059
4890 5060
4890 5065
4890 5067
4890 5068
4890 5069
4890 5070
4890 5071
4890 5072
4890 5073
4890 5074
4890 5075
4890 5076
4890 5077
4890 5078
4890 5079
4890 5080
4890 5083
4890 5084
4890 5085
4890 5086
4890 5087
4890 5088
4890 5089
4890 5090
4890 5091
4890 5092
4890 5094
4890 5095
4890 5096
4890 5097
4890 5098
4890 5099
4890 5100
4890 5101
4890 5102
4890 5103
4890 5104
4890 5105
4890 5106
4890 5107
4890 5108
4890 5109
4890 5112
4890 5113
4890 5114
4890 5115
4890 5116
4890 5117
4890 5118
4890 5119
4890 5121
4890 5124
4890 5125
4890 5126
4890 5127
4890 5128
4890 5129
4890 5130
4890 5131
4890 5132
4890 5133
4890 5134
4890 5135
4890 5136
4890 5137
4890 5138
4890 5139
4890 5140
4890 5141
4890 5142
4890 5143
4890 5144
4890 5145
4890 5146
4890 5147
4890 5148
4890 5149
4890 5150
4890 5151
4890 5152
4890 5153
4890 5154
4890 5155
4890 5156
4890 5161
4890 5163
4890 5164
4890 5165
4890 5166
4890 5167
4890 5168
4890 5169
4890 5175
4890 5176
4890 5177
4890 5178
4890 5179
4890 5180
4890 5181
4890 5182
4890 5183
4890 5184
4890 5185
4890 5190
4890 5191
4890 5192
4890 5193
4890 5194
4890 5195
4890 5196
4890 5197
4890 5198
4890 5199
4890 5200
4890 5201
4890 5202
4890 5203
4890 5204
4890 5205
4890 5206
4890 5207
4890 5208
4890 5209
4890 5210
4890 5211
4890 5212
4890 5213
4890 5214
4890 5215
4890 5216
4890 5217
4890 5218
4890 5219
4890 5220
4890 5221
4890 5222
4890 5223
4890 5224
4890 5225
4890 5226
4890 5227
4890 5228
4890 5229
4890 5230
4890 5231
4890 5232
4890 5233
4890 5234
4890 5235
4890 5236
4890 5237
4890 5238
4890 5239
4890 5240
4890 5241
4890 5242
4890 5243
4890 5244
4890 5245
4890 5246
4890 5247
4890 5248
4890 5249
4890 5250
4890 5251
4890 5252
4890 5253
4890 5254
4890 5255
4890 5256
4890 5257
4890 5258
4890 5259
4890 5260
4890 5261
4890 5262
4890 5263
4890 5264
4890 5265
4890 5266
4890 5267
4890 5268
4890 5269
4890 5270
4890 5271
4890 5272
4890 5273
4890 5274
4890 5275
4890 5276
4890 5277
4890 5278
4890 5279
4890 5280
4890 5281
4890 5282
4890 5283
4890 5284
4890 5297
4890 5298
4890 5299
4890 5300
4890 5301
4890 5302
4890 5303
4890 5305
4890 5306
4890 5307
4890 5308
4890 5309
4890 5310
4890 5311
4890 5312
4890 5313
4890 5314
4890 5315
4890 5316
4890 5320
4890 5321
4890 5322
4890 5323
4890 5324
4890 5325
4890 5326
4890 5327
4890 5328
4890 5329
4890 5330
4890 5331
4890 5332
4890 5333
4890 5334
4890 5335
4890 5342
4890 5347
4890 5354
4890 5365
4890 5366
4890 5367
4890 5368
4890 5373
4890 5385
4890 5388
4890 5393
4890 5394
4890 5401
4890 5405
4890 5406
4890 5407
4890 5408
4890 5409
4890 5410
4890 5429
4890 5487
4890 5626
4890 5860
4890 5861
4890 5864
4890 5865
4890 5918
4890 5919
4890 6261
4891 5918
4892 5918
4893 5918
4894 5918
4895 5918
4896 5918
4897 5918
4898 5918
4899 5918
4900 5918
4901 5918
4902 5918
4903 5918
4904 5918
4905 5918
4906 5676
4907 5918
4908 5918
4909 5918
4910 5918
4911 5918
4912 5918
4913 5918
4914 5918
4915 5918
4916 5918
4917 5676
4917 5918
4918 5918
4919 5918
4920 5918
4921 5918
4922 5918
4923 5676
4923 5918
4924 5918
4924 5919
4925 5918
4925 5919
4926 5918
4927 5918
4928 5918
4929 5918
4930 5918
4931 5918
4932 5918
4933 5918
4934 5918
4935 5918
4936 5918
4937 5918
4938 5918
4939 5918
4940 5918
4941 5918
4942 5918
4942 5919
4943 5918
4943 5919
4944 5918
4944 5919
4945 5918
4945 5919
4946 5918
4946 5919
4947 5918
4948 5918
4949 5918
4951 5918
4952 5918
4953 5918
4954 5918
4955 5918
4956 5918
4957 5918
4958 5918
4959 5676
4959 5918
4960 5676
4960 5918
4961 5918
4962 5120
4963 5918
4965 5918
4966 5918
4967 5918
4968 5918
4969 5918
4970 5918
4971 5918
4972 5918
4973 5918
4974 5918
4975 5918
4976 5918
4977 5918
4978 5918
4979 5918
4980 5918
4981 5918
4982 5918
4983 5918
4984 5918
4985 5918
4986 5918
4987 5918
4988 5918
4989 5918
4990 5918
4991 5918
4992 5918
4993 5918
4994 5918
4995 5918
4996 5918
4997 5918
4998 5918
4999 5918
5000 5918
5001 5918
5002 5918
5003 5918
5004 5918
5005 5918
5006 5918
5007 5918
5008 5918
5009 5918
5010 5918
5011 5918
5012 5918
5013 5918
5014 5918
5015 5918
5016 5918
5017 5918
5018 5918
5019 5918
5020 5918
5022 5918
5023 5918
5024 5918
5025 5918
5026 5918
5027 5918
5028 5918
5029 5918
5030 5918
5031 5918
5032 5918
5033 5918
5034 5918
5035 5918
5036 5918
5037 5918
5038 5918
5039 5918
5040 5918
5041 5918
5041 5919
5042 5918
5043 5918
5044 5918
5045 5918
5046 5918
5047 5918
5048 5918
5049 5918
5050 5918
5051 5918
5052 5918
5053 5918
5054 5918
5055 5918
5056 5918
5057 5918
5058 5918
5059 5918
5060 5918
5061 5918
5062 5918
5063 5918
5064 5918
5065 5918
5066 5918
5067 5918
5068 5918
5069 5918
5070 5918
5071 5918
5072 5918
5073 5918
5074 5918
5075 5918
5076 5918
5077 5918
5078 5918
5079 5918
5080 5918
5081 5918
5082 5676
5083 5918
5084 5918
5085 5918
5086 5918
5087 5918
5088 5918
5089 5918
5090 5918
5091 5918
5092 5918
5093 5918
5094 5918
5095 5918
5096 5918
5097 5918
5098 5918
5100 5918
5101 5918
5102 5918
5103 5918
5104 5918
5105 5918
5106 5918
5107 5918
5108 5918
5109 5918
5110 5918
5111 5918
5112 5918
5113 5918
5114 5918
5115 5918
5116 5918
5117 5918
5118 5918
5119 5918
5120 5122
5120 5123
5120 5162
5120 5381
5120 5382
5120 5383
5120 5384
5120 5430
5120 5431
5120 5432
5120 5732
5120 5734
5120 5735
5120 5736
5120 5754
5120 5755
5120 5756
5120 5757
5120 5758
5120 5759
5120 5764
5120 5773
5120 5774
5120 5775
5120 5776
5120 5781
5120 5784
5120 5785
5120 5786
5120 5787
5120 5788
5120 5790
5120 5792
5120 5793
5120 5794
5120 5795
5120 5796
5120 5797
5120 5798
5120 5799
5120 5802
5120 5803
5120 5804
5120 5805
5120 5806
5120 5807
5120 5808
5120 5809
5120 5811
5120 5814
5120 5815
5120 5816
5120 5817
5120 5818
5120 5819
5120 5820
5120 5821
5120 5822
5120 5823
5120 5824
5120 5825
5120 5826
5120 5827
5120 5834
5120 5835
5120 5836
5120 5837
5120 5838
5120 5839
5120 5840
5120 5841
5120 5842
5120 5843
5120 5844
5120 5845
5120 5846
5120 5847
5120 5848
5120 5849
5120 5850
5120 5851
5120 5852
5120 5854
5120 5855
5120 5918
5120 5919
5121 5918
5124 5918
5125 5918
5126 5918
5127 5918
5128 5918
5129 5918
5130 5918
5131 5918
5132 5918
5133 5918
5134 5918
5135 5918
5136 5918
5137 5918
5138 5918
5139 5918
5140 5918
5141 5918
5142 5918
5143 5918
5144 5918
5145 5918
5146 5918
5147 5918
5148 5918
5149 5918
5150 5918
5151 5918
5152 5918
5153 5918
5154 5918
5155 5918
5156 5918
5157 5918
5158 5918
5159 5918
5160 5918
5161 5918
5163 5918
5164 5918
5165 5918
5166 5918
5167 5918
5168 5918
5169 5918
5170 5918
5170 5919
5171 5918
5171 5919
5172 5918
5172 5919
5173 5918
5173 5919
5174 5918
5174 5919
5175 5918
5176 5918
5177 5918
5178 5918
5179 5918
5180 5918
5181 5918
5182 5918
5183 5918
5184 5918
5185 5918
5186 5918
5186 5919
5187 5918
5187 5919
5188 5918
5188 5919
5189 5918
5189 5919
5190 5918
5191 5918
5192 5918
5193 5918
5194 5918
5195 5918
5196 5918
5197 5918
5198 5918
5199 5918
5200 5918
5201 5918
5202 5918
5203 5918
5204 5918
5205 5918
5206 5918
5207 5918
5208 5918
5209 5918
5210 5918
5211 5918
5212 5918
5213 5918
5214 5918
5215 5918
5216 5918
5217 5918
5218 5918
5219 5918
5220 5918
5221 5918
5222 5918
5223 5918
5224 5918
5225 5918
5226 5918
5227 5918
5228 5918
5229 5918
5230 5918
5231 5918
5232 5918
5233 5918
5234 5918
5235 5918
5236 5918
5237 5918
5238 5918
5239 5918
5240 5918
5241 5918
5242 5918
5243 5918
5244 5918
5245 5918
5246 5918
5247 5918
5248 5918
5249 5918
5250 5918
5251 5918
5252 5918
5253 5918
5254 5918
5255 5918
5256 5918
5257 5918
5258 5918
5259 5918
5260 5918
5261 5918
5262 5918
5263 5918
5264 5918
5265 5918
5266 5918
5267 5918
5268 5918
5269 5918
5270 5918
5271 5918
5272 5918
5273 5918
5274 5918
5275 5918
5276 5918
5277 5918
5278 5918
5279 5918
5280 5918
5281 5918
5282 5918
5283 5918
5284 5918
5285 5918
5286 5918
5287 5918
5288 5918
5289 5918
5290 5918
5291 5918
5292 5918
5293 5918
5294 5918
5295 5918
5296 5918
5297 5918
5298 5918
5299 5918
5300 5918
5301 5918
5302 5918
5303 5918
5304 5918
5305 5918
5306 5918
5307 5918
5308 5918
5309 5918
5310 5918
5311 5918
5312 5918
5313 5918
5314 5918
5315 5918
5316 5918
5317 5918
5318 5918
5319 5918
5320 5918
5321 5918
5322 5918
5323 5918
5324 5918
5325 5918
5326 5918
5327 5918
5328 5918
5329 5918
5330 5918
5331 5918
5332 5918
5333 5918
5334 5918
5335 5918
5336 5918
5337 5338
5337 5363
5337 5364
5337 5378
5337 5627
5337 5628
5337 5724
5337 5725
5337 5726
5337 5727
5337 5728
5337 5729
5337 5730
5337 5731
5337 5733
5337 5737
5337 5744
5337 5745
5337 5746
5337 5747
5337 5748
5337 5749
5337 5750
5337 5751
5337 5753
5337 5763
5337 5767
5337 5768
5337 5769
5337 5770
5337 5771
5337 5772
5337 5781
5337 5782
5337 5789
5337 5791
5337 5800
5337 5810
5337 5812
5337 5813
5337 5828
5337 5918
5337 5919
5339 5918
5340 5676
5340 5918
5341 5918
5342 5918
5343 5918
5344 5918
5345 5918
5346 5918
5347 5918
5348 5676
5348 5918
5349 5676
5349 5918
5350 5918
5351 5918
5352 5918
5353 5918
5354 5918
5355 5676
5355 5918
5356 5676
5356 5918
5357 5676
5357 5918
5358 5918
5359 5918
5360 5918
5361 5918
5362 5676
5362 5918
5365 5918
5366 5918
5367 5918
5368 5918
5369 5676
5370 5676
5370 5918
5371 5676
5371 5918
5372 5918
5373 5918
5374 5676
5374 5918
5375 5918
5376 5918
5377 5918
5379 5918
5379 5919
5380 5918
5380 5919
5385 5918
5386 5918
5387 5918
5387 6228
5388 5918
5389 6228
5390 5781
5390 5919
5391 5918
5392 5919
5393 5918
5394 5918
5395 5918
5395 5997
5396 5918
5396 5997
5397 5918
5397 5919
5398 5918
5398 5919
5399 5918
5399 5997
5400 5918
5400 6228
5401 5918
5402 5918
5403 5918
5403 5919
5404 5918
5404 5919
5405 5918
5406 5918
5407 5918
5408 5918
5409 5918
5410 5918
5411 5918
5412 5421
5412 5918
5413 5918
5413 5919
5414 5421
5414 5918
5415 5421
5415 5918
5416 5421
5416 5918
5417 5421
5417 5918
5418 5421
5418 5918
5419 5421
5419 5918
5420 5421
5420 5918
5421 5422
5421 5423
5421 5424
5421 5425
5421 5426
5421 5427
5421 5428
5421 5918
5421 5919
5422 5918
5423 5918
5424 5918
5425 5918
5426 5918
5427 5918
5428 5918
5429 5918
5433 5676
5434 5676
5435 5676
5436 5676
5437 5676
5438 5676
5439 5676
5440 5676
5440 5918
5441 5676
5441 5918
5442 5676
5442 5918
5443 5676
5443 5918
5444 5676
5444 5918
5445 5676
5445 5918
5446 5676
5446 5918
5447 5676
5447 5918
5448 5676
5448 5918
5449 5676
5449 5918
5450 5676
5450 5918
5451 5676
5451 5918
5452 5676
5452 5918
5453 5676
5453 5918
5454 5676
5454 5918
5455 5676
5455 5918
5456 5676
5456 5918
5457 5676
5457 5918
5458 5676
5458 5918
5459 5676
5459 5918
5460 5676
5460 5918
5461 5676
5461 5918
5462 5676
5462 5918
5463 5676
5463 5918
5464 5676
5464 5918
5465 5918
5466 5918
5467 5918
5468 5918
5469 5918
5470 5918
5471 5918
5472 5918
5473 5918
5474 5918
5475 5918
5476 5918
5477 5918
5478 5918
5479 5918
5480 5918
5481 5918
5482 5918
5483 5918
5484 5918
5485 5918
5486 5918
5487 5918
5488 5676
5488 5918
5489 5676
5489 5918
5490 5676
5490 5918
5491 5676
5491 5918
5492 5676
5493 5676
5494 5918
5495 5918
5496 5918
5497 5676
5498 5676
5499 5676
5500 5676
5501 5676
5502 5676
5503 5676
5504 5676
5505 5676
5506 5676
5506 5918
5507 5676
5507 5918
5508 5676
5508 5918
5509 5676
5509 5918
5510 5676
5510 5918
5511 5676
5511 5918
5512 5676
5512 5918
5513 5676
5513 5918
5514 5676
5514 5918
5515 5676
5515 5918
5516 5676
5516 5918
5517 5676
5517 5918
5518 5676
5518 5918
5519 5676
5519 5918
5520 5676
5520 5918
5521 5676
5521 5918
5522 5676
5522 5918
5523 5676
5523 5918
5524 5676
5524 5918
5525 5676
5525 5918
5526 5676
5526 5918
5527 5676
5527 5918
5528 5676
5528 5918
5529 5676
5529 5918
5530 5676
5530 5918
5531 5676
5531 5918
5532 5676
5532 5918
5533 5918
5534 5918
5535 5918
5536 5918
5537 5918
5538 5918
5539 5918
5540 5918
5541 5918
5542 5918
5543 5918
5544 5676
5544 5918
5545 5918
5546 5918
5547 5676
5548 5918
5549 5676
5550 5676
5550 5918
5551 5676
5551 5918
5552 5676
5552 5918
5553 5676
5553 5918
5554 5676
5554 5918
5555 5676
5555 5918
5556 5676
5556 5918
5557 5676
5557 5918
5558 5918
5559 5918
5560 5918
5561 5676
5562 5918
5563 5676
5564 5676
5565 5676
5566 5676
5566 5918
5567 5676
5567 5918
5568 5676
5568 5918
5569 5918
5570 5918
5571 5918
5572 5918
5573 5676
5573 5918
5574 5918
5575 5676
5575 5918
5576 5676
5576 5918
5577 5676
5577 5918
5578 5676
5579 5676
5579 5918
5580 5676
5580 5918
5581 5676
5581 5918
5582 5918
5583 5918
5584 5676
5585 5676
5585 5918
5586 5676
5586 5918
5587 5676
5587 5918
5588 5676
5588 5918
5589 5918
5590 5676
5591 5676
5591 5918
5592 5676
5592 5918
5593 5676
5593 5918
5594 5918
5595 5918
5596 5918
5597 5918
5598 5918
5599 5676
5599 5918
5600 5918
5601 5918
5602 5918
5603 5676
5604 5676
5604 5918
5605 5676
5605 5918
5606 5676
5606 5918
5607 5918
5608 5918
5609 5918
5610 5676
5610 5918
5611 5676
5612 5676
5612 5918
5613 5918
5614 5676
5614 5918
5615 5918
5616 5918
5617 5676
5617 5918
5618 5676
5618 5918
5619 5676
5619 5918
5620 5676
5620 5918
5621 5676
5621 5918
5622 5676
5622 5918
5623 5918
5624 5918
5625 5918
5626 5918
5629 5676
5630 5676
5631 5676
5632 5676
5632 5918
5633 5676
5633 5918
5634 5676
5634 5918
5635 5676
5635 5918
5636 5676
5636 5918
5637 5676
5637 5918
5638 5676
5638 5918
5639 5918
5640 5918
5641 5918
5642 5918
5643 5918
5644 5918
5645 5918
5646 5918
5647 5918
5648 5676
5648 5918
5649 5918
5650 5918
5651 5918
5652 5676
5653 5676
5653 5918
5654 5676
5654 5918
5655 5918
5656 5918
5657 5676
5658 5676
5658 5918
5659 5676
5660 5676
5660 5918
5661 5676
5661 5918
5662 5676
5662 5918
5663 5676
5663 5918
5664 5676
5664 5918
5665 5918
5666 5676
5666 5918
5667 5918
5668 5918
5669 5676
5670 5676
5670 5918
5671 5676
5672 5676
5672 5918
5673 5676
5673 5918
5674 5918
5675 5676
5675 5918
5676 5677
5676 5678
5676 5679
5676 5684
5676 5918
5676 5919
5678 5918
5679 5918
5680 5918
5681 5918
5681 5919
5682 5918
5682 5919
5683 5918
5683 5919
5684 5918
5685 5918
5686 5918
5687 5699
5688 5699
5689 5699
5690 5699
5691 5699
5692 5699
5693 5697
5693 5699
5694 5695
5694 5698
5694 5699
5695 5699
5696 5699
5696 5700
5697 5698
5697 5699
5698 5699
5699 5700
5699 5701
5699 5702
5699 5703
5699 5704
5699 5705
5699 5706
5699 5707
5699 5708
5699 5919
5699 6228
5700 5701
5701 5702
5702 5703
5703 5704
5704 5705
5704 5919
5705 5706
5705 5919
5706 5707
5706 5919
5707 5708
5707 5919
5708 5919
5709 5714
5709 5918
5710 5714
5710 5918
5711 5714
5711 5918
5712 5714
5712 5918
5713 5714
5713 5918
5714 5715
5714 5716
5714 5717
5714 5918
5714 5919
5715 5918
5715 5919
5716 5918
5716 5919
5717 5918
5717 5919
5719 5781
5754 5919
5772 5919
5781 5783
5781 5801
5781 5829
5781 5830
5781 5831
5781 5832
5781 5833
5781 5856
5781 5866
5781 5867
5781 5916
5781 5918
5781 5919
5781 6313
5781 6314
5853 5919
5854 5919
5857 5918
5858 5918
5859 5918
5859 5919
5860 5918
5861 5918
5862 5918
5863 5918
5864 5918
5865 5918
5866 5918
5866 5919
5867 5918
5867 5919
5868 5918
5868 5919
5869 5918
5870 5918
5870 5919
5871 5918
5872 5918
5873 5918
5874 5918
5875 5918
5876 5918
5877 5918
5878 5918
5879 5918
5880 5881
5880 5918
5881 5918
5881 5919
5882 5918
5882 5997
5883 5997
5884 5918
5884 5997
5885 5918
5885 5997
5886 5997
5887 5997
5888 5997
5889 5997
5890 5997
5891 5918
5891 5997
5892 5997
5893 5997
5894 5997
5895 5997
5896 5997
5897 5918
5897 5997
5898 5918
5898 5997
5899 5997
5900 5997
5901 5918
5901 5997
5902 5918
5902 5997
5903 5997
5904 5997
5905 5997
5906 5918
5906 5997
5907 5997
5908 5918
5908 5997
5909 5918
5909 5997
5910 5997
5911 5918
5911 5997
5912 5918
5912 5997
5913 5997
5914 5918
5914 5997
5915 5918
5915 5997
5916 5918
5916 5919
5917 5919
5917 6306
5917 6310
5918 5919
5918 5920
5918 5921
5918 5924
5918 5927
5918 5930
5918 5933
5918 5936
5918 5937
5918 5938
5918 5939
5918 5940
5918 5947
5918 5949
5918 5952
5918 5953
5918 5955
5918 5960
5918 5961
5918 5962
5918 5963
5918 5964
5918 5965
5918 5968
5918 5969
5918 5970
5918 5971
5918 5975
5918 5978
5918 5980
5918 5981
5918 5984
5918 5985
5918 5987
5918 5988
5918 5990
5918 5991
5918 5994
5918 5997
5918 5998
5918 5999
5918 6000
5918 6002
5918 6003
5918 6004
5918 6005
5918 6006
5918 6007
5918 6008
5918 6009
5918 6010
5918 6011
5918 6012
5918 6013
5918 6014
5918 6015
5918 6016
5918 6017
5918 6018
5918 6019
5918 6020
5918 6021
5918 6022
5918 6023
5918 6024
5918 6025
5918 6026
5918 6027
5918 6028
5918 6029
5918 6030
5918 6031
5918 6032
5918 6033
5918 6034
5918 6035
5918 6036
5918 6037
5918 6038
5918 6039
5918 6040
5918 6041
5918 6042
5918 6043
5918 6044
5918 6045
5918 6046
5918 6047
5918 6048
5918 6049
5918 6050
5918 6051
5918 6052
5918 6053
5918 6054
5918 6055
5918 6056
5918 6057
5918 6058
5918 6059
5918 6060
5918 6061
5918 6062
5918 6063
5918 6064
5918 6065
5918 6066
5918 6067
5918 6068
5918 6069
5918 6070
5918 6071
5918 6072
5918 6073
5918 6074
5918 6075
5918 6076
5918 6077
5918 6078
5918 6079
5918 6080
5918 6081
5918 6082
5918 6083
5918 6084
5918 6085
5918 6086
5918 6087
5918 6088
5918 6089
5918 6090
5918 6091
5918 6092
5918 6093
5918 6094
5918 6095
5918 6096
5918 6097
5918 6098
5918 6099
5918 6100
5918 6101
5918 6102
5918 6103
5918 6104
5918 6105
5918 6106
5918 6107
5918 6155
5918 6216
5918 6228
5918 6252
5918 6259
5918 6260
5918 6261
5918 6262
5918 6263
5918 6264
5918 6265
5918 6266
5918 6267
5918 6268
5918 6269
5918 6270
5918 6271
5918 6272
5918 6273
5918 6274
5918 6275
5918 6276
5918 6277
5918 6278
5918 6279
5918 6280
5918 6281
5918 6282
5918 6283
5918 6284
5918 6285
5918 6286
5918 6287
5918 6288
5918 6289
5918 6290
5918 6291
5918 11023
5919 5997
5919 6031
5919 6060
5919 6073
5919 6082
5919 6087
5919 6088
5919 6089
5919 6101
5919 6106
5919 6107
5919 6139
5919 6228
5919 6252
5919 6253
5919 6259
5919 6260
5919 6264
5919 6269
5919 6271
5919 6281
5919 6285
5919 6290
5919 6291
5919 6292
5919 6293
5919 6294
5919 6295
5919 6296
5919 6297
5919 6298
5919 6299
5919 6300
5919 6301
5919 6302
5919 6303
5919 6305
5919 6306
5919 6307
5919 6308
5919 6309
5919 6310
5919 6311
5919 6312
5919 7253
5919 7655
5920 5997
5921 5997
5922 5997
5923 5997
5924 5997
5925 5997
5926 5997
5927 5997
5928 5997
5929 5997
5930 5997
5931 5997
5932 5997
5933 5997
5934 5997
5935 5997
5936 5997
5937 5997
5938 5997
5939 5997
5940 5997
5941 5997
5942 5997
5943 5997
5944 5997
5945 5997
5946 5997
5947 5997
5948 5997
5949 5997
5950 5997
5951 5997
5952 5997
5953 5997
5954 5997
5955 5997
5956 5997
5957 5997
5958 5997
5959 5997
5960 5997
5961 5997
5962 5997
5963 5997
5964 5997
5965 5997
5966 5997
5967 5997
5968 5997
5969 5997
5970 5997
5971 5997
5972 5997
5973 5997
5974 5997
5975 5997
5976 5997
5977 5997
5978 5997
5979 5997
5980 5997
5981 5997
5982 5997
5983 5997
5984 5997
5985 5997
5986 5997
5987 5997
5988 5997
5989 5997
5990 5997
5991 5997
5992 5997
5993 5997
5994 5997
5995 5997
5996 5997
5997 5998
5997 5999
5997 6001
6000 6291
6002 6073
6003 6073
6004 6073
6006 6073
6007 6073
6008 6073
6009 6073
6010 6073
6011 6073
6012 6073
6013 6073
6014 6073
6015 6073
6016 6073
6017 6073
6018 6073
6019 6073
6020 6073
6021 6073
6022 6073
6023 6073
6024 6073
6025 6073
6026 6073
6027 6073
6028 6073
6029 6073
6030 6073
6031 6073
6032 6073
6033 6073
6034 6073
6035 6073
6036 6073
6037 6073
6038 6073
6039 6073
6040 6073
6041 6073
6042 6073
6043 6073
6044 6073
6045 6073
6046 6073
6047 6073
6048 6073
6049 6073
6050 6073
6051 6073
6052 6073
6053 6073
6054 6073
6055 6073
6056 6073
6057 6073
6058 6073
6059 6073
6060 6073
6061 6073
6062 6073
6063 6073
6064 6073
6065 6073
6066 6073
6067 6073
6068 6073
6069 6073
6070 6073
6071 6073
6072 6073
6074 6106
6075 6106
6076 6106
6077 6106
6078 6106
6079 6106
6080 6106
6081 6106
6082 6106
6083 6106
6084 6106
6085 6106
6086 6106
6087 6106
6088 6106
6089 6106
6090 6106
6091 6106
6092 6106
6093 6106
6094 6106
6095 6106
6096 6106
6097 6106
6098 6106
6099 6106
6100 6106
6101 6106
6102 6106
6103 6106
6104 6106
6105 6106
6106 6107
6108 6228
6109 6228
6110 6228
6111 6228
6112 6228
6113 6228
6114 6228
6115 6228
6116 6228
6117 6228
6118 6228
6119 6228
6120 6228
6121 6228
6122 6228
6123 6228
6124 6228
6125 6228
6126 6228
6127 6228
6128 6228
6129 6228
6130 6228
6131 6228
6132 6228
6133 6228
6134 6228
6135 6228
6136 6228
6137 6228
6138 6228
6140 6228
6141 6228
6142 6228
6143 6228
6144 6228
6145 6228
6146 6228
6147 6228
6148 6228
6149 6228
6150 6228
6151 6228
6152 6228
6153 6228
6154 6228
6155 6228
6156 6228
6157 6228
6158 6228
6159 6228
6160 6228
6161 6228
6162 6228
6163 6228
6164 6228
6165 6228
6166 6228
6167 6228
6168 6228
6169 6228
6170 6228
6171 6228
6172 6228
6173 6228
6174 6228
6175 6228
6176 6228
6177 6228
6178 6228
6179 6228
6180 6228
6181 6228
6182 6228
6183 6228
6184 6228
6185 6228
6186 6228
6187 6228
6188 6228
6189 6228
6190 6228
6191 6228
6192 6228
6193 6228
6194 6228
6195 6228
6196 6228
6197 6228
6198 6228
6199 6228
6200 6228
6201 6228
6202 6228
6203 6228
6204 6228
6205 6228
6206 6228
6207 6228
6208 6228
6209 6228
6210 6228
6211 6228
6212 6228
6213 6228
6214 6228
6215 6228
6216 6228
6217 6228
6218 6228
6219 6228
6220 6228
6221 6228
6222 6228
6223 6228
6224 6228
6225 6228
6226 6228
6227 6228
6228 6252
6229 6252
6230 6252
6231 6252
6232 6252
6233 6252
6234 6252
6235 6252
6236 6252
6237 6252
6238 6252
6239 6252
6240 6252
6241 6252
6242 6252
6243 6252
6244 6252
6245 6252
6246 6252
6247 6252
6248 6252
6249 6252
6250 6252
6251 6252
6252 6253
6252 6254
6252 6255
6252 6256
6252 6257
6252 6258
6259 6269
6260 6269
6262 6269
6263 6269
6264 6269
6265 6269
6266 6269
6267 6269
6268 6269
6269 6270
6269 6271
6272 6291
6273 6291
6274 6291
6275 6291
6276 6291
6277 6291
6278 6291
6279 6291
6280 6291
6281 6291
6282 6291
6283 6291
6284 6291
6285 6291
6286 6291
6287 6291
6288 6291
6289 6291
6290 6291
6292 6303
6293 6303
6294 6303
6295 6303
6296 6303
6297 6303
6298 6303
6299 6303
6300 6303
6301 6303
6302 6303
6306 6307
6306 6308
6306 6310
6307 6308
6307 6309
6307 6310
6316 6390
6316 7660
6316 7661
6316 7662
6316 7663
6316 7664
6317 6323
6318 6323
6319 6323
6320 6323
6321 6323
6322 6323
6323 6324
6323 6325
6323 6328
6323 6391
6326 6328
6327 6328
6328 6329
6330 14234
6330 14811
6331 14216
6332 14090
6332 14096
6333 10074
6333 10821
6334 6337
6334 10821
6335 10821
6336 10821
6338 10821
6339 10821
6340 10821
6341 10821
6342 10821
6343 10821
6344 10074
6344 10821
6345 10074
6345 10821
6346 10074
6346 10821
6347 10074
6347 10821
6348 10074
6348 10821
6349 10074
6349 10821
6350 15182
6351 11572
6351 14932
6351 14939
6352 13694
6353 6370
6353 9300
6353 11032
6354 14201
6355 13823
6356 14011
6357 6358
6357 15548
6357 15571
6359 13823
6360 14852
6361 11068
6362 11068
6363 11068
6364 11068
6365 11068
6366 11068
6367 11068
6368 13346
6369 13823
6370 6380
6371 7253
6372 14234
6372 14697
6373 14201
6374 12319
6375 13257
6376 10542
6377 11846
6377 13330
6377 13342
6379 11008
6380 6381
6380 7872
6380 7873
6380 7874
6380 7875
6380 7879
6380 7880
6380 7881
6380 7882
6380 7883
6380 7884
6380 7885
6380 7886
6380 7971
6380 8032
6380 8035
6380 8052
6380 8136
6380 8137
6380 8138
6380 8139
6380 8144
6380 8145
6380 8147
6380 8168
6380 8195
6380 8222
6380 8223
6380 8287
6380 8310
6380 8400
6380 8479
6380 8481
6380 8482
6380 8507
6380 8508
6380 8526
6380 8538
6380 8539
6380 8540
6380 8541
6380 8542
6380 8543
6380 8544
6380 8545
6380 8546
6380 8547
6380 8548
6380 8549
6380 8550
6380 8551
6380 8552
6380 8553
6380 8554
6380 8555
6380 8556
6380 8557
6380 8558
6380 8559
6380 8560
6380 8561
6380 8623
6380 8624
6380 8625
6380 8626
6380 8627
6380 8628
6380 8629
6380 8630
6380 8631
6380 8632
6380 8633
6380 8634
6380 8635
6380 8636
6380 8637
6380 8638
6380 8639
6380 8640
6380 8641
6380 8642
6380 8643
6380 8644
6380 8645
6380 8646
6380 8647
6380 8648
6380 8649
6380 8650
6380 8651
6380 8652
6380 8653
6380 8654
6380 8655
6380 8656
6380 8657
6380 8658
6380 8659
6380 8660
6380 8661
6380 8662
6380 8664
6380 8665
6380 8666
6380 8667
6380 8668
6380 8680
6380 8681
6380 8683
6380 8791
6381 6382
6381 10074
6381 10132
6381 10204
6381 10205
6381 10206
6381 10207
6381 10208
6381 10209
6381 10210
6381 10211
6381 10212
6381 10273
6381 10336
6381 10337
6381 10393
6381 10399
6381 10577
6381 10579
6381 10681
6381 10698
6381 10699
6381 10763
6381 11039
6381 11044
6381 11045
6381 11049
6381 11051
6381 11054
6381 11055
6381 11056
6381 11057
6381 11058
6381 11059
6381 11060
6381 11061
6381 11062
6381 11063
6381 11067
6381 11068
6381 11070
6381 11072
6381 11073
6381 11074
6381 11075
6381 11077
6381 11078
6381 11079
6381 11080
6381 11081
6381 11085
6381 11086
6381 11088
6381 11090
6381 11091
6381 11092
6381 11093
6381 11094
6381 11096
6381 11097
6381 11098
6381 11099
6381 11100
6381 11101
6381 11159
6381 12007
6381 12620
6381 12621
6381 12622
6381 12624
6381 13021
6381 13095
6381 13096
6381 13500
6381 13502
6381 13503
6381 13504
6381 13540
6381 13541
6381 13542
6381 13543
6381 13551
6381 13553
6381 13556
6381 13557
6381 13558
6381 13559
6381 13562
6381 13564
6381 13565
6381 13566
6381 13567
6381 13568
6381 13569
6381 13570
6381 13571
6381 13573
6381 13575
6381 13576
6381 13580
6381 13581
6381 13582
6381 13583
6381 13584
6381 13585
6381 13587
6381 13591
6381 13592
6381 13593
6381 13598
6381 13599
6381 13602
6381 13603
6381 13605
6381 14232
6383 14234
6383 15147
6384 14852
6385 14856
6386 14648
6387 14856
6388 14241
6389 14090
6391 6392
6391 6393
6391 11009
6394 12007
6395 14720
6396 7203
6396 7253
6397 12007
6397 14939
6398 14215
6399 15182
6400 14316
6401 15085
6402 15022
6403 12007
6403 14939
6404 15548
6405 14856
6406 15374
6407 14241
6408 6409
6408 6410
6408 6411
6408 6412
6408 6413
6408 6414
6408 6415
6408 6416
6408 6417
6408 6418
6408 6419
6408 6420
6408 6421
6408 6422
6408 6423
6408 6424
6408 6425
6408 6426
6408 6427
6408 6428
6408 6429
6408 6430
6408 7301
6431 7301
6432 6433
6432 6434
6432 6435
6432 6436
6432 6437
6432 6438
6432 6439
6432 6440
6432 6441
6432 6442
6432 6443
6432 7301
6444 6449
6444 6450
6445 6446
6446 6447
6447 6448
6448 6449
6450 6451
6451 6452
6453 6919
6454 7117
6455 6456
6456 6457
6458 6459
6459 6460
6459 6461
6459 6462
6463 6464
6464 6465
6466 6467
6466 6468
6469 6470
6470 6471
6473 6474
6474 6475
6475 6476
6476 6477
6479 6480
6479 6486
6481 6482
6481 6486
6483 6484
6483 6486
6485 6488
6486 6488
6487 6488
6488 6489
6489 6490
6489 6491
6492 6493
6492 6494
6494 6495
6495 6496
6496 6497
6497 6498
6500 6501
6501 6502
6504 6505
6504 6515
6504 6516
6505 6506
6505 6510
6506 6507
6506 6508
6507 6509
6511 6512
6511 6516
6512 6513
6513 6514
6516 6517
6517 6518
6518 6519
6519 6520
6520 6521
6521 6522
6523 6524
6523 6525
6526 6527
6528 6529
6529 6530
6529 6531
6539 6540
6539 6542
6540 6541
6546 6547
6546 6548
6549 6550
6549 6551
6553 6554
6554 6555
6555 6556
6557 7253
6558 7253
6559 7253
6560 7253
6561 7253
6562 7253
6563 7253
6564 7253
6565 7253
6566 7253
6567 7253
6568 7253
6569 7253
6570 7253
6571 7128
6572 6573
6572 7128
6573 6574
6573 7128
6574 7128
6575 7253
6576 7253
6579 7253
6580 7516
6581 7592
6582 7592
6583 7592
6584 7253
6585 7253
6586 7618
6587 6589
6588 6589
6589 6590
6589 6591
6589 6592
6589 6593
6589 6594
6589 6595
6589 6596
6589 6597
6589 6598
6589 6599
6589 6600
6589 6601
6589 6602
6589 6603
6589 6604
6589 6605
6589 6606
6589 6607
6589 6608
6589 6609
6589 6610
6589 6611
6589 6612
6589 6613
6589 6614
6589 6615
6589 6616
6589 6617
6589 6618
6589 6619
6589 6620
6589 6621
6589 6622
6589 6623
6589 6624
6589 7301
6625 6644
6626 6644
6627 6644
6628 6644
6629 6644
6630 6644
6631 6644
6632 6644
6633 6644
6634 6644
6635 6644
6636 6644
6637 6644
6638 6644
6639 6644
6640 6644
6641 6644
6642 6644
6643 6644
6644 7253
6644 7301
6645 6678
6646 6678
6647 6678
6648 6678
6649 6678
6650 6678
6651 6678
6652 6678
6653 6678
6654 6678
6655 6678
6656 6678
6657 6678
6658 6678
6659 6678
6661 6678
6662 6678
6663 6678
6664 6678
6665 6678
6666 6678
6667 6678
6668 6678
6669 6678
6670 6678
6671 6678
6672 6678
6673 6678
6674 6678
6675 6678
6676 6678
6677 6678
6678 7253
6678 7301
6679 6716
6680 6716
6681 6716
6682 6716
6683 6716
6684 6716
6685 6716
6686 6716
6687 6716
6688 6716
6689 6716
6690 6716
6691 6716
6692 6716
6693 6716
6694 6716
6695 6716
6696 6716
6697 6716
6698 6716
6699 6716
6700 6716
6701 6716
6702 6716
6703 6716
6704 6716
6705 6716
6706 6716
6707 6716
6708 6716
6709 6716
6710 6716
6711 6716
6712 6716
6713 6716
6714 6716
6715 6716
6716 6717
6716 6718
6716 6719
6716 7253
6716 7300
6720 6749
6721 6749
6722 6749
6723 6749
6724 6749
6725 6749
6726 6749
6727 6749
6728 6749
6729 6749
6730 6749
6731 6749
6732 6749
6733 6749
6734 6749
6735 6749
6736 6749
6737 6749
6738 6749
6739 6749
6740 6749
6741 6749
6742 6749
6743 6749
6744 6749
6745 6749
6746 6749
6747 6749
6748 6749
6749 7253
6749 7300
6750 7516
6751 6788
6752 6788
6753 6788
6754 6788
6755 6788
6756 6788
6757 6788
6758 6788
6759 6788
6760 6788
6761 6788
6762 6788
6763 6788
6764 6788
6765 6788
6766 6788
6767 6788
6768 6788
6769 6788
6770 6788
6771 6788
6772 6788
6773 6788
6774 6788
6775 6788
6776 6788
6777 6788
6778 6788
6779 6788
6780 6788
6781 6788
6782 6788
6783 6788
6784 6788
6785 6788
6786 6788
6787 6788
6788 7253
6788 7301
6788 7379
6789 6803
6790 6803
6791 6803
6792 6803
6793 6803
6794 6803
6795 6803
6796 6803
6797 6803
6798 6803
6799 6803
6800 6803
6801 6803
6802 6803
6803 7253
6803 7300
6804 6880
6805 6880
6806 6880
6807 6880
6808 6880
6809 6880
6810 6880
6811 6880
6812 6880
6813 6880
6814 6880
6815 6880
6816 6880
6817 6880
6818 6880
6819 6880
6820 6880
6821 6880
6822 6880
6823 6880
6824 6880
6825 6880
6826 6880
6827 6880
6828 6880
6829 6880
6830 6880
6831 6880
6832 6880
6833 6880
6834 6880
6835 6880
6836 6880
6837 6880
6838 6880
6839 6880
6840 6880
6841 6880
6842 6880
6843 6880
6844 6880
6845 6880
6846 6880
6847 6880
6848 6880
6849 6880
6850 6880
6851 6880
6852 6880
6853 6880
6854 6880
6855 6880
6856 6880
6857 6880
6858 6880
6859 6880
6860 6880
6861 6880
6862 6880
6863 6880
6864 6880
6865 6880
6866 6880
6867 6880
6868 6880
6869 6880
6870 6880
6871 6880
6872 6880
6873 6880
6874 6880
6875 6880
6876 6880
6877 6880
6878 6880
6879 6880
6880 6881
6880 6882
6880 6883
6880 6884
6880 6885
6880 6886
6880 6887
6880 7085
6880 7086
6880 7087
6880 7088
6880 7089
6880 7090
6880 7253
6880 7300
6880 7363
6880 7366
6880 7371
6880 7373
6880 7374
6880 7375
6880 7376
6880 7377
6880 7378
6880 7380
6880 7381
6880 7384
6880 7385
6880 7386
6888 6919
6889 6919
6890 6919
6891 6919
6892 6919
6893 6919
6894 6919
6895 6919
6896 6919
6897 6919
6898 6919
6899 6919
6900 6919
6901 6919
6902 6919
6903 6919
6904 6919
6905 6919
6906 6919
6907 6919
6908 6919
6909 6919
6910 6919
6911 6919
6912 6919
6913 6919
6914 6919
6915 6919
6916 6919
6917 6919
6918 6919
6919 6920
6919 7253
6919 7301
6921 6932
6922 6932
6923 6932
6924 6932
6925 6932
6926 6932
6927 6932
6928 6932
6929 6932
6930 6932
6931 6932
6932 6933
6932 6934
6932 6935
6932 7253
6932 7301
6936 6963
6937 6963
6938 6963
6939 6963
6940 6963
6941 6963
6942 6963
6943 6963
6944 6963
6945 6963
6946 6963
6947 6963
6948 6963
6949 6963
6950 6963
6951 6963
6952 6963
6953 6963
6954 6963
6955 6963
6956 6963
6957 6963
6958 6963
6959 6963
6960 6963
6961 6963
6962 6963
6963 6964
6963 7253
6963 7300
6965 7014
6966 7014
6967 7014
6968 7014
6969 7014
6970 7014
6971 7014
6972 7014
6973 7014
6974 7014
6975 7014
6976 7014
6977 7014
6978 7014
6979 7014
6980 7014
6981 7014
6982 7014
6983 7014
6984 7014
6985 7014
6986 7014
6987 7014
6988 7014
6989 7014
6990 7014
6991 7014
6992 7014
6993 7014
6994 7014
6995 7014
6996 7014
6997 7014
6998 7014
6999 7014
7000 7014
7001 7014
7002 7014
7003 7014
7004 7014
7005 7014
7006 7014
7007 7014
7008 7014
7009 7014
7010 7014
7011 7014
7012 7014
7013 7014
7014 7253
7014 7300
7014 7364
7014 7365
7015 7043
7016 7043
7017 7043
7018 7043
7019 7043
7020 7043
7021 7043
7022 7043
7023 7043
7024 7043
7025 7043
7026 7043
7027 7043
7028 7043
7029 7043
7030 7043
7031 7043
7032 7043
7033 7043
7034 7043
7035 7043
7036 7043
7037 7043
7038 7043
7039 7043
7040 7043
7041 7043
7042 7043
7043 7253
7043 7301
7044 7070
7045 7070
7046 7070
7047 7070
7048 7070
7049 7070
7050 7070
7051 7070
7052 7070
7053 7070
7054 7070
7055 7070
7056 7070
7057 7070
7058 7070
7059 7070
7060 7070
7061 7070
7062 7070
7063 7070
7064 7070
7065 7070
7066 7070
7067 7070
7068 7070
7069 7070
7070 7253
7070 7300
7071 7592
7072 7592
7073 7592
7074 7592
7075 7592
7076 7078
7082 7301
7083 7301
7084 7117
7093 7095
7093 7253
7094 7253
7095 7096
7095 7097
7095 7098
7095 7099
7095 7100
7095 7101
7095 7102
7095 7103
7095 7253
7103 7253
7104 7219
7105 7300
7106 7300
7107 7300
7108 7301
7109 7300
7110 7300
7111 7301
7112 7301
7113 7301
7114 7300
7115 7300
7116 7300
7117 7301
7118 7300
7119 7300
7120 7300
7121 7300
7122 7300
7123 7300
7124 7300
7125 7300
7126 7301
7127 7300
7128 7253
7129 7300
7130 7301
7131 7300
7132 7300
7133 7300
7134 7300
7135 7301
7136 7300
7137 7300
7138 7300
7139 7300
7140 7300
7141 7300
7142 7300
7143 7300
7144 7300
7145 7300
7146 7300
7147 7300
7148 7300
7149 7300
7150 7300
7151 7300
7152 7300
7153 7300
7154 7300
7155 7301
7156 7300
7157 7300
7158 7300
7159 7300
7160 7301
7161 7300
7162 7300
7163 7300
7164 7301
7165 7301
7166 7300
7167 7301
7168 7300
7169 7300
7170 7300
7171 7300
7172 7301
7173 7301
7174 7300
7175 7300
7176 7300
7177 7301
7178 7300
7179 7300
7180 7301
7181 7301
7182 7300
7183 7301
7184 7301
7185 7301
7186 7301
7187 7301
7188 7301
7189 7301
7190 7301
7191 7301
7192 7301
7193 7301
7194 7301
7195 7301
7196 7301
7197 7301
7198 7219
7199 7219
7200 7219
7201 7219
7202 7253
7203 7204
7203 7205
7204 7205
7205 7369
7207 7219
7208 7219
7209 7219
7210 7219
7211 7219
7212 7219
7213 7219
7214 7219
7215 7219
7216 7219
7217 7219
7218 7219
7219 7220
7219 7221
7219 7222
7219 7223
7219 7224
7219 7225
7219 7226
7219 7227
7219 7228
7219 7229
7219 7230
7219 7231
7219 7232
7219 7233
7219 7234
7219 7235
7219 7236
7219 7237
7219 7238
7219 7239
7219 7240
7219 7241
7219 7242
7219 7243
7219 7244
7219 7245
7219 7246
7219 7247
7219 7248
7219 7249
7219 7250
7219 7251
7219 7252
7219 7253
7219 7254
7219 7255
7219 7256
7219 7257
7219 7258
7219 7259
7219 7260
7219 7267
7219 7268
7219 7269
7219 7270
7219 7271
7219 7272
7219 7273
7219 7274
7219 7275
7219 7276
7219 7277
7219 7278
7219 7279
7219 7280
7219 7281
7219 7282
7219 7283
7219 7284
7219 7285
7219 7286
7219 7287
7219 7288
7219 7289
7219 7290
7219 7291
7219 7292
7219 7293
7219 7294
7219 7295
7219 7296
7219 7297
7219 7298
7219 7302
7219 7303
7219 7304
7219 7305
7219 7306
7219 7307
7219 7308
7219 7309
7219 7310
7219 7311
7219 7312
7219 7313
7219 7314
7219 7315
7219 7316
7219 7317
7219 7318
7219 7319
7219 7320
7219 7321
7219 7322
7219 7323
7219 7324
7219 7325
7219 7326
7219 7327
7219 7328
7219 7329
7219 7330
7219 7331
7219 7332
7219 7333
7219 7334
7219 7335
7219 7336
7219 7337
7219 7338
7219 7339
7219 7340
7219 7341
7219 7342
7219 7343
7219 7344
7219 7345
7219 7346
7219 7347
7219 7348
7219 7349
7219 7350
7219 7351
7219 7352
7219 7353
7219 7354
7219 7355
7219 7356
7219 7357
7219 7358
7219 7359
7219 7360
7219 7361
7219 7362
7219 7367
7219 7370
7253 7448
7253 7481
7253 7516
7253 7535
7253 7592
7253 7618
7253 7647
7261 7301
7262 7301
7263 7301
7264 7301
7265 7301
7266 7301
7299 7301
7300 7448
7300 7481
7300 7516
7300 7592
7300 7618
7300 11012
7301 7535
7301 7647
7368 7618
7372 7448
7382 7618
7383 7618
7387 7448
7388 7448
7389 7448
7390 7448
7391 7448
7392 7448
7393 7448
7394 7448
7395 7448
7396 7448
7397 7448
7398 7448
7399 7448
7400 7448
7401 7448
7402 7448
7403 7448
7404 7448
7405 7448
7406 7448
7407 7448
7408 7448
7409 7448
7410 7448
7411 7448
7412 7448
7413 7448
7414 7448
7415 7448
7416 7448
7417 7448
7418 7448
7419 7448
7420 7448
7421 7448
7422 7448
7423 7448
7424 7448
7425 7448
7426 7448
7427 7448
7428 7448
7429 7448
7430 7448
7431 7448
7432 7448
7433 7448
7434 7448
7435 7448
7436 7448
7437 7448
7438 7448
7439 7448
7440 7448
7441 7448
7442 7448
7443 7448
7444 7448
7445 7448
7446 7448
7447 7448
7448 7449
7448 7450
7448 7451
7448 7452
7448 7453
7448 7454
7448 7455
7448 7456
7448 7457
7458 7592
7459 7592
7460 7481
7461 7481
7462 7481
7463 7481
7464 7481
7465 7481
7466 7481
7467 7481
7468 7481
7469 7481
7470 7481
7471 7481
7472 7481
7473 7481
7474 7481
7475 7481
7476 7481
7477 7481
7478 7481
7479 7481
7480 7481
7481 7482
7483 7516
7484 7516
7485 7516
7486 7516
7487 7516
7488 7516
7489 7516
7490 7516
7491 7516
7492 7516
7493 7516
7494 7516
7495 7516
7496 7516
7497 7516
7498 7516
7499 7516
7500 7516
7501 7516
7502 7516
7503 7516
7504 7516
7505 7516
7506 7516
7507 7516
7508 7516
7509 7516
7510 7516
7511 7516
7512 7516
7513 7516
7514 7516
7515 7516
7516 7517
7516 7518
7516 7519
7520 7535
7521 7535
7522 7535
7523 7535
7524 7535
7525 7535
7526 7535
7527 7535
7528 7535
7529 7535
7530 7535
7531 7535
7532 7535
7533 7535
7534 7535
7535 7536
7537 7592
7538 7592
7539 7592
7540 7592
7541 7592
7542 7592
7543 7592
7544 7592
7545 7592
7546 7592
7547 7592
7548 7592
7549 7592
7550 7592
7551 7592
7552 7592
7553 7592
7554 7592
7555 7592
7556 7592
7557 7592
7558 7592
7559 7592
7560 7592
7561 7592
7562 7592
7563 7592
7564 7592
7565 7592
7566 7592
7567 7592
7568 7592
7569 7592
7570 7592
7571 7592
7572 7592
7573 7592
7574 7592
7575 7592
7576 7592
7577 7592
7578 7592
7579 7592
7580 7592
7581 7592
7582 7592
7583 7592
7584 7592
7585 7592
7586 7592
7587 7592
7588 7592
7589 7592
7590 7592
7591 7592
7593 7618
7594 7618
7595 7618
7596 7618
7597 7618
7598 7618
7599 7618
7600 7618
7601 7618
7602 7618
7603 7618
7604 7618
7605 7618
7606 7618
7607 7618
7608 7618
7609 7618
7610 7618
7611 7618
7612 7618
7613 7618
7614 7618
7615 7618
7616 7618
7617 7618
7618 7619
7618 7620
7618 7621
7618 7622
7618 7623
7618 7624
7618 7625
7618 7626
7618 7627
7618 7628
7618 7629
7618 7630
7618 7631
7618 7632
7618 7633
7618 7634
7618 7635
7618 7636
7618 7637
7618 7638
7618 7639
7618 7640
7618 7641
7642 7647
7643 7647
7644 7647
7645 7647
7646 7647
7647 7648
7647 7649
7647 7650
7647 7651
7647 7652
7647 7653
7654 15085
7657 15182
7658 14218
7659 14229
7661 7662
7661 7663
7665 14218
7666 14856
7667 7668
7667 15411
7669 13613
7669 14238
7670 9289
7671 15099
7672 8050
7673 7957
7674 7957
7675 7957
7676 7957
7677 7957
7678 7957
7679 7957
7680 7958
7681 7958
7682 7958
7683 7958
7684 7958
7685 7958
7686 7958
7687 7958
7688 7958
7689 7958
7690 7958
7691 7958
7692 7957
7693 7957
7694 7957
7695 7957
7696 7957
7697 7957
7698 7957
7699 7957
7700 7957
7701 7957
7702 7957
7703 7957
7704 7957
7705 7957
7706 7957
7707 7957
7708 7957
7709 7957
7710 7957
7711 7957
7712 7963
7713 7963
7714 7963
7715 7963
7716 7963
7717 7963
7718 7963
7719 7963
7720 7963
7721 7963
7722 7963
7723 7963
7724 7963
7725 7963
7726 7963
7727 8504
7728 7955
7729 8047
7730 8377
7731 8290
7731 8377
7732 8377
7733 8377
7734 8377
7735 8377
7736 8377
7737 8377
7738 8377
7739 8377
7740 7741
7740 7742
7740 7743
7740 7744
7740 7745
7740 7746
7740 7747
7740 7748
7740 7749
7740 7750
7740 7751
7740 7752
7740 7753
7740 7754
7740 7755
7740 7756
7740 7757
7740 7758
7740 7759
7740 7760
7740 7939
7740 7955
7740 7956
7740 7957
7740 7958
7740 7959
7740 7961
7740 7962
7740 7963
7740 7969
7740 8047
7740 8048
7740 8049
7740 8415
7761 7955
7762 7955
7763 7955
7764 7955
7765 7955
7766 7955
7767 7955
7768 7955
7769 7955
7770 7955
7771 7955
7772 7955
7773 7955
7774 7955
7775 7955
7776 7955
7777 7955
7778 7955
7779 7955
7780 7955
7781 7958
7782 7958
7783 7958
7784 7958
7785 7958
7786 7958
7787 7958
7788 7961
7789 7961
7790 7961
7791 7961
7792 7961
7793 7961
7794 7961
7795 7961
7796 7961
7797 7961
7798 7961
7799 7961
7800 7961
7801 7961
7802 7961
7803 7961
7804 7961
7805 7961
7806 7961
7807 7961
7808 7961
7809 7961
7810 7961
7811 7961
7812 7961
7813 7961
7814 7961
7815 7961
7816 7961
7817 7961
7818 7961
7819 7961
7820 7961
7821 7961
7822 7961
7823 8050
7824 8377
7825 8377
7826 8377
7827 8377
7828 8377
7829 8377
7830 8377
7831 8290
7831 8377
7832 8377
7833 7959
7834 7959
7835 7959
7836 7959
7837 7959
7838 7959
7839 7959
7840 7959
7841 7959
7842 7959
7843 7959
7844 7959
7845 7959
7846 7959
7847 7959
7848 8228
7849 7952
7850 7963
7851 7963
7852 7963
7853 7963
7854 7963
7855 7963
7856 7963
7857 7963
7858 7963
7859 7963
7860 7963
7861 7963
7862 7963
7863 7963
7864 7963
7865 7963
7866 7963
7867 7963
7868 7963
7869 8047
7870 8290
7871 8504
7872 8047
7873 8047
7874 8047
7875 8047
7876 8290
7877 7889
7878 8047
7879 8047
7880 8047
7881 8047
7882 8047
7883 8047
7884 8047
7885 8047
7886 8047
7887 7889
7888 7889
7889 7890
7889 7891
7889 7892
7889 7893
7889 7894
7889 7895
7889 7896
7889 7897
7889 7898
7889 7899
7889 7900
7889 7901
7889 7902
7889 7903
7889 8036
7889 8047
7889 8163
7889 8316
7889 15506
7904 8290
7905 8228
7906 8351
7907 8504
7908 8048
7909 8048
7910 7955
7911 8048
7912 8048
7913 7956
7914 7956
7915 7956
7916 8048
7917 7951
7918 7971
7919 7957
7920 7957
7921 7957
7922 7957
7923 7957
7924 7957
7925 7957
7926 7956
7927 7956
7928 7956
7929 7956
7930 7956
7931 8048
7932 7955
7933 7963
7934 7956
7935 7956
7936 7957
7937 7955
7938 7957
7940 7957
7941 7963
7942 7955
7943 7955
7944 8048
7945 7957
7946 7955
7947 7955
7948 7956
7949 7956
7950 7955
7951 7953
7951 8047
7951 8048
7951 8049
7951 8051
7952 7953
7952 8047
7952 8048
7952 8049
7952 8051
7953 7955
7953 7956
7953 7957
7953 7958
7953 7959
7953 7961
7953 7962
7953 7963
7953 7971
7953 8051
7953 8415
7954 7955
7955 7956
7955 7957
7955 7958
7955 7959
7955 7961
7955 7962
7955 7963
7955 7965
7955 7969
7955 7972
7955 8010
7955 8014
7955 8043
7955 8044
7955 8045
7955 8046
7955 8047
7955 8048
7955 8049
7955 8055
7955 8059
7955 8169
7955 8170
7955 8171
7955 8172
7955 8173
7955 8174
7955 8175
7955 8176
7955 8177
7955 8178
7955 8179
7955 8180
7955 8181
7955 8182
7955 8183
7955 8184
7955 8185
7955 8376
7955 8415
7956 7957
7956 7958
7956 7959
7956 7961
7956 7962
7956 7963
7956 7969
7956 7973
7956 7974
7956 7975
7956 7976
7956 7977
7956 7978
7956 7979
7956 7980
7956 7981
7956 7982
7956 7983
7956 8047
7956 8048
7956 8049
7956 8061
7956 8188
7956 8189
7956 8415
7957 7958
7957 7959
7957 7961
7957 7962
7957 7963
7957 7969
7957 8047
7957 8048
7957 8049
7957 8415
7958 7959
7958 7961
7958 7962
7958 7963
7958 7969
7958 7984
7958 8047
7958 8048
7958 8049
7958 8256
7958 8257
7958 8258
7958 8259
7958 8260
7958 8261
7958 8262
7958 8263
7958 8264
7958 8265
7958 8266
7958 8415
7958 8510
7959 7961
7959 7962
7959 7963
7959 7969
7959 7985
7959 7986
7959 7987
7959 7988
7959 7989
7959 7990
7959 7991
7959 7992
7959 7993
7959 7994
7959 7995
7959 7996
7959 7997
7959 7998
7959 7999
7959 8033
7959 8042
7959 8047
7959 8048
7959 8049
7959 8415
7959 8785
7960 8047
7961 7962
7961 7963
7961 7969
7961 8047
7961 8048
7961 8049
7961 8415
7962 7963
7962 7969
7962 8000
7962 8001
7962 8047
7962 8048
7962 8049
7962 8267
7962 8268
7962 8269
7962 8270
7962 8271
7962 8272
7962 8273
7962 8274
7962 8275
7962 8276
7962 8277
7962 8278
7962 8279
7962 8280
7962 8281
7962 8282
7962 8283
7962 8284
7962 8285
7962 8415
7962 8483
7962 8484
7962 8485
7962 8486
7962 8487
7962 8488
7962 8489
7962 8490
7962 8491
7962 8492
7962 8493
7962 8494
7962 8495
7962 8496
7962 8497
7962 8498
7962 8499
7962 8500
7962 8501
7963 7969
7963 8002
7963 8047
7963 8048
7963 8049
7963 8415
7964 8047
7964 8054
7966 8048
7967 8048
7968 8048
7969 8415
7970 8054
7971 8048
7971 8049
7971 8051
8003 8048
8004 8048
8005 8048
8006 8787
8007 8787
8008 8351
8009 8787
8011 8048
8012 8787
8013 8787
8015 8048
8016 8351
8017 8228
8018 8049
8019 8049
8020 8049
8021 8049
8022 8049
8023 8049
8024 8049
8025 8049
8026 8049
8027 8049
8028 8049
8029 8787
8030 8048
8031 8787
8032 8047
8034 8504
8035 8047
8037 8228
8038 8787
8039 8083
8040 8050
8040 8083
8041 8050
8047 8048
8047 8049
8047 8050
8047 8051
8047 8052
8047 8053
8047 8054
8047 8083
8047 8136
8047 8137
8047 8138
8047 8139
8047 8144
8047 8145
8047 8146
8047 8147
8047 8152
8047 8168
8047 8195
8047 8222
8047 8223
8047 8228
8047 8287
8047 8290
8047 8310
8047 8351
8047 8397
8047 8400
8047 8415
8047 8471
8047 8479
8047 8481
8047 8482
8047 8504
8047 8507
8047 8508
8047 8526
8047 8538
8047 8539
8047 8540
8047 8541
8047 8542
8047 8543
8047 8544
8047 8545
8047 8546
8047 8547
8047 8548
8047 8549
8047 8550
8047 8551
8047 8552
8047 8553
8047 8554
8047 8555
8047 8556
8047 8557
8047 8558
8047 8559
8047 8560
8047 8561
8047 8623
8047 8624
8047 8625
8047 8626
8047 8627
8047 8628
8047 8629
8047 8630
8047 8631
8047 8632
8047 8633
8047 8634
8047 8635
8047 8636
8047 8637
8047 8638
8047 8639
8047 8640
8047 8641
8047 8642
8047 8643
8047 8644
8047 8645
8047 8646
8047 8647
8047 8648
8047 8649
8047 8650
8047 8651
8047 8652
8047 8653
8047 8654
8047 8655
8047 8656
8047 8657
8047 8658
8047 8659
8047 8660
8047 8661
8047 8662
8047 8663
8047 8664
8047 8665
8047 8666
8047 8667
8047 8668
8047 8680
8047 8681
8047 8683
8047 8710
8047 8787
8047 8791
8047 8806
8048 8049
8048 8050
8048 8051
8048 8052
8048 8053
8048 8054
8048 8057
8048 8067
8048 8134
8048 8164
8048 8165
8048 8166
8048 8191
8048 8391
8048 8395
8048 8396
8048 8415
8048 8478
8048 8530
8048 8531
8048 8532
8048 8533
8048 8534
8048 8535
8048 8536
8048 8537
8048 8562
8049 8050
8049 8051
8049 8052
8049 8053
8049 8054
8049 8415
8049 8437
8049 8438
8049 8439
8049 8440
8049 8441
8049 8442
8049 8443
8049 8444
8049 8445
8049 8446
8049 8447
8049 8448
8049 8449
8049 8450
8049 8451
8049 8452
8049 8453
8049 8454
8049 8455
8049 8456
8049 8457
8049 8458
8049 8459
8049 8460
8049 8461
8049 8462
8049 8463
8049 8464
8049 8465
8049 8466
8049 8467
8049 8468
8049 8469
8049 8470
8049 8472
8049 8473
8049 8474
8049 8475
8049 8476
8049 8477
8049 8562
8049 8684
8049 8685
8049 8686
8049 8687
8049 8688
8049 8689
8049 8690
8049 8691
8049 8692
8050 8051
8050 8052
8050 8053
8050 8054
8050 8056
8050 8058
8050 8065
8050 8088
8050 8089
8050 8093
8050 8094
8050 8096
8050 8099
8050 8110
8050 8111
8050 8113
8050 8114
8050 8115
8050 8123
8050 8159
8050 8160
8050 8522
8050 8596
8050 8677
8051 8052
8051 8053
8051 8054
8051 8562
8052 8053
8052 8054
8052 8252
8052 8562
8052 8824
8053 8054
8053 8192
8053 8562
8053 8609
8053 8610
8053 8611
8053 8612
8053 8613
8053 8614
8053 8615
8053 8616
8053 8617
8053 8618
8053 8619
8053 8620
8053 8621
8053 8741
8053 8742
8053 8743
8053 8744
8053 8745
8053 8746
8053 8747
8053 8748
8053 8749
8053 8750
8053 8751
8053 8752
8053 8753
8053 8754
8053 8755
8053 8756
8053 8757
8053 8758
8053 8759
8053 8760
8053 8761
8053 8762
8053 8763
8053 8764
8053 8765
8053 8766
8053 8767
8053 8768
8053 8769
8053 8770
8053 8771
8053 8772
8053 8773
8053 8774
8053 8775
8053 8776
8053 8777
8053 8778
8053 8779
8053 8780
8053 8781
8053 8782
8053 8783
8053 8784
8053 8813
8053 8814
8053 8815
8053 8816
8053 8817
8053 8818
8053 8819
8053 8820
8053 8821
8053 8822
8053 8823
8054 8151
8054 8153
8054 8562
8056 8083
8060 8351
8062 8083
8063 8083
8064 8083
8066 8083
8068 8787
8069 8787
8070 8787
8071 8787
8072 8787
8073 8787
8074 8787
8075 8228
8076 8083
8077 8083
8078 8083
8079 8083
8080 8083
8081 8083
8082 8083
8083 8084
8083 8085
8083 8086
8083 8087
8083 8088
8083 8089
8083 8090
8083 8091
8083 8092
8083 8095
8083 8096
8083 8097
8083 8098
8083 8099
8083 8100
8083 8101
8083 8102
8083 8103
8083 8104
8083 8105
8083 8106
8083 8107
8083 8108
8083 8109
8083 8112
8083 8113
8083 8116
8083 8117
8083 8118
8083 8125
8083 8126
8083 8127
8083 8128
8083 8129
8083 8130
8083 8132
8083 8133
8083 8161
8083 8162
8083 8167
8083 8186
8083 8522
8083 8527
8083 8528
8083 8529
8083 8599
8083 8678
8083 8679
8119 8290
8120 8290
8121 8351
8122 8351
8124 8787
8131 8290
8135 8351
8140 8710
8141 8710
8142 8710
8143 8246
8148 8710
8149 8710
8150 8787
8154 8787
8155 8290
8156 8290
8157 8290
8158 8351
8187 8351
8190 8351
8193 8228
8194 8787
8196 8787
8197 8351
8198 8351
8199 8351
8200 8787
8201 8787
8202 8787
8203 8787
8204 8787
8205 8787
8206 8787
8207 8787
8208 8787
8209 8787
8210 8787
8211 8787
8212 8787
8213 8787
8214 8787
8215 8787
8216 8787
8217 8787
8218 8787
8219 8787
8220 8787
8221 8787
8224 8228
8225 8228
8226 8228
8227 8228
8228 8229
8228 8230
8228 8231
8228 8232
8228 8233
8228 8234
8228 8235
8228 8236
8228 8237
8228 8238
8228 8239
8228 8240
8228 8241
8228 8242
8228 8243
8228 8244
8228 8245
8228 8286
8228 8399
8246 8247
8246 8248
8246 8249
8246 8250
8246 8251
8246 8252
8246 8253
8246 8254
8246 8255
8246 8401
8246 8402
8246 8403
8246 8404
8246 8405
8246 8406
8246 8407
8246 8408
8246 8409
8246 8511
8246 8512
8246 8513
8246 8514
8246 8515
8246 8516
8246 8517
8246 8518
8246 8519
8246 8520
8246 8521
8246 8563
8246 8564
8246 8565
8246 8566
8246 8567
8246 8568
8246 8569
8246 8570
8246 8602
8246 8603
8246 8604
8246 8605
8246 8606
8246 8607
8246 8608
8246 8734
8246 8735
8246 8736
8246 8737
8246 8738
8246 8739
8246 8740
8288 8787
8289 8290
8290 8291
8290 8292
8290 8293
8290 8294
8290 8295
8290 8296
8290 8297
8290 8298
8290 8299
8290 8300
8290 8301
8290 8302
8290 8303
8290 8304
8290 8305
8290 8306
8290 8307
8290 8308
8290 8309
8290 8311
8290 8312
8290 8392
8290 8393
8290 8394
8290 8671
8290 8682
8290 8793
8313 8351
8314 8351
8315 8351
8317 8351
8318 8351
8319 8351
8320 8351
8321 8351
8322 8351
8323 8351
8324 8351
8325 8351
8326 8351
8327 8351
8328 8351
8329 8351
8330 8351
8331 8351
8332 8351
8333 8351
8334 8351
8335 8351
8336 8351
8337 8351
8338 8351
8339 8351
8340 8351
8341 8351
8342 8351
8343 8351
8344 8351
8345 8351
8346 8351
8347 8351
8348 8351
8349 8351
8350 8351
8351 8352
8351 8353
8351 8354
8351 8355
8351 8356
8351 8357
8351 8358
8351 8359
8351 8360
8351 8361
8351 8362
8351 8363
8351 8364
8351 8375
8351 8622
8365 8374
8366 8374
8367 8374
8368 8374
8369 8374
8370 8374
8371 8374
8372 8374
8373 8374
8374 8669
8374 8670
8374 8671
8374 8672
8374 8673
8374 8674
8374 8675
8374 8676
8374 8695
8374 8696
8374 8697
8374 8698
8374 8699
8374 8700
8374 8701
8374 8702
8374 8703
8374 8704
8374 8705
8374 8706
8374 8707
8374 8708
8374 8709
8377 8378
8377 8379
8377 8380
8377 8381
8377 8382
8377 8383
8377 8384
8377 8385
8377 8386
8377 8387
8377 8388
8377 8389
8377 8390
8377 8792
8377 8794
8377 8795
8377 8796
8377 8797
8377 8798
8377 8799
8377 8800
8377 8801
8398 8787
8410 8415
8411 8415
8412 8415
8413 8415
8414 8415
8415 8416
8415 8417
8415 8418
8415 8419
8415 8420
8415 8421
8415 8422
8415 8423
8415 8424
8415 8425
8415 8426
8415 8427
8415 8428
8415 8429
8415 8430
8415 8431
8415 8432
8415 8433
8415 8434
8415 8435
8415 8436
8480 8663
8502 8504
8503 8504
8504 8505
8504 8506
8504 8509
8519 8787
8523 8787
8524 8787
8525 8787
8571 8710
8572 8710
8573 8710
8574 8710
8575 8710
8576 8710
8577 8710
8578 8710
8579 8710
8580 8710
8581 8710
8582 8710
8583 8710
8584 8710
8585 8710
8586 8710
8587 8710
8588 8710
8589 8710
8590 8710
8591 8710
8592 8710
8593 8710
8594 8710
8595 8710
8596 8599
8597 8710
8598 8710
8600 8710
8601 8710
8693 8787
8694 8787
8710 8711
8710 8712
8710 8713
8710 8714
8710 8715
8710 8716
8710 8717
8710 8718
8710 8719
8710 8720
8710 8721
8710 8722
8710 8723
8710 8724
8710 8725
8710 8726
8710 8727
8710 8728
8710 8729
8710 8730
8710 8731
8710 8732
8710 8733
8710 8825
8710 8826
8710 8827
8710 8828
8710 8829
8786 8787
8787 8788
8787 8789
8787 8790
8802 8806
8803 8804
8803 8805
8803 8806
8804 8806
8805 8806
8806 8807
8806 8808
8806 8809
8806 8810
8806 8811
8806 8812
8807 8808
8807 8810
8807 8812
8808 8809
8809 8810
8809 8812
8810 8811
8810 8812
8831 14241
8832 14011
8833 11008
8834 15374
8835 14648
8836 14852
8837 9126
8837 9128
8837 9284
8837 9288
8838 8904
8839 9283
8840 9278
8841 9278
8842 8904
8843 8904
8844 8904
8845 8904
8846 8904
8847 8904
8848 8904
8849 8904
8850 8904
8851 8904
8852 8904
8853 8904
8854 8904
8855 8904
8856 8904
8857 8904
8858 8904
8859 8904
8860 8904
8861 8904
8862 8904
8863 8904
8864 8904
8865 8904
8866 8904
8867 8904
8868 8904
8869 8904
8870 8904
8871 9283
8872 8904
8873 8904
8874 8904
8875 8904
8876 8904
8877 8904
8878 8904
8879 8904
8880 8904
8881 8904
8882 8904
8883 8904
8884 9283
8885 8904
8886 8904
8887 8904
8888 8904
8889 8904
8890 8904
8891 8904
8892 8904
8893 8904
8894 8904
8895 8904
8896 8904
8897 8904
8898 8904
8899 9283
8900 8904
8901 8904
8902 8904
8903 8904
8904 9131
8904 9209
8904 9274
8904 9275
8904 9276
8904 9278
8904 9279
8904 9280
8904 9283
8904 9288
8904 9289
8904 9696
8904 9697
8905 9283
8906 9286
8907 8915
8907 9286
8908 8910
8909 8910
8910 8911
8910 8913
8910 8915
8910 8916
8910 8917
8910 8918
8910 8920
8910 8921
8910 8922
8910 8923
8910 8924
8910 8925
8910 8928
8910 9286
8911 8913
8911 8914
8911 8915
8911 9128
8912 8915
8913 8915
8913 9286
8914 8915
8914 9286
8915 8919
8915 8926
8915 8927
8915 9286
8929 9286
8930 9286
8931 9289
8932 9279
8933 9289
8934 9279
8935 9289
8936 9279
8937 9279
8938 9289
8939 9279
8940 9279
8941 9289
8942 9279
8943 9279
8944 9279
8945 9279
8946 9279
8947 9279
8948 9289
8949 9279
8950 9289
8951 9279
8952 9279
8953 9279
8954 9289
8955 9279
8956 9289
8957 9279
8958 9279
8959 9289
8960 9289
8961 9279
8962 9289
8963 9279
8964 9289
8965 9279
8966 9279
8967 9279
8968 9279
8969 9279
8970 9289
8971 9289
8972 9289
8973 9289
8974 9279
8975 9279
8976 9279
8977 9279
8978 9279
8979 9279
8980 9279
8981 9279
8982 9279
8983 9279
8984 9279
8985 9279
8986 9279
8987 9289
8988 9279
8989 9279
8990 9279
8991 9279
8992 9279
8993 9279
8994 9279
8995 9279
8996 9289
8997 9289
8998 9289
8999 9279
9000 9279
9001 9279
9002 9279
9003 9279
9004 9279
9005 9279
9006 9279
9007 9279
9008 9279
9009 9279
9010 9289
9011 9289
9012 9289
9013 9289
9014 9289
9015 9289
9016 9289
9017 9289
9018 9279
9019 9279
9020 9289
9021 9289
9022 9279
9023 9289
9024 9289
9025 9289
9026 9279
9027 9289
9028 9289
9029 9289
9030 9289
9031 9289
9032 9276
9032 9289
9033 9279
9034 9289
9035 9279
9036 9289
9037 9289
9038 9279
9039 9276
9040 9289
9041 9276
9041 9289
9042 9276
9042 9289
9043 9276
9043 9289
9044 9289
9045 9289
9046 9289
9047 9289
9048 9289
9049 9289
9050 9289
9051 9289
9052 9289
9053 9289
9054 9289
9055 9289
9056 9289
9057 9289
9058 9289
9059 9289
9060 9289
9061 9289
9062 9279
9063 9279
9064 9279
9065 9279
9066 9279
9067 9279
9068 9279
9069 9289
9070 9279
9071 9279
9072 9279
9073 9289
9074 9279
9075 9289
9076 9279
9077 9289
9078 9289
9079 9279
9080 9289
9081 9289
9082 9289
9083 9276
9083 9289
9084 9279
9085 9279
9086 9279
9087 9279
9088 9289
9089 9289
9090 9289
9091 9289
9092 9289
9093 9289
9094 9289
9095 9279
9096 9289
9097 9289
9098 9289
9099 9276
9099 9289
9100 9279
9101 9279
9102 9279
9103 9279
9104 9289
9105 9289
9106 9279
9107 9279
9108 9279
9109 9279
9110 9279
9111 9279
9112 9279
9113 9279
9114 9279
9115 9279
9116 9279
9117 9279
9118 9279
9119 9289
9120 9279
9121 9289
9122 9289
9123 9279
9124 9125
9124 9126
9124 9128
9124 9284
9124 9288
9125 9126
9125 9127
9126 9127
9126 9128
9126 9135
9126 9284
9126 9288
9126 9863
9126 9864
9128 9135
9128 9284
9128 9285
9128 9852
9128 9853
9128 9861
9128 9863
9128 9864
9129 9133
9129 9134
9130 9276
9131 9132
9131 9133
9131 9134
9131 9209
9131 9274
9131 9275
9131 9278
9131 9279
9131 9280
9131 9283
9131 9696
9131 9697
9132 9133
9132 9134
9132 9276
9132 9288
9132 9695
9133 9276
9133 9288
9133 9695
9134 9276
9134 9288
9134 9695
9135 9284
9135 9288
9136 9278
9137 9279
9138 9279
9139 9279
9140 9279
9141 9279
9142 9279
9143 9279
9144 9279
9145 9280
9146 9279
9147 9279
9148 9279
9149 9279
9150 9279
9151 9279
9152 9279
9153 9279
9154 9289
9155 9274
9155 9289
9156 9279
9157 9279
9158 9279
9159 9279
9160 9280
9161 9279
9162 9279
9163 9275
9163 9289
9164 9274
9165 9279
9166 9285
9167 9279
9168 9279
9169 9279
9170 9279
9171 9280
9172 9279
9173 9279
9174 9279
9175 9279
9176 9279
9177 9279
9178 9279
9179 9279
9180 9275
9181 9279
9182 9279
9183 9279
9184 9279
9185 9279
9186 9289
9187 9289
9188 9279
9189 9274
9189 9289
9190 9278
9191 9279
9192 9274
9193 9274
9194 9274
9195 9274
9196 9274
9197 9274
9198 9289
9198 9300
9198 9426
9199 9274
9200 9274
9201 9279
9202 9275
9202 9289
9203 9279
9204 9279
9205 9279
9206 9279
9207 9279
9208 9289
9209 9274
9209 9275
9209 9278
9209 9279
9209 9280
9209 9283
9209 9288
9209 9289
9209 9695
9209 9696
9209 9697
9210 9289
9211 9289
9212 9279
9213 9279
9214 9279
9215 9289
9216 9289
9217 9289
9218 9289
9219 9289
9220 9279
9221 9279
9222 9289
9223 9289
9224 9289
9225 9289
9226 9289
9227 9289
9228 9279
9229 9279
9230 9279
9231 9289
9232 9279
9233 9289
9234 9279
9235 9289
9236 9289
9237 9279
9238 9279
9239 9289
9240 9289
9241 9289
9242 9279
9243 9289
9244 9289
9245 9289
9246 9289
9247 9279
9248 9279
9249 9289
9250 9279
9251 9279
9252 9289
9253 9289
9254 9289
9255 9289
9256 9289
9257 9279
9258 9279
9259 9279
9260 9279
9261 9289
9262 9279
9263 9279
9264 9279
9265 9279
9266 9274
9267 9279
9268 9279
9269 9279
9270 9274
9271 9279
9272 9287
9272 9891
9272 9892
9272 9893
9272 9894
9272 9895
9272 9896
9272 9897
9272 9898
9272 9899
9272 9900
9272 9901
9272 9902
9272 9903
9272 9904
9272 9905
9272 9906
9272 9907
9272 9908
9272 9909
9272 9910
9272 9911
9272 9912
9272 9913
9272 9914
9272 9915
9272 9916
9272 9917
9272 9918
9272 9919
9272 9920
9272 9921
9272 9922
9272 9923
9272 9924
9272 9925
9272 9926
9272 9927
9272 9928
9272 9929
9272 9930
9272 9931
9272 9932
9272 9933
9272 9934
9272 9935
9272 9936
9272 9937
9272 9938
9272 9939
9272 9940
9272 9941
9272 9942
9272 9943
9272 9944
9272 9945
9272 9946
9272 9947
9272 9948
9272 9949
9272 9950
9272 9951
9272 9952
9272 9953
9272 9954
9272 9955
9272 9956
9272 9957
9272 9958
9272 9959
9272 9960
9272 9961
9272 9962
9272 9963
9272 9964
9272 9965
9273 9279
9273 9289
9274 9275
9274 9278
9274 9279
9274 9280
9274 9281
9274 9283
9274 9288
9274 9289
9274 9300
9274 9303
9274 9324
9274 9330
9274 9331
9274 9332
9274 9333
9274 9342
9274 9343
9274 9344
9274 9345
9274 9346
9274 9347
9274 9348
9274 9350
9274 9351
9274 9352
9274 9361
9274 9371
9274 9373
9274 9383
9274 9385
9274 9387
9274 9395
9274 9401
9274 9413
9274 9416
9274 9427
9274 9429
9274 9433
9274 9434
9274 9449
9274 9454
9274 9455
9274 9491
9274 9492
9274 9526
9274 9536
9274 9542
9274 9545
9274 9547
9274 9548
9274 9549
9274 9550
9274 9557
9274 9561
9274 9572
9274 9594
9274 9595
9274 9596
9274 9597
9274 9598
9274 9599
9274 9600
9274 9601
9274 9658
9274 9691
9274 9695
9274 9696
9274 9697
9274 9706
9274 9710
9274 9728
9274 9731
9274 9736
9275 9276
9275 9278
9275 9279
9275 9280
9275 9281
9275 9283
9275 9288
9275 9289
9275 9426
9275 9527
9275 9602
9275 9696
9275 9697
9275 9707
9275 9713
9276 9279
9276 9288
9276 9289
9276 9300
9277 9289
9278 9279
9278 9280
9278 9281
9278 9283
9278 9288
9278 9289
9278 9695
9278 9696
9278 9697
9278 9890
9279 9280
9279 9281
9279 9283
9279 9288
9279 9289
9279 9291
9279 9293
9279 9294
9279 9296
9279 9298
9279 9299
9279 9300
9279 9301
9279 9302
9279 9305
9279 9306
9279 9307
9279 9309
9279 9310
9279 9316
9279 9317
9279 9318
9279 9319
9279 9322
9279 9323
9279 9325
9279 9327
9279 9328
9279 9329
9279 9334
9279 9335
9279 9336
9279 9337
9279 9338
9279 9341
9279 9353
9279 9354
9279 9355
9279 9356
9279 9357
9279 9358
9279 9359
9279 9360
9279 9362
9279 9363
9279 9364
9279 9365
9279 9366
9279 9367
9279 9368
9279 9369
9279 9370
9279 9372
9279 9374
9279 9375
9279 9377
9279 9378
9279 9380
9279 9381
9279 9386
9279 9388
9279 9389
9279 9390
9279 9392
9279 9393
9279 9394
9279 9396
9279 9397
9279 9398
9279 9399
9279 9400
9279 9403
9279 9404
9279 9405
9279 9406
9279 9407
9279 9408
9279 9410
9279 9411
9279 9412
9279 9414
9279 9415
9279 9417
9279 9418
9279 9420
9279 9421
9279 9422
9279 9423
9279 9424
9279 9432
9279 9435
9279 9436
9279 9437
9279 9438
9279 9439
9279 9440
9279 9441
9279 9444
9279 9445
9279 9446
9279 9447
9279 9448
9279 9450
9279 9451
9279 9456
9279 9457
9279 9458
9279 9459
9279 9460
9279 9461
9279 9462
9279 9463
9279 9464
9279 9465
9279 9466
9279 9467
9279 9468
9279 9469
9279 9470
9279 9471
9279 9472
9279 9473
9279 9475
9279 9476
9279 9477
9279 9478
9279 9479
9279 9480
9279 9481
9279 9482
9279 9483
9279 9484
9279 9485
9279 9486
9279 9488
9279 9490
9279 9494
9279 9495
9279 9496
9279 9497
9279 9498
9279 9499
9279 9500
9279 9501
9279 9502
9279 9503
9279 9504
9279 9505
9279 9506
9279 9507
9279 9508
9279 9509
9279 9510
9279 9511
9279 9512
9279 9513
9279 9514
9279 9515
9279 9516
9279 9519
9279 9520
9279 9521
9279 9522
9279 9523
9279 9524
9279 9525
9279 9528
9279 9531
9279 9532
9279 9533
9279 9534
9279 9535
9279 9537
9279 9538
9279 9539
9279 9540
9279 9543
9279 9544
9279 9558
9279 9559
9279 9560
9279 9562
9279 9563
9279 9564
9279 9565
9279 9567
9279 9568
9279 9569
9279 9570
9279 9571
9279 9573
9279 9574
9279 9575
9279 9577
9279 9578
9279 9580
9279 9581
9279 9583
9279 9585
9279 9587
9279 9590
9279 9591
9279 9592
9279 9605
9279 9606
9279 9607
9279 9608
9279 9609
9279 9610
9279 9611
9279 9612
9279 9613
9279 9614
9279 9615
9279 9616
9279 9617
9279 9618
9279 9619
9279 9620
9279 9621
9279 9622
9279 9623
9279 9624
9279 9625
9279 9626
9279 9627
9279 9628
9279 9629
9279 9630
9279 9631
9279 9632
9279 9633
9279 9634
9279 9635
9279 9636
9279 9637
9279 9638
9279 9639
9279 9640
9279 9641
9279 9642
9279 9643
9279 9644
9279 9645
9279 9646
9279 9647
9279 9648
9279 9649
9279 9650
9279 9651
9279 9652
9279 9653
9279 9654
9279 9655
9279 9656
9279 9657
9279 9677
9279 9679
9279 9680
9279 9681
9279 9683
9279 9684
9279 9685
9279 9687
9279 9688
9279 9690
9279 9692
9279 9693
9279 9696
9279 9697
9279 9700
9279 9701
9279 9702
9279 9704
9279 9705
9279 9708
9279 9711
9279 9712
9279 9715
9279 9716
9279 9717
9279 9718
9279 9720
9279 9721
9279 9722
9279 9724
9279 9725
9279 9729
9279 9730
9279 9733
9279 9734
9279 9735
9279 9737
9279 9738
9279 9740
9279 9791
9279 9839
9280 9281
9280 9283
9280 9288
9280 9289
9280 9321
9280 9376
9280 9379
9280 9384
9280 9489
9280 9517
9280 9518
9280 9566
9280 9674
9280 9675
9280 9676
9280 9695
9280 9696
9280 9697
9280 9714
9280 9723
9280 9732
9281 9283
9281 9288
9281 9289
9281 9695
9281 9849
9281 9850
9282 9289
9283 9288
9283 9289
9283 9695
9283 9696
9283 9697
9283 9709
9284 9285
9284 9289
9284 9858
9284 9859
9284 9863
9284 9864
9284 9872
9284 9873
9284 9874
9284 9875
9284 9876
9284 9877
9284 9878
9284 9879
9284 9880
9284 9881
9284 9882
9284 9883
9284 9884
9284 9885
9284 9886
9284 9887
9285 9288
9285 9289
9285 9851
9285 9852
9285 9853
9285 9854
9285 9855
9285 9856
9285 9857
9285 9861
9285 9865
9287 9865
9287 9866
9287 9867
9287 9868
9287 9869
9287 9870
9287 9871
9288 9289
9288 9300
9288 9696
9288 9782
9288 9783
9288 9804
9288 9821
9288 9825
9288 9848
9288 9852
9288 9853
9288 9860
9288 9861
9288 9863
9288 9864
9288 9888
9288 9966
9288 9967
9289 9290
9289 9292
9289 9295
9289 9297
9289 9303
9289 9304
9289 9308
9289 9311
9289 9312
9289 9313
9289 9314
9289 9315
9289 9320
9289 9321
9289 9326
9289 9339
9289 9340
9289 9349
9289 9376
9289 9382
9289 9391
9289 9402
9289 9409
9289 9416
9289 9419
9289 9425
9289 9428
9289 9430
9289 9431
9289 9442
9289 9443
9289 9452
9289 9453
9289 9474
9289 9487
9289 9489
9289 9492
9289 9493
9289 9517
9289 9518
9289 9529
9289 9530
9289 9541
9289 9546
9289 9551
9289 9552
9289 9553
9289 9554
9289 9555
9289 9556
9289 9561
9289 9566
9289 9576
9289 9579
9289 9582
9289 9584
9289 9586
9289 9588
9289 9589
9289 9593
9289 9601
9289 9603
9289 9604
9289 9658
9289 9659
9289 9660
9289 9661
9289 9662
9289 9663
9289 9664
9289 9665
9289 9666
9289 9667
9289 9668
9289 9669
9289 9670
9289 9671
9289 9672
9289 9673
9289 9674
9289 9675
9289 9676
9289 9678
9289 9682
9289 9686
9289 9689
9289 9694
9289 9696
9289 9697
9289 9703
9289 9710
9289 9719
9289 9726
9289 9727
9289 9739
9289 9741
9289 9742
9289 9743
9289 9744
9289 9745
9289 9746
9289 9747
9289 9748
9289 9749
9289 9750
9289 9751
9289 9752
9289 9753
9289 9754
9289 9755
9289 9756
9289 9757
9289 9758
9289 9759
9289 9760
9289 9761
9289 9762
9289 9763
9289 9764
9289 9765
9289 9766
9289 9767
9289 9768
9289 9769
9289 9770
9289 9771
9289 9772
9289 9773
9289 9774
9289 9775
9289 9776
9289 9777
9289 9778
9289 9779
9289 9780
9289 9781
9289 9782
9289 9783
9289 9784
9289 9785
9289 9786
9289 9787
9289 9788
9289 9789
9289 9790
9289 9792
9289 9793
9289 9794
9289 9795
9289 9796
9289 9797
9289 9798
9289 9799
9289 9800
9289 9801
9289 9802
9289 9803
9289 9804
9289 9805
9289 9806
9289 9807
9289 9808
9289 9809
9289 9810
9289 9811
9289 9812
9289 9813
9289 9814
9289 9815
9289 9816
9289 9817
9289 9818
9289 9819
9289 9820
9289 9821
9289 9822
9289 9823
9289 9824
9289 9825
9289 9826
9289 9827
9289 9828
9289 9829
9289 9830
9289 9831
9289 9832
9289 9833
9289 9834
9289 9835
9289 9836
9289 9837
9289 9838
9289 9840
9289 9841
9289 9842
9289 9843
9289 9844
9289 9845
9289 9846
9289 9847
9289 9848
9289 9865
9300 9694
9300 9770
9300 9771
9300 9772
9300 9773
9300 9774
9300 9775
9300 9776
9300 9777
9300 9778
9300 9779
9300 9780
9300 9781
9300 9782
9300 9783
9300 9790
9300 9798
9300 9799
9300 9800
9300 9801
9300 9802
9300 9803
9300 9804
9300 9805
9300 9806
9300 9807
9300 9808
9300 9809
9300 9810
9300 9811
9300 9812
9300 9813
9300 9814
9300 9816
9300 9817
9300 9818
9300 9819
9300 9820
9300 9821
9300 9822
9300 9823
9300 9824
9300 9825
9300 9826
9300 9827
9300 9828
9300 9829
9300 9830
9300 9831
9300 9847
9300 9848
9300 9862
9695 9696
9695 9697
9696 9697
9696 9698
9696 9699
9851 9852
9852 9853
9852 9854
9852 9855
9852 9856
9852 9857
9853 9857
9889 9966
9892 9910
9893 9910
9895 9910
9902 9910
9903 9910
9904 9910
9909 9912
9909 9959
9910 9912
9910 9917
9911 9912
9968 14506
9968 14508
9969 10042
9969 10074
9970 9973
9971 10042
9971 10074
9972 10042
9973 9999
9973 10027
9973 10042
9973 10051
9973 10074
9973 10324
9974 10042
9975 10042
9976 10042
9977 10042
9978 10042
9979 10049
9980 10049
9981 10049
9982 10042
9983 10049
9984 10049
9985 10049
9986 10049
9987 10049
9988 10049
9989 10049
9990 10049
9991 10049
9992 10049
9993 10042
9993 10049
9994 10042
9994 10049
9995 10042
9996 10042
9996 10074
9997 10042
9998 9999
9999 10027
9999 10042
9999 10051
9999 10074
9999 10324
10000 10042
10000 10074
10001 10042
10001 10074
10002 10042
10002 10074
10003 10042
10003 10074
10004 10042
10005 10042
10005 10049
10006 10042
10006 10049
10007 10042
10007 10049
10008 10042
10008 10074
10009 10042
10009 10074
10010 10042
10010 10074
10011 10042
10011 10074
10011 10085
10012 10085
10013 10085
10014 10085
10015 10085
10016 10085
10017 10085
10018 10085
10019 10085
10020 10085
10021 10085
10022 10042
10022 10074
10023 10042
10024 10042
10025 10027
10026 10042
10027 10042
10027 10051
10027 10074
10027 10324
10028 10085
10029 10049
10030 10049
10031 10049
10032 10085
10033 10085
10034 10085
10035 10085
10036 10085
10037 10042
10037 10085
10038 10042
10039 10042
10039 10085
10040 10042
10041 10042
10041 10085
10042 10043
10042 10051
10042 10066
10042 10070
10042 10071
10042 10074
10042 10081
10042 10085
10042 10113
10042 10133
10042 10257
10042 10324
10042 10339
10042 10360
10042 10580
10042 10728
10042 10820
10042 10821
10042 10847
10042 10848
10042 10850
10042 10859
10042 10862
10042 10902
10042 10903
10042 12814
10044 10049
10045 10049
10046 10049
10047 10049
10048 10049
10049 10052
10049 10053
10049 10054
10049 10055
10049 10075
10049 10124
10049 10125
10049 10136
10050 10051
10051 10074
10056 10085
10057 10085
10058 10085
10059 10085
10060 10085
10061 10085
10062 10085
10063 10085
10064 10085
10065 10085
10067 10250
10067 10253
10067 10847
10067 10848
10068 10848
10069 11650
10069 11664
10069 11665
10069 11666
10069 11667
10069 11668
10069 11669
10069 11670
10069 11671
10069 11672
10069 11673
10069 11674
10069 11675
10069 11676
10069 11677
10069 11678
10069 11679
10069 11680
10069 11681
10069 11682
10069 11684
10069 11685
10069 11686
10069 11688
10069 11694
10069 11695
10069 11696
10069 11697
10069 11698
10069 11699
10069 11704
10069 11705
10069 11706
10069 11708
10069 11709
10069 11710
10069 11711
10069 11712
10069 11713
10069 11714
10069 11715
10069 11716
10069 11999
10069 12007
10069 12496
10069 12497
10069 12498
10069 12500
10069 13204
10069 13271
10069 13272
10069 13295
10069 13296
10069 13305
10071 10348
10071 10364
10071 10690
10071 10728
10071 10848
10071 10850
10071 10859
10071 10874
10071 10903
10072 11066
10073 10498
10073 11717
10073 11749
10073 11779
10073 11783
10073 11784
10073 11785
10073 11786
10073 11787
10073 11788
10073 11999
10073 12007
10073 12258
10073 12263
10073 12265
10073 12266
10073 12480
10073 12481
10073 12482
10073 12483
10073 12484
10073 12485
10073 12486
10073 12487
10073 12495
10073 12503
10073 12505
10073 12507
10073 12508
10073 12509
10073 12510
10073 12511
10073 12512
10073 12513
10073 12514
10073 12518
10073 12519
10073 12521
10073 12522
10073 12523
10073 12524
10073 12525
10073 12526
10073 12529
10073 12530
10073 12531
10073 12533
10073 12537
10073 12538
10073 12539
10073 12542
10073 12548
10073 12551
10073 12552
10073 12553
10073 12554
10073 12555
10073 12556
10073 12557
10073 12558
10073 12559
10073 12560
10073 12561
10073 12562
10073 12564
10073 12566
10073 12567
10073 12568
10073 12570
10073 12574
10073 12575
10073 12580
10073 12583
10073 12585
10073 12586
10073 12587
10073 12590
10073 12591
10073 12592
10073 12597
10073 12984
10073 13074
10073 13098
10073 13099
10073 13100
10073 13103
10073 13104
10073 13109
10073 13201
10074 10152
10074 10169
10074 10170
10074 10174
10074 10175
10074 10176
10074 10179
10074 10180
10074 10181
10074 10184
10074 10185
10074 10187
10074 10188
10074 10190
10074 10227
10074 10228
10074 10229
10074 10230
10074 10274
10074 10276
10074 10277
10074 10280
10074 10281
10074 10282
10074 10284
10074 10285
10074 10286
10074 10287
10074 10288
10074 10295
10074 10296
10074 10304
10074 10305
10074 10306
10074 10310
10074 10314
10074 10318
10074 10321
10074 10324
10074 10340
10074 10580
10074 10581
10074 10583
10074 10584
10074 10585
10074 10586
10074 10588
10074 10600
10074 10601
10074 10602
10074 10606
10074 10615
10074 10616
10074 10632
10074 10633
10074 10690
10074 10723
10074 10725
10074 10726
10074 10728
10074 10730
10074 10775
10074 10777
10074 10820
10074 10821
10074 10848
10074 10850
10074 10859
10074 10875
10074 10903
10074 10990
10074 10991
10074 12007
10074 12270
10074 13575
10074 14232
10076 12578
10077 10085
10078 10085
10079 10085
10080 10085
10082 10085
10083 10085
10084 10085
10085 10086
10085 10087
10085 10088
10085 10089
10085 10090
10085 10101
10085 10102
10085 10103
10085 10104
10085 10122
10085 10123
10085 10129
10085 10130
10085 10131
10085 10139
10085 10143
10085 10145
10085 10146
10085 10147
10085 10148
10085 10149
10085 10701
10085 10702
10085 10703
10085 10704
10085 10705
10085 10706
10085 10707
10085 10820
10085 10821
10091 10092
10092 10093
10092 10094
10092 10095
10092 10096
10092 10097
10092 10098
10092 10099
10092 10100
10092 10105
10092 10106
10092 10107
10092 10108
10092 10109
10092 10110
10092 10111
10092 10112
10092 10114
10092 10115
10092 10116
10092 10117
10092 10118
10092 10119
10092 10120
10092 10121
10092 10126
10092 10127
10092 10134
10092 10135
10092 10137
10092 10138
10092 10857
10128 11999
10128 12000
10128 12007
10128 12578
10140 10142
10140 10690
10141 10142
10141 10857
10142 10214
10142 10857
10142 13576
10142 13578
10144 13578
10150 10821
10151 10821
10153 10728
10154 10725
10155 12270
10156 12270
10157 10690
10158 10690
10159 10690
10160 10690
10161 11068
10162 10580
10163 10903
10164 10580
10164 10903
10165 10580
10165 10903
10166 10580
10166 10903
10167 10580
10168 10580
10169 10580
10170 10580
10171 10580
10172 10580
10173 10580
10174 10580
10175 10580
10176 10580
10177 10580
10177 10903
10178 10580
10178 10903
10179 10580
10179 10903
10180 10580
10181 10580
10181 10903
10182 10580
10183 10580
10184 10580
10185 10580
10186 10580
10187 10580
10188 10580
10189 10580
10190 10580
10190 10725
10190 10730
10191 10580
10192 10580
10193 10580
10194 10580
10195 10580
10196 10903
10197 10903
10198 10580
10199 13358
10200 13358
10201 13358
10202 11062
10203 10681
10203 11062
10204 10681
10204 11062
10205 10681
10205 11062
10207 11061
10208 11062
10209 11068
10212 11068
10213 10214
10214 10215
10214 10690
10216 10820
10217 10218
10217 10219
10217 10220
10218 10232
10219 10232
10220 10232
10221 10820
10222 10848
10223 10228
10224 10230
10225 10229
10226 10903
10227 10228
10227 10229
10227 10230
10227 10244
10227 10274
10227 10275
10227 10276
10227 10277
10227 10281
10227 10282
10227 10283
10227 10284
10227 10285
10227 10286
10227 10287
10227 10288
10227 10289
10227 10290
10227 10291
10227 10293
10227 10294
10227 10295
10227 10296
10227 10298
10227 10299
10227 10314
10227 10317
10227 10318
10227 10319
10227 10320
10227 10321
10228 10229
10228 10230
10228 10318
10228 10324
10229 10230
10229 10318
10229 10324
10230 10318
10230 10324
10231 13346
10232 10238
10232 10239
10232 10241
10232 10242
10232 10243
10232 10244
10233 10243
10233 10831
10234 10235
10234 10243
10234 10831
10235 10237
10235 10238
10235 10246
10235 10248
10235 10249
10235 10251
10235 10252
10235 10255
10235 10847
10236 10237
10236 10238
10236 10240
10236 10246
10237 10238
10237 10246
10237 10249
10240 10257
10241 10244
10245 10820
10246 10249
10247 10250
10250 10254
10250 10264
10251 10252
10251 10255
10256 10257
10256 10831
10257 10690
10257 10728
10257 10830
10257 10831
10257 10848
10257 10850
10257 10859
10257 10873
10257 10902
10257 10903
10257 10913
10257 10914
10257 10915
10257 10916
10257 12270
10258 10831
10259 10260
10259 10261
10259 10266
10260 10261
10260 10262
10260 10263
10260 10264
10260 10265
10260 10266
10260 10267
10260 10268
10260 10269
10260 10270
10260 10271
10260 10272
10261 10262
10261 10266
10261 10267
10261 10271
10262 10266
10263 10264
10263 10268
10263 10269
10263 10270
10263 10272
10263 10820
10264 10268
10264 10269
10264 10270
10265 10268
10265 10269
10266 10271
10268 10269
10268 10270
10268 10272
10269 10270
10273 11061
10274 10275
10274 10286
10275 10277
10275 10282
10275 10286
10275 10287
10275 10288
10278 10289
10279 10289
10280 10285
10280 10289
10281 10282
10281 10286
10282 10286
10283 10289
10283 10305
10284 10289
10285 10289
10286 10287
10286 10288
10289 10290
10289 10291
10289 10321
10292 10297
10293 10305
10295 10297
10295 10299
10296 10297
10297 10298
10297 10299
10298 10299
10300 10903
10301 10305
10301 10311
10302 10305
10303 10311
10304 10305
10304 10311
10305 10315
10305 10316
10306 10307
10306 10308
10306 10310
10306 10313
10306 10326
10306 10329
10308 10309
10308 10311
10309 10311
10310 10313
10310 10329
10311 10314
10311 10315
10311 10316
10312 10903
10313 10326
10313 10329
10315 10316
10315 10367
10322 10831
10323 10903
10324 10580
10324 10723
10324 10725
10324 10726
10324 10728
10324 10730
10324 10850
10324 10859
10324 10902
10324 10903
10325 10326
10325 10329
10326 10327
10326 10329
10327 10329
10328 10329
10328 10333
10329 10330
10329 10331
10329 10332
10329 10333
10329 10334
10329 10335
10329 10338
10330 10333
10336 11061
10337 11061
10339 10690
10339 10728
10339 10848
10339 10850
10339 10859
10340 10342
10341 10342
10341 10346
10342 10346
10343 10344
10343 10346
10343 10347
10344 10346
10344 10347
10344 10348
10345 10346
10345 10352
10346 10347
10346 10348
10346 10349
10346 10350
10346 10351
10346 10352
10347 10348
10347 10349
10349 10350
10350 10831
10351 10352
10353 10354
10353 10357
10353 10364
10354 10364
10355 10357
10355 10364
10356 10359
10356 10364
10357 10364
10358 10359
10358 10364
10359 10364
10360 10690
10360 10728
10360 10848
10360 10850
10360 10859
10361 10364
10362 10364
10363 10364
10365 10848
10366 10903
10367 10372
10368 10372
10368 10820
10369 10372
10369 10380
10370 10820
10371 10372
10372 10374
10372 10375
10372 10378
10372 10379
10373 10376
10374 10376
10375 10376
10376 10377
10377 10820
10378 10380
10379 10380
10379 10831
10381 10382
10382 10820
10383 11846
10383 13330
10384 13315
10384 13330
10385 12981
10385 13315
10385 13330
10386 13315
10386 13330
10387 12981
10387 13315
10387 13330
10388 13330
10389 13315
10389 13330
10390 12981
10390 13330
10391 13330
10392 13315
10392 13330
10393 11068
10394 14506
10394 14508
10395 13330
10395 13340
10396 13330
10396 13340
10397 13330
10397 13340
10398 14506
10398 14508
10399 11061
10400 12444
10401 13330
10402 13318
10402 13330
10403 13318
10403 13330
10404 12981
10404 13318
10404 13330
10405 12981
10405 13318
10405 13330
10406 12007
10406 13318
10406 13330
10407 13318
10407 13330
10408 13318
10408 13330
10409 13318
10409 13330
10410 13318
10410 13330
10411 13318
10411 13330
10412 13318
10412 13330
10413 13318
10413 13330
10414 13318
10414 13330
10415 10439
10416 10439
10417 10439
10418 10439
10419 10439
10420 10439
10421 10439
10422 10439
10423 10424
10423 10439
10425 10439
10426 10439
10427 10439
10428 10439
10429 10439
10430 10439
10431 10439
10432 10439
10433 10439
10434 10439
10435 10439
10436 10439
10437 10439
10438 10439
10439 10440
10439 10441
10439 10442
10439 10443
10439 10444
10439 10445
10439 10446
10439 10447
10439 10448
10439 10449
10439 10450
10439 10451
10439 10452
10439 10453
10439 10454
10439 10455
10439 11537
10439 11538
10439 11539
10439 11540
10439 11541
10439 11995
10439 12007
10439 12108
10453 13158
10456 13258
10457 10483
10457 10491
10458 10483
10458 10491
10459 10460
10459 10483
10459 10491
10460 10461
10460 10483
10460 10491
10461 10483
10461 10491
10462 10463
10462 10483
10462 10491
10462 12007
10463 10464
10463 10465
10463 10466
10463 10467
10463 10483
10463 10491
10464 10483
10464 10491
10465 10483
10465 10491
10466 10483
10466 10491
10467 10483
10467 10491
10468 10483
10468 10491
10469 10470
10469 10483
10470 10471
10470 10483
10471 10472
10471 10483
10472 10483
10473 10474
10473 10483
10474 10475
10474 10483
10475 10483
10476 10483
10477 10478
10477 10483
10478 10479
10478 10483
10479 10480
10479 10483
10480 10481
10480 10483
10481 10482
10481 10483
10481 10491
10482 10483
10482 10491
10483 10484
10483 10485
10483 10486
10483 10487
10483 10488
10483 10489
10483 10490
10483 10492
10483 10493
10483 10494
10483 10495
10483 10496
10483 12007
10485 10491
10486 10487
10486 10488
10486 10491
10487 10491
10488 10491
10489 10491
10490 10491
10491 10492
10491 10493
10491 10494
10491 10495
10491 10496
10491 10498
10491 10499
10491 11718
10491 12007
10491 12466
10491 12467
10491 12469
10491 12470
10491 12483
10491 12484
10491 12503
10491 12508
10491 12510
10491 12512
10491 12513
10491 12514
10491 12517
10491 12518
10491 12519
10491 12521
10491 12522
10491 12529
10491 12630
10491 12767
10491 12768
10491 12771
10491 12772
10491 12797
10491 12823
10491 12824
10491 13033
10491 13034
10491 13047
10491 13064
10491 13074
10491 13076
10491 13392
10493 10494
10494 10495
10494 10496
10497 12981
10497 13366
10499 10512
10500 10680
10501 10680
10501 13032
10502 10680
10503 10680
10504 10680
10505 10680
10506 10680
10507 10680
10508 10680
10509 10680
10510 10680
10511 10680
10512 10515
10512 10516
10512 11723
10512 12000
10512 12469
10512 12517
10512 12630
10512 13033
10512 13034
10512 13064
10512 13076
10513 10680
10514 10680
10515 10680
10516 10680
10516 11746
10517 10680
10517 13032
10518 10542
10519 10542
10519 11995
10519 12007
10520 10542
10520 11846
10521 10542
10522 10542
10523 10542
10524 10542
10525 11995
10526 13555
10527 10542
10528 10542
10529 10542
10530 10542
10531 10542
10532 10542
10533 10542
10534 10542
10535 10542
10536 10542
10537 10542
10538 10542
10539 10542
10540 10542
10541 10542
10542 10543
10542 10544
10542 10545
10542 10546
10542 10547
10542 10548
10542 10549
10542 10550
10542 10551
10542 10552
10542 10553
10542 10554
10542 10555
10542 10556
10542 10557
10542 10558
10542 10559
10542 10560
10542 10561
10542 10562
10542 10563
10542 10564
10542 10565
10542 10566
10542 10567
10542 10568
10542 10569
10542 10570
10542 10571
10542 10572
10542 10573
10542 11995
10542 12007
10572 11846
10574 11956
10575 10680
10576 10680
10578 10690
10579 11059
10579 11086
10579 12621
10579 13593
10579 13594
10579 13595
10579 13596
10579 13597
10579 13598
10579 13599
10579 13600
10579 13601
10579 13602
10580 10654
10580 10725
10580 10728
10580 10730
10580 10850
10580 10859
10580 10863
10581 10728
10582 10589
10582 10591
10582 10594
10582 10595
10582 10728
10583 10728
10584 10728
10585 10728
10586 10728
10587 10589
10587 10591
10587 10594
10587 10728
10588 10728
10589 10591
10589 10594
10589 10595
10589 10605
10589 10632
10590 10591
10590 10595
10590 10632
10591 10594
10591 10595
10591 10605
10591 10608
10591 10632
10592 10595
10592 10632
10593 10595
10593 10632
10594 10595
10594 10605
10594 10728
10594 10903
10595 10605
10595 10632
10595 10728
10596 10632
10596 10728
10597 10728
10597 10903
10598 10728
10598 10903
10599 10728
10599 10903
10600 10632
10600 10728
10601 10728
10601 10903
10602 10728
10602 10903
10603 10611
10603 10728
10604 10611
10604 10728
10605 10728
10606 10728
10607 10728
10608 10632
10609 10875
10610 10632
10611 10612
10611 10613
10611 10614
10611 10632
10612 10632
10613 10903
10614 10632
10615 10728
10616 10728
10617 10728
10618 10728
10619 10728
10620 10728
10621 10632
10622 10632
10623 10728
10624 10728
10625 10632
10626 10632
10627 10728
10628 10728
10629 10728
10630 10903
10631 10903
10632 10635
10632 10636
10632 10637
10632 10638
10632 10639
10632 10728
10632 10753
10632 10754
10632 10755
10632 10756
10632 10757
10632 10758
10632 10759
10632 10760
10632 10761
10632 10762
10632 10852
10632 10853
10632 10875
10632 10876
10632 10877
10632 10878
10632 10879
10632 10880
10632 10881
10632 10882
10632 10903
10632 12270
10633 10723
10633 10726
10633 10728
10634 10903
10640 10903
10641 10903
10642 10903
10643 10903
10644 10903
10645 12270
10646 12270
10647 12270
10648 12270
10649 12270
10650 12270
10651 12270
10652 12270
10653 12270
10655 10690
10656 10690
10657 10690
10658 10690
10659 10690
10660 10690
10661 10690
10662 10690
10663 10690
10664 10690
10665 10690
10666 10690
10667 10690
10668 10690
10669 10690
10670 10690
10671 10690
10672 10690
10673 10690
10674 10690
10675 10690
10676 10690
10677 10690
10678 10690
10679 10690
10680 11723
10680 11724
10680 11725
10680 11726
10680 11727
10680 11728
10680 11729
10680 11730
10680 11731
10680 11732
10680 11733
10680 11734
10680 11735
10680 11736
10680 11737
10680 11738
10680 11741
10680 11742
10680 11744
10680 11746
10680 11756
10680 11758
10680 11759
10680 11760
10680 11761
10680 11762
10680 11763
10680 11764
10680 11765
10680 11766
10680 11767
10680 11768
10680 11769
10680 11770
10680 11771
10680 11772
10680 11781
10680 12007
10680 12476
10680 13101
10680 13190
10682 10685
10683 10690
10684 10685
10684 10688
10684 10690
10684 10692
10684 10696
10685 10688
10685 10690
10685 10692
10686 10690
10687 10690
10688 10690
10688 10692
10688 10697
10689 10690
10690 10691
10690 10692
10690 10693
10690 10694
10690 10820
10690 10821
10690 10847
10690 10848
10690 10862
10690 10903
10690 12814
10692 10695
10698 11062
10699 11062
10700 11068
10708 10903
10709 10903
10710 11976
10711 11976
10712 10903
10713 10903
10714 10903
10715 10903
10716 10903
10717 10903
10718 10903
10719 10903
10720 10903
10721 10903
10722 10723
10723 10726
10723 10728
10724 10728
10725 10728
10725 10730
10726 10727
10726 10728
10728 10738
10728 10820
10728 10821
10728 10847
10728 10848
10728 10850
10728 10859
10728 10860
10728 10862
10728 10875
10728 10902
10728 10903
10728 12270
10728 12275
10728 12814
10729 10730
10731 12270
10732 12270
10733 12270
10734 12270
10735 12270
10736 12270
10737 12270
10738 10875
10739 10875
10740 10875
10741 10875
10742 10875
10743 10875
10744 10875
10745 10875
10746 10875
10747 10875
10748 10875
10749 10875
10750 10875
10751 10875
10752 10875
10763 11059
10764 11442
10765 11442
10766 11442
10767 10768
10767 11976
10768 11599
10769 11976
10770 11976
10770 13158
10771 11976
10772 11976
10773 11976
10774 11999
10774 12578
10775 10776
10775 10777
10775 10850
10777 10850
10778 13257
10779 10820
10780 10820
10781 10820
10782 10820
10783 10820
10784 10820
10785 10820
10786 10820
10787 10820
10788 10820
10789 11999
10790 10820
10791 10820
10792 10820
10793 10820
10794 10820
10795 10820
10796 10820
10797 10820
10798 10820
10799 10820
10800 10820
10801 10820
10802 10820
10803 10820
10804 10820
10805 10820
10806 10820
10807 10820
10808 10820
10809 10820
10810 10820
10811 10820
10812 10813
10812 10814
10813 10931
10813 10932
10813 10933
10813 10966
10813 10967
10814 10815
10815 10931
10815 10932
10815 10933
10815 10966
10815 10967
10816 10820
10817 10820
10818 10820
10819 10820
10820 10821
10820 10822
10820 10823
10820 10824
10820 10825
10820 10826
10820 10850
10820 10851
10820 10859
10820 10902
10820 10964
10820 10965
10821 10827
10821 10829
10821 10843
10821 10844
10821 10850
10821 10851
10821 10859
10821 10902
10828 13212
10830 10831
10831 10873
10831 10913
10831 10914
10831 10915
10831 10916
10831 10917
10832 12270
10833 12270
10834 12270
10835 12270
10836 12270
10837 10875
10838 12270
10839 12270
10840 12270
10841 12270
10842 12270
10845 10846
10845 10848
10845 10859
10845 10869
10845 10870
10845 10902
10846 10848
10846 10902
10846 10911
10847 10848
10847 10850
10847 10859
10847 10903
10848 10850
10848 10854
10848 10859
10848 10862
10848 10902
10848 12814
10849 10862
10850 10851
10850 10859
10850 10862
10850 10902
10850 10903
10850 12814
10851 10931
10851 10932
10851 10933
10851 10966
10851 10967
10851 10968
10851 10969
10854 10859
10855 10875
10856 10857
10856 10858
10857 15004
10859 10862
10859 10902
10859 10903
10859 12814
10860 10903
10861 10875
10862 10902
10862 10903
10862 12270
10864 12270
10865 12270
10866 12270
10867 12270
10868 12270
10871 12270
10872 12270
10875 10883
10875 10884
10875 10885
10875 10886
10875 10887
10875 10888
10875 10889
10875 10896
10875 10897
10875 10898
10875 10899
10875 10900
10875 10901
10875 10903
10875 10907
10875 10908
10875 10909
10875 10910
10875 10934
10875 10935
10875 10936
10875 10937
10875 10938
10875 10939
10875 10940
10875 10957
10875 10958
10875 10959
10875 10960
10875 10970
10875 10971
10875 10972
10875 10973
10875 10974
10875 10975
10875 10976
10875 10983
10875 10984
10875 10985
10875 10986
10875 10987
10875 10988
10875 10989
10875 10993
10875 10994
10875 10995
10875 10996
10875 10997
10875 10998
10875 10999
10875 11000
10875 11001
10875 11002
10875 11003
10875 11004
10875 11005
10875 11006
10875 12270
10875 13461
10890 10903
10891 10903
10892 10903
10893 10903
10894 10903
10895 10903
10902 10903
10902 10991
10903 10904
10903 10905
10903 10906
10903 10912
10903 10961
10903 10962
10903 10963
10903 10977
10903 10978
10903 10979
10903 10980
10903 10981
10903 10982
10903 12270
10918 12270
10919 12270
10920 12270
10921 12270
10922 12270
10923 12270
10924 12270
10925 12270
10926 12270
10927 12270
10928 12270
10929 12270
10930 12270
10941 12270
10942 12270
10943 12270
10944 12270
10945 12270
10946 12270
10947 12270
10948 12270
10949 12270
10950 12270
10951 12270
10952 12270
10953 12270
10954 12270
10955 12270
10956 12270
10992 12814
11007 11008
11008 11963
11009 11010
11013 14011
11014 11017
11015 11017
11016 11017
11017 11018
11017 11019
11017 13813
11017 14232
11017 14939
11020 14939
11021 14394
11022 14232
11022 15160
11024 13780
11025 15182
11026 14720
11027 11040
11027 15085
11028 14856
11029 15290
11030 13823
11031 15182
11033 14394
11034 15139
11035 14090
11036 14856
11037 14011
11038 14216
11039 11062
11040 11041
11040 11043
11040 15085
11041 15085
11042 14110
11042 14648
11043 15085
11044 11046
11044 11068
11047 11093
11048 11059
11050 11059
11050 11071
11051 11059
11051 11067
11052 11066
11053 11066
11056 11059
11057 11059
11059 11060
11059 11061
11059 11062
11059 11066
11059 11067
11059 11068
11059 11071
11059 13556
11060 11061
11060 11062
11060 11066
11060 11068
11060 11069
11060 11071
11060 13556
11061 11062
11061 11066
11061 11068
11061 11071
11061 11072
11061 11076
11061 11077
11061 11078
11061 11082
11061 11092
11061 11159
11061 13500
11061 13502
11061 13556
11061 13564
11061 13565
11061 13568
11061 13569
11061 13570
11061 13571
11061 13585
11061 13603
11062 11066
11062 11068
11062 11070
11062 11071
11062 11074
11062 11075
11062 11079
11062 11080
11062 11081
11062 11089
11062 11090
11062 11093
11062 11097
11062 11098
11062 11099
11062 12622
11062 12623
11062 12624
11062 13097
11062 13556
11062 13580
11062 13581
11062 13582
11062 13583
11063 11064
11063 11065
11066 11068
11066 12006
11066 13556
11067 13551
11068 11071
11068 11083
11068 11084
11068 11085
11068 11086
11068 11087
11068 11091
11068 11094
11068 11095
11068 11096
11068 11101
11068 11102
11068 11103
11068 11104
11068 11105
11068 11291
11068 11292
11068 13014
11068 13016
11068 13017
11068 13018
11068 13019
11068 13020
11068 13021
11068 13022
11068 13023
11068 13024
11068 13025
11068 13503
11068 13504
11068 13540
11068 13541
11068 13543
11068 13551
11068 13556
11068 13558
11068 13559
11068 13562
11068 13572
11068 13573
11068 13584
11068 13586
11068 13588
11068 13589
11068 13590
11068 13591
11068 13592
11068 13593
11068 13594
11068 13595
11068 13596
11068 13597
11068 13598
11068 13599
11068 13600
11068 13601
11068 13602
11068 13604
11073 13580
11073 13581
11073 13582
11073 13583
11073 13584
11106 11999
11107 11112
11107 11127
11108 11127
11109 11127
11110 11112
11110 11127
11111 11112
11111 11127
11112 11127
11113 11127
11114 11127
11115 11127
11116 11127
11117 11127
11118 11127
11119 11120
11119 11127
11120 11121
11120 11122
11120 11123
11120 11127
11121 11127
11122 11127
11123 11127
11124 11127
11125 11127
11126 11127
11127 11128
11127 11129
11127 11130
11127 11131
11127 11132
11127 11133
11127 11134
11127 11135
11127 11136
11127 11137
11127 11138
11127 11139
11127 11140
11127 11141
11127 11142
11127 11143
11127 11144
11127 11145
11127 11146
11127 11147
11127 11148
11127 11149
11127 11150
11127 11151
11127 11152
11127 11153
11127 11154
11127 11156
11127 11157
11127 11158
11127 11160
11127 11161
11127 11162
11127 11163
11127 11164
11127 11165
11127 11166
11127 11167
11127 11168
11127 11169
11127 11170
11127 11171
11127 11172
11127 11173
11127 11174
11127 11175
11127 11176
11127 11177
11127 11178
11127 11179
11127 11180
11127 11181
11127 11182
11127 11183
11127 11184
11127 11185
11127 11186
11127 11187
11127 11188
11127 11189
11127 11190
11127 11191
11127 11192
11127 11193
11127 11194
11127 11195
11127 11196
11127 11197
11127 11198
11127 11199
11127 11200
11127 11201
11127 11202
11127 11204
11127 11205
11127 11206
11127 11995
11127 12007
11141 11846
11146 11147
11146 11148
11155 14506
11155 14508
11160 11995
11161 11995
11190 11191
11191 11194
11191 11200
11191 11201
11195 11197
11196 11197
11203 11209
11203 12007
11204 11209
11205 11209
11206 11209
11206 11846
11207 11209
11207 12007
11208 11209
11209 11999
11209 12109
11209 12825
11209 12828
11209 12849
11209 12884
11210 12578
11211 12577
11211 12578
11212 11213
11212 11214
11212 11215
11212 11271
11213 11271
11214 11271
11215 11271
11216 11271
11217 11271
11218 11271
11219 11271
11220 11271
11221 11269
11221 11271
11222 11995
11223 13613
11223 14238
11224 11271
11224 13158
11225 11269
11225 11271
11226 11271
11227 11269
11227 11271
11228 11269
11228 11271
11229 11271
11230 11271
11231 11271
11232 11271
11232 13158
11233 11271
11234 11269
11234 11271
11235 11269
11235 11271
11236 11269
11236 11271
11237 11271
11238 11271
11239 11271
11240 11271
11241 11271
11242 11271
11243 11271
11244 11271
11245 11269
11245 11271
11246 11271
11247 11995
11247 12007
11248 11963
11249 12319
11250 11995
11251 11373
11252 13330
11253 11271
11254 11271
11255 11271
11256 11271
11257 11271
11258 11271
11259 11271
11260 11269
11260 11271
11260 13158
11261 11271
11262 11976
11263 11976
11264 11976
11265 11976
11266 11976
11267 11976
11268 11976
11268 11980
11269 11995
11269 12007
11270 11271
11271 11273
11271 11274
11271 11275
11271 11276
11271 11277
11271 11278
11271 11279
11271 11280
11271 11281
11271 11282
11271 11283
11271 11284
11271 11285
11271 11286
11271 11287
11271 11995
11271 13116
11272 14939
11278 11528
11284 11995
11287 11995
11287 12007
11288 14506
11288 14508
11289 12007
11289 12578
11290 12578
11293 11317
11294 11317
11295 11317
11295 11995
11296 11317
11297 11317
11298 11317
11299 11317
11300 11317
11301 11312
11301 11317
11302 11317
11303 11312
11303 11317
11304 11312
11304 11317
11305 11312
11305 11317
11306 11312
11306 11317
11307 11312
11307 11313
11307 11317
11308 11317
11309 11317
11310 11312
11310 11317
11311 11313
11311 11317
11312 11313
11312 11314
11312 11315
11312 11316
11312 11318
11312 11326
11312 11327
11312 11328
11312 11329
11312 11330
11312 11331
11312 11332
11312 12007
11313 11314
11313 11317
11314 11317
11315 12516
11316 11317
11317 11318
11317 11319
11317 11321
11317 11322
11317 11323
11317 11324
11317 11325
11317 11326
11317 11327
11317 11328
11317 11329
11317 11330
11317 11331
11317 11332
11317 11333
11317 11334
11317 11335
11317 11336
11317 11337
11317 11338
11317 11339
11317 11340
11317 11341
11317 11342
11317 11343
11317 11344
11317 11345
11317 11346
11317 11347
11317 11348
11317 11487
11317 11488
11317 11489
11317 11490
11317 11491
11317 11492
11317 11661
11317 11662
11317 11663
11317 11995
11317 12007
11317 12909
11317 13528
11320 14506
11320 14508
11322 11995
11342 11995
11342 12007
11344 11995
11347 11995
11347 12007
11349 12444
11350 12444
11351 12444
11352 12444
11353 12444
11354 12444
11355 11442
11356 14506
11356 14508
11357 11373
11358 11372
11358 11373
11359 11373
11360 11372
11360 11373
11361 11373
11362 11372
11362 11373
11363 11372
11363 11373
11364 11372
11364 11373
11365 11372
11365 11373
11366 11372
11366 11373
11367 11372
11367 11373
11368 11373
11369 11372
11369 11373
11370 11372
11370 11373
11371 11372
11371 11373
11372 11995
11373 11375
11373 11995
11373 12007
11374 14939
11376 14506
11376 14508
11377 11442
11378 11442
11379 11442
11380 11442
11380 11995
11381 11442
11382 11442
11382 11995
11382 12007
11383 11442
11384 11963
11385 11963
11386 11963
11387 11963
11388 11963
11389 11963
11390 11963
11391 11963
11392 11963
11393 11963
11394 11963
11395 11472
11396 11472
11397 11472
11397 11846
11398 11472
11399 11472
11400 11472
11401 11472
11402 11472
11403 11472
11404 11472
11405 11472
11405 11846
11406 11472
11406 11846
11407 11472
11407 11846
11408 11472
11409 11472
11410 11472
11411 11472
11412 11472
11413 11472
11414 11472
11415 11472
11416 11472
11417 11472
11418 11472
11418 11846
11419 11472
11420 11472
11421 11472
11422 11472
11423 11472
11423 11846
11424 11472
11425 11442
11426 11440
11426 11442
11427 11442
11428 11429
11428 11440
11428 11442
11429 11430
11429 11440
11429 11442
11430 11440
11430 11442
11431 11440
11431 11442
11432 11440
11432 11442
11433 11440
11433 11442
11434 11440
11434 11442
11435 11440
11435 11442
11436 11440
11436 11442
11437 11440
11437 11442
11438 11440
11438 11442
11439 11442
11440 11445
11441 11442
11442 11443
11442 11444
11442 11445
11442 11446
11442 11447
11442 11504
11442 11505
11442 11506
11442 11507
11442 11820
11442 11927
11442 11928
11442 11929
11442 11995
11442 12007
11442 12110
11442 12111
11442 12112
11442 12113
11442 12114
11442 12115
11442 12116
11442 12117
11442 12118
11442 12119
11442 12120
11442 12121
11442 12122
11442 12123
11442 12124
11442 12125
11442 12126
11442 12127
11442 12128
11442 12129
11442 12130
11442 12131
11442 12132
11442 12133
11442 12134
11442 12135
11442 12136
11442 12137
11442 12138
11442 12139
11442 12140
11442 12141
11442 12142
11442 12143
11442 12144
11442 12145
11442 12146
11442 12147
11442 12148
11442 12149
11442 12150
11442 12151
11442 12152
11442 12154
11442 12155
11442 12679
11442 12680
11442 12681
11442 12682
11442 12683
11442 13114
11442 13115
11442 13117
11442 13118
11442 13380
11442 13381
11442 13382
11442 13383
11442 13384
11442 13385
11443 11846
11447 14939
11448 12007
11449 13257
11450 13257
11451 13257
11452 13257
11453 13257
11454 13257
11455 11472
11456 11472
11457 11462
11457 11463
11457 11472
11458 11472
11459 11472
11460 11472
11461 11472
11462 11472
11463 11472
11464 11472
11465 11472
11465 11995
11466 11472
11467 11472
11467 11995
11467 12007
11468 11472
11468 11995
11469 11472
11469 11995
11470 11472
11471 11472
11471 11995
11472 11473
11472 11474
11472 11475
11472 11476
11472 11477
11472 11478
11472 11479
11472 11898
11472 11899
11472 11900
11472 11901
11472 11995
11472 12007
11472 12010
11479 11846
11480 13330
11481 12981
11481 13330
11482 13330
11483 13330
11484 11846
11484 13330
11485 14506
11485 14508
11486 12003
11493 11809
11494 11809
11495 11809
11496 11809
11497 11809
11498 11809
11499 11809
11500 11809
11501 11809
11502 11809
11503 11809
11508 11522
11508 11963
11509 11963
11510 11963
11511 11963
11512 11963
11513 11963
11513 11964
11514 11522
11514 11963
11514 11995
11515 11963
11516 11963
11517 11963
11518 11963
11519 11522
11519 11963
11520 11522
11520 11963
11521 11963
11523 11976
11524 11525
11524 11976
11524 11995
11525 11976
11526 11976
11526 11995
11527 11809
11528 11586
11528 12007
11528 12035
11528 12037
11528 12038
11529 11976
11530 11536
11530 11976
11531 11976
11532 11536
11532 11976
11533 11976
11534 11536
11534 11976
11535 11536
11535 11976
11542 11963
11542 11964
11542 11995
11543 11963
11544 11963
11544 11964
11544 11967
11545 11963
11545 11967
11546 11963
11547 11963
11548 11963
11549 11572
11550 11572
11551 11572
11552 11554
11552 11557
11552 11558
11552 11559
11552 11572
11553 11572
11554 11572
11555 11572
11556 11572
11557 11572
11558 11572
11559 11572
11560 11572
11561 11572
11562 11565
11562 11572
11563 11572
11564 11572
11565 11566
11565 11572
11566 11572
11567 11571
11567 11572
11568 11571
11568 11572
11569 11571
11569 11572
11570 11572
11572 11573
11572 11574
11572 11575
11572 11576
11572 11577
11572 11579
11572 11580
11572 11581
11572 11582
11572 11583
11572 11584
11572 11585
11572 11586
11572 11587
11572 11588
11572 11589
11572 11590
11572 11591
11572 11592
11572 11593
11572 11594
11572 11595
11572 11596
11572 11597
11572 11598
11572 11599
11572 11600
11572 11601
11572 11602
11572 11603
11572 11604
11572 11605
11572 11606
11572 11607
11572 11608
11572 11609
11572 11995
11572 12007
11572 12031
11572 12053
11577 11578
11580 11587
11583 11587
11584 11587
11585 11587
11586 11587
11587 11589
11587 11590
11587 11591
11587 11596
11606 11846
11609 11995
11610 13358
11611 13358
11612 12516
11613 13358
11613 13366
11614 13358
11615 12516
11616 11999
11616 13358
11617 13358
11618 13358
11619 12007
11619 13358
11620 12578
11620 13346
11621 12578
11622 12578
11623 12578
11624 12578
11625 12578
11626 12578
11627 12578
11628 12578
11629 12578
11630 12578
11631 12578
11631 13346
11632 13346
11632 13358
11632 13360
11633 13358
11633 13360
11634 13346
11634 13358
11634 13360
11635 12981
11635 13358
11635 13360
11636 13346
11636 13358
11636 13360
11637 13358
11637 13360
11638 13358
11638 13360
11639 13358
11639 13360
11640 13360
11641 11846
11641 13346
11641 13360
11642 13360
11643 12577
11644 11846
11645 13362
11646 11846
11646 12981
11646 13326
11646 13362
11647 12981
11647 13337
11647 13358
11647 13362
11648 12981
11648 13362
11649 12981
11649 13362
11650 11707
11651 12981
11651 13358
11651 13362
11652 12981
11652 13362
11653 12981
11654 13346
11655 12981
11656 12981
11656 13362
11657 12981
11657 13358
11657 13362
11658 13346
11658 13362
11659 12981
11660 13358
11664 11665
11664 11683
11664 13347
11665 11667
11665 11668
11665 11669
11665 11683
11665 13347
11666 11683
11667 11683
11667 13347
11668 11683
11668 13347
11669 13347
11670 13347
11671 11683
11671 12516
11672 13347
11674 13347
11675 11682
11675 11683
11675 13347
11676 11683
11676 13347
11677 11682
11677 11683
11677 13347
11678 13347
11679 11707
11680 13347
11681 11683
11681 11707
11681 13347
11682 11683
11682 13347
11683 11694
11683 11695
11683 11696
11683 11697
11683 11698
11683 11699
11683 11705
11683 11706
11683 11714
11683 11715
11683 11716
11684 11707
11684 13347
11684 13358
11685 13347
11686 13347
11687 13347
11687 13358
11688 13347
11689 12007
11689 13347
11689 13358
11690 13347
11690 13358
11691 13196
11691 13347
11691 13358
11692 13347
11692 13358
11693 13347
11693 13358
11694 13347
11694 13358
11695 13347
11696 13347
11697 13347
11697 13358
11698 13358
11699 13347
11700 13358
11701 13358
11702 13358
11703 12578
11704 11707
11706 11707
11706 13347
11707 11708
11707 11709
11707 11710
11707 11711
11707 11712
11707 11713
11707 11714
11707 11716
11707 11717
11707 12003
11707 12558
11710 13347
11711 13347
11714 13347
11715 12516
11715 13347
11716 12516
11717 12578
11719 12168
11719 13534
11720 12168
11721 12168
11722 12168
11723 11746
11724 11746
11724 12168
11725 11726
11725 11727
11725 11728
11725 11734
11725 11735
11725 11736
11725 11746
11725 12168
11726 11728
11726 11736
11726 11746
11726 12168
11727 11746
11727 12168
11728 11746
11728 12168
11729 11746
11729 12168
11730 11746
11730 12168
11731 11746
11731 12168
11732 11746
11733 11746
11734 11746
11735 11746
11735 12168
11736 11746
11736 12168
11737 11746
11738 11746
11739 12168
11740 12168
11741 11746
11743 12000
11743 12007
11743 12168
11743 12170
11743 12171
11743 12172
11743 12174
11743 12175
11743 12176
11743 12177
11745 11773
11745 12168
11746 11756
11746 11762
11746 11763
11746 11764
11746 11766
11746 11767
11746 11768
11746 11770
11746 11776
11746 11777
11746 11778
11746 11779
11746 11780
11746 11782
11746 11783
11746 11784
11746 11787
11746 11788
11746 11999
11746 12003
11746 12541
11746 13039
11747 12168
11748 11773
11748 12164
11748 12168
11749 11773
11749 12168
11749 12579
11750 12168
11750 13066
11751 12168
11751 13066
11752 12168
11752 13066
11753 12168
11753 13066
11754 12168
11755 12168
11756 12168
11757 12179
11759 11846
11760 11846
11761 13359
11765 11846
11766 13032
11771 13359
11773 11776
11773 11779
11773 11780
11773 11781
11773 11786
11773 12000
11773 12163
11773 12165
11773 12180
11773 12182
11773 12183
11773 12184
11773 12185
11773 12186
11773 12187
11773 12189
11773 12191
11773 12194
11773 12195
11773 12196
11773 12199
11773 12202
11773 12203
11773 12205
11773 12206
11773 12207
11773 12209
11773 12210
11773 12211
11773 12212
11773 12213
11773 12217
11773 12218
11773 12219
11773 12220
11773 12223
11773 12224
11773 12230
11773 12252
11773 12253
11773 12254
11773 12445
11773 12449
11773 12450
11773 12451
11773 12452
11773 12453
11773 12454
11773 12455
11773 12461
11773 12463
11773 12475
11773 12477
11773 12479
11773 12480
11773 12481
11773 12486
11773 12610
11773 12611
11773 12612
11773 12613
11773 12614
11773 12615
11773 12616
11773 12617
11773 12633
11773 12634
11773 12636
11773 12916
11773 12917
11773 12918
11773 12919
11773 12925
11773 12929
11773 13000
11773 13029
11773 13030
11773 13042
11773 13043
11773 13044
11773 13048
11773 13054
11773 13059
11773 13083
11773 13093
11773 13094
11773 13107
11773 13108
11773 13195
11773 13386
11773 13390
11773 13529
11773 13532
11774 12168
11774 13086
11775 11963
11776 12168
11776 12579
11776 13066
11777 12168
11777 13066
11778 12168
11779 12168
11779 12579
11780 12168
11780 12579
11781 12007
11781 12168
11782 12168
11782 13066
11783 12179
11783 12579
11784 12179
11785 12179
11785 12576
11785 12579
11786 12169
11787 12179
11787 12579
11788 12179
11788 12576
11789 11809
11790 11809
11791 11809
11792 11809
11793 11809
11794 11809
11795 11801
11795 11809
11796 11801
11796 11809
11797 11801
11797 11809
11797 11995
11798 11809
11799 11801
11799 11809
11800 11809
11801 11802
11801 11806
11801 11807
11801 11808
11801 11809
11801 12003
11802 11809
11802 11995
11803 11809
11804 11809
11804 11819
11805 11806
11805 11809
11806 11809
11806 11819
11807 11809
11808 11809
11809 11810
11809 11811
11809 11812
11809 11813
11809 11814
11809 11815
11809 11816
11809 11817
11809 11818
11809 11819
11809 11821
11809 11822
11809 11823
11809 11824
11809 11825
11809 11826
11809 11827
11809 11828
11809 11829
11809 11960
11809 11995
11809 12007
11812 11818
11814 11818
11814 11819
11815 11818
11815 11819
11816 11818
11816 11819
11817 11818
11817 11819
11818 11821
11818 11823
11818 12003
11819 11821
11819 11823
11819 11824
11819 11825
11819 11827
11819 12003
11828 11995
11830 11887
11831 11887
11832 11887
11832 11995
11833 11887
11833 11995
11834 11887
11835 11887
11836 11837
11836 11838
11836 11887
11836 11995
11836 12007
11837 11873
11837 11880
11837 11887
11837 11995
11837 12007
11838 11862
11838 11887
11838 11995
11839 11863
11839 11887
11839 11995
11840 11855
11840 11887
11841 11887
11842 11887
11842 11888
11843 11887
11844 11887
11844 11888
11844 11889
11845 11855
11845 11887
11846 11864
11846 11866
11846 11912
11846 12105
11846 12709
11846 13145
11846 13149
11846 13160
11846 13161
11846 13173
11846 13179
11846 13190
11846 13350
11846 13402
11846 13404
11846 13411
11847 11863
11847 11887
11848 11857
11848 11863
11848 11887
11849 11887
11849 11888
11849 11889
11850 11887
11851 11887
11852 11887
11853 11887
11854 11887
11855 11887
11855 11995
11856 11887
11856 11889
11857 11887
11858 11887
11859 11887
11860 11887
11860 11888
11861 11887
11862 11870
11862 11879
11862 11881
11862 11887
11863 11881
11864 11887
11865 11887
11866 11887
11867 11887
11868 11887
11868 11995
11869 11887
11870 11887
11871 11887
11872 11887
11873 11876
11874 11887
11875 11887
11876 11887
11877 11887
11878 11887
11879 11887
11881 11887
11882 11887
11883 11887
11884 11887
11885 11887
11886 11887
11887 11888
11887 11889
11887 11890
11887 11891
11887 11892
11887 11894
11887 11895
11887 11896
11887 11897
11887 11995
11887 12007
11893 11995
11899 11995
11899 12007
11901 11908
11901 11909
11901 11995
11901 12007
11902 11909
11902 11976
11903 11909
11903 11976
11903 13158
11904 11909
11904 11976
11905 11909
11905 11976
11906 11909
11906 11976
11907 11909
11907 11976
11908 11909
11908 11976
11909 11976
11910 11976
11911 11976
11911 11995
11912 11956
11913 11956
11914 11956
11915 11956
11916 11956
11917 11920
11917 11956
11918 11956
11919 11956
11921 11956
11921 11957
11922 11956
11922 11957
11923 11956
11923 11957
11924 11956
11924 11957
11925 11956
11926 11956
11930 11976
11931 11956
11932 11956
11933 11956
11933 11957
11933 11958
11934 11956
11935 11956
11936 11956
11936 11957
11937 11956
11937 11957
11938 11956
11938 11957
11939 11956
11939 11957
11940 11956
11941 11956
11942 11956
11943 11944
11943 11956
11943 11957
11944 11955
11944 11956
11944 11957
11945 11956
11945 11957
11946 11956
11946 11957
11946 11983
11947 11956
11947 11957
11948 11956
11948 11957
11949 11956
11949 11957
11950 11956
11951 11956
11952 11956
11952 11957
11953 11956
11953 11957
11954 11956
11954 11957
11955 11956
11955 11957
11956 11958
11956 11959
11956 11995
11956 12007
11956 12012
11956 12013
11956 12014
11956 12015
11956 12016
11956 12017
11956 12018
11956 12019
11956 12020
11956 12021
11956 12022
11956 12023
11956 12024
11956 12025
11956 12026
11956 12027
11956 12028
11956 12029
11957 12014
11957 12016
11957 12022
11957 12023
11957 12024
11957 12025
11957 12026
11957 12027
11957 12028
11957 12029
11960 12003
11961 12052
11962 11963
11963 11968
11963 11970
11963 11971
11963 11981
11963 11990
11963 11995
11963 12007
11963 12039
11963 12040
11963 12041
11963 12042
11963 12043
11963 12044
11963 12045
11963 12046
11963 12047
11963 12048
11963 12049
11963 12050
11963 12051
11963 12052
11963 12088
11963 12089
11963 12090
11963 12091
11963 12092
11963 12093
11963 12094
11963 12095
11963 12096
11963 12097
11963 12098
11963 12099
11963 12100
11963 12102
11963 12103
11963 12104
11963 13120
11963 13121
11963 13122
11963 13123
11963 13124
11963 14975
11963 14992
11964 12003
11964 12007
11964 12090
11965 12096
11966 12003
11966 12007
11966 12102
11966 12103
11968 11995
11968 13120
11969 12046
11969 12050
11969 12093
11969 12094
11972 12003
11973 12359
11974 12323
11975 12007
11975 12558
11975 12583
11975 12802
11976 11977
11976 11978
11976 11995
11976 12007
11976 13159
11976 13160
11976 13161
11976 13162
11976 13163
11976 13164
11976 13165
11976 13166
11976 13167
11976 13168
11976 13169
11976 13170
11976 13171
11976 13172
11976 13173
11976 13174
11976 13175
11976 13177
11976 13178
11976 13179
11976 13185
11976 13186
11976 13187
11976 13226
11979 12003
11979 12266
11979 12578
11980 11995
11982 12003
11982 12007
11984 12003
11984 12444
11985 13257
11986 13257
11987 12003
11987 12793
11988 13392
11989 12007
11990 11995
11991 12003
11992 12007
11993 12003
11994 12007
11995 11996
11995 11997
11995 11998
11995 11999
11995 12000
11995 12003
11995 12006
11995 12007
11995 12022
11995 12027
11995 12029
11995 12035
11995 12037
11995 12038
11995 12047
11995 12050
11995 12057
11995 12062
11995 12073
11995 12093
11995 12094
11995 12095
11995 12105
11995 12393
11995 12394
11995 12395
11995 12433
11995 12436
11995 12444
11995 12725
11995 12741
11995 12760
11995 13015
11995 13041
11995 13120
11995 13158
11995 13176
11995 13243
11995 13244
11995 13246
11995 13248
11995 13249
11995 13257
11995 13291
11995 13371
11995 13538
11995 13547
11995 13548
11995 13549
11996 11997
11996 11998
11996 11999
11996 12000
11996 12006
11996 12007
11996 12290
11996 12307
11996 12319
11996 12501
11996 12910
11996 12914
11996 12936
11996 13273
11996 13274
11996 13275
11996 13286
11996 13306
11996 13307
11996 13309
11996 13310
11996 13373
11996 13374
11996 13387
11996 13388
11996 13405
11996 13417
11996 13431
11996 13448
11996 13459
11996 13511
11996 13520
11996 13525
11996 14942
11997 11998
11997 11999
11997 12000
11997 12006
11997 12007
11997 13371
11998 11999
11998 12000
11998 12006
11998 12007
11998 13371
11998 13393
11999 12000
11999 12001
11999 12006
11999 12007
11999 12008
11999 12576
11999 12578
11999 12670
11999 12793
11999 12981
11999 13066
11999 13067
11999 13113
11999 13155
11999 13182
11999 13196
11999 13208
11999 13209
11999 13210
11999 13211
11999 13212
11999 13221
11999 13269
11999 13270
11999 13284
11999 13285
11999 13292
11999 13293
11999 13294
11999 13311
11999 13312
11999 13313
11999 13330
11999 13346
11999 13358
12000 12006
12000 12007
12000 12009
12000 12167
12000 12168
12000 12169
12000 12170
12000 12171
12000 12172
12000 12174
12000 12175
12000 12176
12000 12177
12000 12178
12000 12179
12000 12201
12000 12208
12000 12255
12000 12264
12000 12456
12000 12459
12000 12579
12000 12676
12000 12677
12000 13068
12000 13193
12000 13261
12000 13263
12000 13265
12000 13266
12000 13267
12000 13287
12000 13288
12000 13299
12000 13303
12000 13386
12000 13534
12002 12793
12003 12007
12003 12064
12003 12066
12003 12200
12003 12300
12003 12444
12003 12577
12003 12962
12003 13067
12003 13086
12003 13196
12003 13205
12003 13257
12003 13259
12004 13491
12005 12007
12005 12319
12005 13394
12005 13395
12005 13426
12005 13442
12005 13444
12005 13445
12005 13446
12005 13447
12005 13456
12005 13457
12005 13462
12005 13463
12005 13464
12005 13465
12005 13466
12005 13467
12005 13470
12005 13471
12005 13472
12005 13478
12005 13479
12005 13480
12005 13481
12005 13493
12005 13494
12005 13495
12005 13497
12005 13509
12005 13510
12005 13518
12005 13519
12006 12007
12006 12179
12006 12459
12006 12563
12006 12613
12006 12614
12006 12615
12006 12775
12006 12782
12006 12813
12006 13193
12006 13304
12006 13449
12006 13536
12006 13537
12006 13539
12007 12035
12007 12038
12007 12047
12007 12073
12007 12106
12007 12153
12007 12164
12007 12168
12007 12169
12007 12170
12007 12176
12007 12177
12007 12178
12007 12179
12007 12183
12007 12184
12007 12189
12007 12194
12007 12196
12007 12200
12007 12209
12007 12210
12007 12212
12007 12213
12007 12219
12007 12230
12007 12252
12007 12253
12007 12254
12007 12258
12007 12301
12007 12319
12007 12383
12007 12386
12007 12393
12007 12412
12007 12444
12007 12450
12007 12455
12007 12466
12007 12469
12007 12470
12007 12474
12007 12475
12007 12499
12007 12516
12007 12528
12007 12578
12007 12611
12007 12612
12007 12613
12007 12615
12007 12616
12007 12617
12007 12634
12007 12676
12007 12721
12007 12741
12007 12768
12007 12769
12007 12770
12007 12771
12007 12772
12007 12774
12007 12775
12007 12793
12007 12801
12007 12816
12007 12817
12007 12819
12007 12821
12007 12823
12007 12824
12007 12827
12007 12828
12007 12834
12007 12835
12007 12836
12007 12837
12007 12838
12007 12840
12007 12841
12007 12842
12007 12843
12007 12844
12007 12845
12007 12846
12007 12853
12007 12854
12007 12898
12007 12899
12007 12916
12007 12917
12007 12918
12007 12946
12007 12947
12007 12962
12007 12980
12007 12981
12007 12983
12007 13043
12007 13044
12007 13046
12007 13048
12007 13059
12007 13066
12007 13067
12007 13075
12007 13083
12007 13086
12007 13094
12007 13176
12007 13196
12007 13257
12007 13258
12007 13325
12007 13330
12007 13346
12007 13352
12007 13353
12007 13358
12007 13371
12007 13379
12007 13389
12007 13391
12007 13392
12007 13394
12007 13395
12007 13397
12007 13398
12007 13403
12007 13409
12007 13412
12007 13445
12007 13446
12007 13447
12007 13448
12007 13449
12007 13458
12007 13459
12007 13471
12007 13472
12007 13490
12007 13495
12007 13509
12007 13510
12007 13512
12007 13549
12007 13555
12007 13575
12007 13577
12007 14232
12007 14933
12007 14938
12007 14941
12007 14952
12007 15056
12007 15505
12007 15522
12011 13410
12011 13471
12018 12021
12020 12021
12030 12036
12031 12036
12032 12036
12033 12036
12034 12036
12035 12036
12054 12444
12055 12444
12056 12444
12057 12444
12058 12064
12058 12444
12059 12064
12059 12444
12060 12064
12060 12066
12060 12444
12061 12064
12061 12444
12062 12064
12062 12444
12063 12064
12063 12444
12064 12444
12065 12444
12066 12444
12067 13622
12068 12444
12069 12444
12070 12444
12071 12073
12071 12444
12072 12073
12072 12444
12073 12074
12073 12079
12073 12081
12073 12085
12073 12086
12073 12432
12073 12433
12073 12434
12073 12435
12073 12436
12073 12440
12073 12441
12073 12442
12074 12444
12075 12444
12076 12079
12076 12444
12077 12444
12078 12444
12079 12444
12080 12444
12081 12444
12082 12444
12083 12444
12084 12444
12085 12444
12086 12444
12087 12444
12095 12101
12096 12101
12097 12101
12098 12101
12099 12101
12100 12101
12106 13463
12107 13388
12109 13158
12121 13158
12124 13158
12136 13158
12139 13158
12140 13158
12142 13158
12149 13158
12150 13158
12151 13158
12156 12164
12156 12168
12157 12164
12157 12168
12158 12168
12159 12168
12160 12168
12161 12168
12162 12164
12162 12168
12163 12164
12163 12179
12163 12579
12164 12165
12164 12207
12164 12228
12164 12235
12164 12244
12164 12251
12164 12449
12164 12454
12164 12460
12164 12619
12164 12920
12164 12921
12164 12923
12164 13195
12165 12168
12166 12168
12167 12174
12167 12205
12167 12610
12167 13390
12168 12173
12168 12175
12168 12225
12168 13026
12168 13027
12168 13028
12168 13029
12168 13030
12168 13031
12169 12171
12169 12177
12169 12182
12169 12183
12169 12184
12169 12185
12169 12186
12169 12187
12169 12188
12169 12189
12169 12190
12169 12191
12169 12192
12169 12193
12169 12194
12169 12195
12169 12196
12169 12197
12169 12198
12169 12199
12169 12202
12169 12203
12169 12204
12169 12217
12169 12525
12169 12633
12169 12634
12169 12635
12169 12916
12169 12917
12169 12918
12169 12919
12169 12923
12169 12924
12169 12925
12169 12926
12169 12929
12169 12930
12169 13048
12169 13054
12169 13059
12169 13094
12169 13103
12169 13104
12169 13107
12169 13108
12169 13109
12169 13529
12169 13530
12169 13531
12169 13532
12169 13533
12170 12171
12170 12172
12170 12174
12170 12175
12170 12176
12170 12177
12170 12178
12171 12172
12171 12174
12171 12175
12171 12176
12171 12177
12172 12174
12172 12175
12172 12176
12172 12177
12174 12175
12174 12176
12174 12177
12175 12176
12175 12177
12176 12177
12176 12179
12178 12206
12178 12207
12178 12208
12178 12209
12178 12210
12178 12211
12178 12212
12178 12213
12178 12214
12178 12221
12178 12222
12178 12223
12178 12224
12178 12226
12178 12227
12178 12228
12178 12229
12178 12233
12178 12234
12178 12235
12178 12236
12178 12237
12178 12238
12178 12239
12178 12240
12178 12241
12178 12242
12178 12243
12178 12244
12178 12245
12178 12246
12178 12247
12178 12248
12178 12249
12178 12250
12178 12251
12178 12252
12178 12253
12178 12254
12178 12256
12178 13262
12178 13535
12179 12180
12179 12181
12179 12215
12179 12216
12179 12218
12179 12219
12179 12220
12179 12445
12179 12446
12179 12447
12179 12448
12179 12449
12179 12450
12179 12451
12179 12452
12179 12453
12179 12454
12179 12455
12179 12457
12179 12460
12179 12461
12179 12462
12179 12463
12179 12464
12179 12471
12179 12472
12179 12473
12179 12474
12179 12475
12179 12477
12179 12478
12179 12479
12179 12480
12179 12481
12179 12482
12179 12485
12179 12486
12179 12487
12179 12488
12179 12489
12179 12490
12179 12491
12179 12492
12179 12493
12179 12494
12179 12534
12179 12535
12179 12536
12179 12537
12179 12539
12179 12611
12179 12612
12179 12613
12179 12614
12179 12615
12179 12616
12179 12617
12179 12619
12179 12920
12179 12921
12179 12922
12179 12927
12179 12928
12179 13110
12179 13191
12179 13194
12179 13195
12179 13197
12179 13201
12181 12188
12182 13040
12184 13040
12185 12528
12187 12528
12187 13040
12189 13040
12190 12200
12190 12528
12191 12528
12192 12200
12193 12200
12194 12200
12194 12201
12195 12200
12196 12200
12196 12201
12197 12200
12198 12200
12199 12200
12199 12201
12200 12232
12201 12202
12201 12917
12201 12920
12201 12923
12201 12924
12202 12677
12209 12212
12209 12255
12231 12676
12231 13534
12232 12676
12237 12255
12242 12255
12243 12255
12246 12255
12247 12255
12248 12255
12249 12255
12253 12255
12255 13195
12257 12528
12257 13267
12258 12578
12258 13267
12259 12528
12259 13267
12260 12262
12260 13267
12261 12262
12261 12528
12262 12264
12263 12578
12264 13267
12265 12578
12266 12578
12267 12793
12268 12270
12269 12270
12270 12271
12270 12272
12270 12273
12270 12274
12270 12276
12270 12277
12270 12278
12270 12279
12270 12280
12270 12281
12270 12282
12270 12283
12270 12284
12270 12285
12286 12291
12286 12300
12286 12319
12287 12291
12287 12300
12287 12319
12287 12334
12288 12299
12288 12319
12289 12291
12289 12299
12289 12319
12290 12319
12291 12296
12291 12297
12292 12300
12292 12316
12292 12319
12293 12299
12293 12300
12293 12319
12294 12299
12294 12300
12294 12319
12295 12299
12295 12300
12295 12319
12296 12299
12296 12300
12296 12317
12296 12319
12297 12299
12297 12319
12297 12363
12298 12300
12298 12319
12299 12302
12299 12303
12299 12304
12299 12305
12299 12306
12299 12311
12299 12312
12299 12314
12299 12318
12299 12326
12299 12358
12300 12302
12300 12306
12300 12319
12301 12319
12301 12399
12301 12404
12301 12405
12301 12410
12302 12319
12303 12319
12304 12319
12305 12319
12306 12317
12306 12319
12307 12319
12308 12319
12309 12319
12310 12319
12311 12319
12312 12317
12312 12319
12313 12319
12314 12316
12314 12319
12315 12319
12315 12342
12315 12352
12317 12374
12318 12319
12318 12352
12319 12320
12319 12323
12319 12324
12319 12325
12319 12326
12319 12327
12319 12328
12319 12329
12319 12332
12319 12338
12319 12339
12319 12340
12319 12341
12319 12343
12319 12344
12319 12345
12319 12346
12319 12348
12319 12350
12319 12351
12319 12353
12319 12354
12319 12355
12319 12356
12319 12358
12319 12359
12319 12360
12319 12361
12319 12364
12319 12365
12319 12367
12319 12368
12319 12370
12319 12372
12319 12373
12319 12374
12319 12375
12319 12376
12319 12377
12319 12380
12319 12381
12319 12384
12319 12385
12319 12387
12319 12388
12319 12389
12319 12390
12319 12391
12319 12392
12319 12396
12319 12397
12319 12398
12319 12399
12319 12402
12319 12403
12319 12404
12319 12405
12319 12406
12319 12407
12319 12408
12319 12409
12319 12410
12319 12411
12319 12412
12319 12413
12319 12414
12319 12415
12319 12416
12319 12417
12319 12419
12319 12421
12319 12422
12319 12423
12319 12424
12319 12425
12319 12426
12319 12428
12319 12907
12319 13579
12321 13404
12322 12351
12322 12402
12322 12915
12323 12330
12323 12333
12323 12334
12324 12331
12324 12333
12325 12331
12325 12333
12326 12333
12327 12330
12328 12330
12329 12330
12330 12408
12330 12409
12330 12410
12330 12411
12331 12361
12331 12402
12332 12378
12333 12365
12335 12399
12336 12345
12336 12360
12337 12355
12337 12368
12337 12412
12337 12416
12338 12339
12338 12340
12338 12341
12339 12342
12339 12352
12340 12342
12340 12352
12341 12342
12341 12352
12342 12343
12342 12346
12342 12358
12342 12422
12343 12352
12345 12347
12345 12362
12346 12347
12347 12422
12347 12423
12347 12424
12347 12425
12349 12350
12350 12352
12352 12353
12352 12355
12352 12381
12352 12382
12357 12384
12358 12362
12359 12362
12360 12362
12361 12362
12366 12914
12367 12369
12368 12369
12368 12379
12371 12373
12373 12378
12398 12401
12399 12400
12399 12401
12402 12404
12418 13459
12420 12914
12427 12914
12429 12444
12430 12444
12431 12444
12432 12444
12433 12444
12434 12444
12435 12444
12436 12444
12437 12444
12438 12444
12439 12444
12440 12441
12440 12442
12440 12443
12440 12444
12441 12444
12442 12444
12443 12444
12444 13188
12444 13189
12446 12456
12447 12456
12448 12456
12448 13193
12448 13194
12449 12456
12450 12456
12451 12456
12452 12456
12453 12456
12454 12456
12455 12456
12456 12458
12456 13190
12459 12612
12459 12618
12459 12619
12465 12516
12468 12516
12473 12563
12474 13267
12475 12563
12477 12576
12477 13066
12478 12482
12478 12576
12479 12576
12479 13066
12480 12576
12480 12579
12481 12576
12482 12576
12482 12579
12485 12563
12485 12576
12486 12579
12487 12579
12488 12579
12493 12563
12495 12578
12495 13326
12502 12516
12504 12511
12504 12516
12505 12578
12505 13196
12505 13202
12506 12507
12506 12514
12506 12516
12506 12577
12507 12516
12507 12579
12509 12516
12509 12579
12509 13326
12511 12516
12511 12579
12512 12577
12512 12579
12513 12577
12513 12579
12515 12516
12516 12526
12516 12527
12516 12532
12516 12575
12516 12766
12516 12769
12516 12827
12516 12850
12516 12937
12516 12939
12516 13045
12516 13046
12516 13081
12516 13348
12516 13377
12516 13378
12517 12577
12518 12577
12520 12577
12520 12578
12521 12577
12522 12577
12522 12579
12523 12524
12523 12578
12524 12576
12524 12577
12524 12578
12526 12577
12527 12577
12528 13027
12528 13263
12529 12577
12530 12577
12530 12578
12531 12578
12533 12577
12533 12578
12533 13086
12534 12579
12535 12579
12536 12579
12537 12563
12538 12578
12539 12579
12540 12578
12542 12544
12542 12546
12542 12577
12542 12578
12542 12609
12543 12544
12543 12577
12543 12578
12544 12577
12544 12578
12545 12578
12546 12577
12546 12578
12547 12578
12548 12577
12548 12578
12549 12578
12549 13067
12550 13081
12551 12578
12552 12553
12552 12555
12552 12559
12552 12578
12553 12578
12554 12578
12555 12560
12555 12578
12556 12560
12556 12578
12557 12576
12557 12578
12558 12578
12559 12578
12560 12561
12560 12578
12561 12578
12562 12576
12562 12578
12563 13002
12563 13264
12564 12577
12564 12578
12564 12584
12565 12578
12566 12578
12567 12576
12567 12578
12568 12576
12568 12578
12569 12576
12569 13365
12570 12576
12570 12578
12571 12576
12571 12578
12572 12576
12572 12578
12573 12578
12574 12576
12574 12578
12576 13039
12577 12578
12577 12583
12577 12585
12577 12589
12577 12593
12577 12603
12578 12580
12578 12581
12578 12582
12578 12583
12578 12585
12578 12586
12578 12587
12578 12588
12578 12589
12578 12590
12578 12591
12578 12592
12578 12593
12578 12594
12578 12595
12578 12596
12578 12597
12578 12598
12578 12599
12578 12600
12578 12601
12578 12602
12578 12603
12578 12604
12578 12605
12578 12606
12578 12607
12578 12765
12578 12818
12578 12819
12578 12883
12578 12984
12578 13098
12578 13099
12578 13100
12578 13192
12578 13270
12579 12616
12579 13103
12579 13109
12581 12608
12581 13086
12583 12586
12584 12670
12590 12591
12590 12606
12591 12602
12591 13086
12592 12606
12592 12608
12593 12603
12593 12606
12596 12597
12597 12602
12600 12983
12600 12985
12600 12986
12601 12603
12601 12606
12603 12606
12604 12606
12606 13067
12608 13048
12608 13078
12608 13089
12608 13100
12608 13101
12608 13102
12608 13103
12608 13104
12608 13105
12608 13106
12608 13107
12608 13108
12608 13109
12608 13110
12611 12613
12611 12614
12611 12615
12625 12676
12626 12676
12627 12676
12628 12676
12629 12676
12631 12676
12632 12650
12632 12676
12634 13068
12635 12677
12636 13075
12637 12676
12638 12676
12639 12642
12639 12676
12639 12677
12640 12653
12640 12654
12640 12676
12641 12676
12642 12676
12643 12676
12644 12676
12645 12676
12646 12676
12647 12676
12648 12676
12649 12676
12650 12651
12650 12652
12650 12676
12650 12687
12651 12676
12652 12676
12653 12676
12654 12676
12654 12677
12655 12676
12655 12677
12656 12676
12657 12676
12657 12677
12658 12660
12658 12662
12659 12676
12660 12662
12660 12676
12661 12676
12662 12666
12663 12666
12663 12668
12663 12676
12664 12668
12664 12669
12664 12676
12665 12666
12665 12668
12665 12669
12665 12676
12666 12676
12667 12672
12667 12673
12667 12676
12668 12676
12669 12676
12669 12677
12671 12676
12672 12676
12673 12676
12673 13534
12674 12676
12675 12676
12676 12678
12676 12684
12676 12685
12676 12686
12676 12687
12676 12688
12676 12689
12676 12690
12676 12691
12676 12692
12676 12693
12676 12694
12676 12695
12676 12696
12676 12697
12676 12698
12676 12699
12676 12931
12676 12932
12676 12933
12677 12686
12687 12688
12688 12689
12688 12690
12688 12691
12688 12692
12688 12693
12689 12690
12689 12691
12689 12692
12689 12693
12689 12694
12689 12695
12691 12692
12691 12693
12691 12694
12691 12695
12691 12696
12700 14506
12700 14508
12701 13358
12701 13365
12702 13358
12702 13365
12703 13358
12704 13358
12704 13365
12705 13358
12706 13358
12706 13365
12707 13346
12707 13358
12707 13365
12708 12981
12708 13358
12708 13365
12709 12710
12709 13346
12709 13367
12710 12981
12710 13367
12711 12981
12711 13367
12712 12981
12712 13358
12712 13367
12713 12981
12713 13367
12714 12981
12714 13367
12715 12981
12715 13358
12715 13367
12716 13358
12716 13367
12717 13257
12718 13257
12719 14506
12719 14508
12720 12721
12720 13257
12721 12722
12721 12723
12721 12724
12721 12725
12721 12726
12721 12727
12721 12728
12721 12731
12721 12732
12721 12733
12721 12734
12721 12735
12721 12736
12721 12737
12721 12738
12721 12739
12721 13555
12722 13257
12723 12724
12723 12727
12723 13257
12724 13257
12725 13257
12726 13257
12727 13257
12728 13257
12729 13257
12730 13257
12731 13257
12732 13257
12733 13257
12734 13257
12735 13257
12736 13257
12737 13257
12738 13257
12739 13257
12740 13257
12741 13257
12742 13235
12742 13257
12743 13235
12743 13257
12744 13257
12745 13257
12746 13257
12747 13257
12748 13257
12749 14506
12749 14508
12750 13257
12751 13257
12752 13257
12753 13257
12754 13257
12755 13257
12756 13257
12757 13257
12758 13257
12759 13257
12761 13257
12762 13257
12763 12793
12764 12793
12770 12793
12770 12819
12773 12774
12773 12775
12773 12793
12774 12793
12775 12793
12776 12793
12777 12784
12777 12793
12778 12793
12779 12793
12780 12793
12781 12793
12783 12793
12784 12785
12784 12793
12785 12793
12786 12793
12787 12793
12788 12793
12789 12793
12790 12794
12790 12812
12791 12793
12791 13269
12792 12806
12793 12794
12793 12795
12793 12796
12793 12798
12793 12799
12793 12800
12793 12801
12793 12802
12793 12803
12793 12804
12793 12805
12793 12806
12793 12807
12793 12808
12793 12809
12793 12810
12793 12811
12793 12812
12793 12815
12793 12816
12793 12817
12793 12820
12793 12821
12793 13268
12793 13298
12796 12820
12796 12821
12799 12801
12801 12803
12801 12804
12801 12807
12801 12811
12801 12812
12810 12812
12822 13358
12826 13358
12828 13360
12829 13358
12830 13358
12831 13358
12832 13358
12832 13360
12833 13358
12834 12835
12834 12836
12834 12838
12834 13358
12835 13358
12836 13358
12837 13358
12838 13358
12839 13358
12839 13360
12840 13358
12840 13360
12841 13358
12841 13360
12842 13358
12843 13358
12844 13358
12845 13358
12846 13358
12847 13358
12848 13358
12851 13358
12852 13358
12853 13358
12854 13358
12854 13360
12855 13346
12856 12981
12856 13358
12856 13361
12857 13346
12857 13359
12858 13346
12858 13359
12859 13346
12860 12861
12860 13326
12860 13346
12860 13347
12861 13346
12862 13346
12862 13365
12863 13346
12863 13370
12864 13346
12865 13346
12865 13361
12865 13366
12866 13326
12866 13346
12867 13346
12867 13363
12867 13368
12868 13346
12869 13346
12869 13362
12870 13346
12871 14506
12871 14508
12872 13346
12872 13360
12873 13346
12874 13346
12875 13346
12875 13347
12875 13367
12876 12879
12876 12880
12876 13346
12877 13346
12878 13346
12879 13346
12880 13346
12881 13346
12881 13365
12882 13346
12884 13346
12885 13358
12886 13346
12886 13358
12887 13346
12887 13358
12888 13346
12888 13358
12888 13368
12889 13346
12889 13358
12889 13368
12890 14506
12890 14508
12891 13346
12891 13363
12892 13346
12892 13363
12893 12981
12894 13346
12895 13346
12896 13346
12896 13359
12897 13358
12898 13358
12900 12904
12900 13436
12900 13459
12901 12904
12901 13436
12901 13459
12902 12904
12902 13416
12902 13436
12902 13459
12903 13436
12903 13459
12904 13436
12904 13459
12905 13436
12905 13459
12906 13436
12906 13478
12906 13480
12907 13436
12907 13480
12908 13459
12910 12914
12911 12914
12912 12914
12913 12914
12914 12915
12914 13400
12914 13413
12914 13417
12914 13511
12914 13520
12914 13525
12934 13459
12935 13388
12936 13459
12938 12962
12938 12981
12939 12981
12939 13367
12940 13459
12941 13346
12941 13369
12942 13346
12942 13358
12942 13369
12943 12981
12943 13369
12944 14506
12944 14508
12945 12981
12945 13358
12945 13360
12946 13358
12946 13360
12947 13358
12947 13360
12948 12981
12948 13360
12949 12962
12949 12981
12949 13360
12950 12962
12950 12981
12950 13360
12951 12962
12951 12981
12951 13360
12952 12962
12952 12981
12952 13367
12953 12954
12953 12962
12953 13360
12953 13367
12954 12962
12954 12981
12954 13367
12955 12962
12955 13346
12955 13358
12955 13367
12956 12962
12956 13358
12956 13367
12957 12962
12957 13358
12957 13367
12958 12962
12958 12981
12958 13358
12958 13367
12959 12962
12959 13346
12959 13358
12960 12962
12960 12981
12960 13367
12961 12962
12961 12981
12961 13360
12961 13367
12962 13046
12963 12981
12964 12981
12965 12981
12965 13358
12966 12981
12966 13363
12967 12981
12967 13364
12968 12981
12968 13363
12969 13346
12969 13358
12969 13363
12970 13346
12970 13358
12971 13358
12971 13363
12972 12981
12972 13358
12972 13363
12973 12981
12973 13358
12973 13363
12974 14506
12974 14508
12975 13346
12975 13358
12976 12981
12976 13364
12976 13366
12977 12981
12977 13358
12977 13364
12978 12981
12978 13364
12979 13346
12979 13358
12979 13363
12980 13358
12981 12982
12981 12985
12981 12986
12981 12988
12981 12993
12981 12994
12981 12995
12981 12996
12981 12997
12981 12998
12981 12999
12981 13003
12981 13004
12981 13007
12981 13008
12981 13009
12981 13010
12981 13011
12981 13012
12981 13079
12981 13088
12981 13112
12981 13138
12981 13140
12981 13141
12981 13144
12981 13152
12981 13153
12981 13155
12981 13197
12981 13198
12981 13199
12981 13202
12981 13214
12981 13217
12981 13264
12981 13317
12981 13338
12981 13355
12982 13326
12983 12985
12983 12986
12983 12987
12983 12999
12983 13000
12983 13084
12983 13087
12983 13089
12984 13326
12985 12999
12985 13326
12986 12999
12986 13326
12987 13086
12987 13326
12987 13358
12988 13326
12988 13358
12989 13326
12989 13358
12990 13326
12990 13358
12991 13326
12992 13086
12992 13326
12992 13358
12993 12999
12993 13326
12994 13067
12994 13326
12995 13326
12996 13326
12997 13067
12997 13086
12997 13326
12998 13086
12998 13326
12999 13086
12999 13326
13000 13066
13000 13075
13001 13066
13001 13075
13002 13066
13002 13075
13005 13326
13005 13358
13006 13358
13006 13366
13008 13366
13013 13326
13013 13358
13031 13032
13035 13061
13035 13066
13035 13067
13035 13075
13036 13037
13036 13062
13036 13066
13036 13067
13036 13075
13037 13062
13037 13063
13037 13065
13037 13066
13037 13067
13037 13068
13037 13075
13038 13075
13039 13067
13039 13075
13042 13066
13042 13075
13043 13075
13044 13066
13044 13075
13045 13066
13047 13066
13048 13066
13048 13111
13049 13066
13050 13067
13050 13075
13051 13067
13051 13075
13052 13066
13052 13075
13053 13075
13054 13066
13055 13067
13055 13075
13056 13060
13056 13061
13056 13067
13056 13075
13057 13067
13057 13068
13057 13075
13058 13067
13058 13075
13059 13066
13059 13067
13059 13068
13060 13061
13060 13065
13060 13066
13060 13067
13060 13075
13061 13066
13061 13067
13061 13068
13061 13075
13062 13066
13062 13067
13062 13068
13062 13075
13063 13066
13063 13067
13063 13075
13064 13066
13065 13066
13065 13067
13065 13068
13065 13075
13066 13069
13066 13076
13066 13082
13066 13083
13066 13084
13066 13085
13066 13105
13066 13106
13066 13107
13066 13108
13066 13110
13066 13200
13067 13085
13068 13070
13068 13071
13068 13072
13068 13073
13069 13073
13069 13075
13070 13075
13071 13075
13072 13075
13073 13075
13075 13077
13075 13082
13075 13083
13075 13084
13075 13085
13075 13089
13075 13090
13075 13091
13075 13092
13075 13093
13075 13105
13075 13106
13080 13086
13080 13346
13082 13084
13082 13086
13083 13086
13084 13085
13084 13086
13085 13086
13085 13326
13086 13087
13086 13088
13086 13089
13086 13090
13086 13091
13086 13092
13098 13111
13099 13111
13100 13111
13101 13111
13101 13326
13102 13111
13103 13105
13103 13106
13103 13111
13104 13106
13104 13111
13105 13109
13105 13111
13106 13109
13106 13111
13107 13111
13108 13111
13109 13111
13110 13111
13112 13337
13117 13119
13120 13125
13121 13125
13122 13125
13124 13125
13126 13330
13127 13330
13128 13330
13129 13330
13130 13131
13130 13132
13130 13330
13131 13330
13132 13330
13133 13330
13134 13330
13135 13330
13136 13330
13137 13330
13139 13330
13139 13345
13140 13330
13140 13337
13141 13147
13141 13330
13141 13337
13142 13330
13142 13337
13143 13330
13143 13337
13144 13147
13144 13330
13144 13337
13145 13146
13145 13330
13145 13337
13146 13330
13146 13337
13147 13330
13147 13337
13148 13330
13148 13337
13149 13330
13150 13330
13151 13330
13151 13337
13152 13330
13152 13337
13153 13330
13153 13337
13154 13330
13155 13330
13155 13337
13156 13330
13156 13337
13157 13330
13157 13337
13159 13176
13160 13176
13161 13176
13162 13176
13163 13171
13163 13176
13164 13176
13165 13176
13166 13176
13167 13176
13168 13176
13169 13176
13170 13176
13171 13172
13171 13176
13172 13176
13173 13176
13174 13176
13175 13176
13176 13177
13176 13178
13176 13179
13180 13330
13180 13344
13181 13330
13181 13344
13182 13330
13182 13343
13183 13330
13183 13343
13184 13330
13193 13194
13193 13195
13193 13200
13193 13203
13196 13197
13196 13198
13196 13199
13196 13200
13196 13201
13196 13202
13196 13203
13198 13347
13199 13347
13202 13347
13202 13358
13204 13346
13206 13257
13207 13212
13213 13346
13213 13347
13215 13346
13215 13367
13216 13346
13217 13361
13218 13346
13219 13221
13220 13346
13220 13365
13222 13346
13222 13367
13223 13346
13223 13361
13224 13346
13224 13368
13225 13330
13225 13370
13227 13258
13228 13258
13229 13258
13230 13257
13231 13257
13232 13257
13233 13257
13234 13257
13235 13257
13236 13257
13236 13258
13237 13257
13238 13257
13239 13257
13239 13258
13240 13257
13240 13258
13241 13257
13241 13258
13242 13257
13242 13258
13243 13257
13243 13258
13243 13259
13244 13257
13244 13258
13245 13257
13245 13258
13246 13257
13246 13258
13246 13259
13247 13257
13247 13258
13247 13259
13248 13257
13249 13257
13249 13259
13250 13257
13251 13257
13252 13257
13253 13257
13253 13259
13254 13257
13254 13259
13255 13257
13256 13257
13257 13259
13257 13544
13257 13545
13257 13546
13257 13547
13257 13548
13257 13549
13257 13555
13258 13260
13258 13276
13258 13277
13258 13278
13258 13279
13258 13280
13258 13281
13258 13282
13258 13283
13258 13289
13258 13290
13258 13300
13258 13301
13258 13302
13258 13308
13258 13375
13258 13376
13261 13267
13262 13267
13263 13267
13264 13267
13265 13267
13266 13267
13268 13269
13297 13358
13297 13359
13314 13315
13314 13330
13315 13318
13315 13330
13315 13337
13315 13340
13315 13341
13315 13342
13315 13343
13315 13344
13315 13345
13315 13372
13316 13330
13316 13346
13318 13330
13318 13333
13318 13337
13318 13340
13318 13341
13318 13342
13318 13343
13318 13344
13318 13345
13318 13372
13319 13358
13320 13346
13320 13358
13321 13346
13321 13347
13322 13358
13323 13346
13323 13359
13323 13368
13324 13346
13324 13359
13325 13358
13326 13328
13326 13347
13326 13349
13326 13358
13326 13359
13326 13360
13326 13361
13326 13362
13326 13363
13326 13364
13326 13365
13326 13366
13326 13367
13326 13368
13326 13369
13326 13370
13327 13346
13328 13346
13328 13358
13328 13368
13329 13346
13329 13368
13330 13331
13330 13332
13330 13333
13330 13334
13330 13335
13330 13336
13330 13337
13330 13339
13330 13340
13330 13341
13330 13342
13330 13343
13330 13344
13330 13345
13330 13389
13330 13527
13337 13340
13337 13341
13337 13342
13337 13343
13337 13344
13337 13345
13337 13372
13338 13370
13340 13341
13340 13342
13340 13343
13340 13344
13340 13345
13340 13372
13341 13342
13341 13343
13341 13344
13341 13345
13341 13372
13342 13343
13342 13344
13342 13345
13342 13372
13343 13344
13343 13345
13343 13372
13344 13345
13344 13372
13344 13527
13345 13372
13346 13349
13346 13350
13346 13357
13347 13358
13347 13359
13347 13360
13347 13361
13347 13362
13347 13363
13347 13364
13347 13365
13347 13366
13347 13367
13347 13368
13347 13369
13347 13370
13349 13366
13351 13358
13352 13358
13353 13358
13354 13358
13356 13358
13358 13359
13358 13360
13358 13361
13358 13362
13358 13363
13358 13364
13358 13365
13358 13366
13358 13367
13358 13368
13358 13369
13358 13370
13359 13360
13359 13361
13359 13362
13359 13363
13359 13364
13359 13365
13359 13366
13359 13367
13359 13368
13359 13369
13359 13370
13360 13361
13360 13362
13360 13363
13360 13364
13360 13365
13360 13366
13360 13367
13360 13368
13360 13369
13360 13370
13361 13362
13361 13363
13361 13364
13361 13365
13361 13366
13361 13367
13361 13368
13361 13369
13361 13370
13362 13363
13362 13364
13362 13365
13362 13366
13362 13367
13362 13368
13362 13369
13362 13370
13363 13364
13363 13365
13363 13366
13363 13367
13363 13368
13363 13369
13363 13370
13364 13365
13364 13366
13364 13367
13364 13368
13364 13369
13364 13370
13365 13366
13365 13367
13365 13368
13365 13369
13365 13370
13366 13367
13366 13368
13366 13369
13366 13370
13367 13368
13367 13369
13367 13370
13368 13369
13368 13370
13369 13370
13377 13379
13388 13429
13394 13436
13395 13436
13396 13397
13396 13398
13396 13436
13396 13459
13397 13436
13397 13459
13398 13436
13398 13459
13399 13459
13400 13405
13400 13409
13401 13405
13401 13409
13403 13459
13405 13407
13405 13408
13405 13412
13405 13413
13405 13414
13405 13419
13405 13424
13405 13425
13405 13483
13406 13409
13408 13409
13409 13412
13409 13462
13411 13418
13412 13459
13415 13459
13419 13433
13419 13459
13419 13460
13419 13476
13420 13459
13421 13459
13422 13459
13423 13433
13423 13434
13423 13459
13423 13460
13423 13476
13424 13433
13424 13459
13424 13460
13424 13476
13425 13433
13425 13460
13425 13476
13425 13478
13425 13480
13426 13476
13426 13478
13426 13480
13427 13433
13427 13459
13428 13459
13430 13434
13430 13459
13431 13459
13432 13459
13433 13456
13433 13476
13433 13483
13434 13512
13435 13478
13435 13480
13436 13450
13436 13451
13436 13475
13436 13490
13437 13459
13438 13459
13439 13459
13440 13459
13441 13459
13442 13478
13442 13480
13443 13453
13443 13486
13444 13478
13444 13480
13448 13459
13449 13459
13450 13459
13451 13454
13451 13459
13452 13459
13453 13459
13454 13459
13455 13476
13455 13484
13456 13459
13456 13498
13457 13498
13458 13478
13459 13476
13459 13490
13459 13499
13459 13505
13459 13506
13459 13512
13459 13513
13459 13514
13459 13515
13459 13516
13459 13517
13459 13523
13459 13526
13460 13489
13462 13478
13462 13481
13463 13481
13464 13481
13465 13481
13466 13481
13468 13478
13468 13480
13469 13478
13469 13480
13470 13478
13470 13480
13472 13490
13473 13478
13473 13480
13473 13521
13474 13478
13474 13481
13475 13478
13475 13481
13477 13478
13477 13481
13477 13498
13478 13479
13478 13480
13478 13481
13478 13482
13478 13483
13478 13484
13478 13485
13478 13486
13478 13487
13478 13488
13478 13489
13478 13491
13478 13492
13478 13493
13478 13518
13478 13519
13478 13524
13479 13480
13479 13481
13480 13481
13480 13492
13480 13493
13480 13518
13480 13519
13480 13524
13481 13482
13481 13483
13481 13484
13481 13485
13481 13486
13481 13487
13481 13488
13481 13489
13481 13491
13481 13497
13485 13496
13487 13521
13490 13521
13501 14506
13501 14508
13506 13521
13507 13508
13508 13517
13515 13521
13518 13521
13519 13521
13522 14506
13522 14508
13550 14506
13550 14508
13552 14506
13552 14508
13554 14506
13554 14508
13560 14506
13560 14508
13561 14506
13561 14508
13563 14506
13563 14508
13574 14506
13574 14508
13575 14232
13575 15584
13587 13588
13587 13589
13587 13590
13599 13600
13606 14168
13607 15250
13608 13613
13609 13613
13610 13613
13611 13613
13612 13613
13613 13614
13613 13615
13613 13616
13613 13617
13613 13618
13613 13619
13613 13620
13613 13621
13613 13623
13613 13624
13613 13625
13613 13626
13613 13627
13613 13628
13613 13629
13613 13630
13613 13631
13613 13635
13613 13636
13613 13637
13613 14238
13620 15036
13622 14939
13632 14238
13633 14233
13633 14685
13634 15099
13635 14238
13638 14229
13639 14238
13640 15247
13641 13644
13642 13644
13643 13644
13643 14234
13644 13645
13644 14234
13644 14810
13645 13646
13645 13647
13645 13648
13645 14234
13649 13650
13649 13659
13649 14607
13650 14232
13651 14215
13652 13653
13652 13654
13652 13659
13654 15527
13655 13659
13656 13671
13657 13671
13658 13671
13659 13670
13659 13677
13659 13895
13659 14232
13659 14358
13659 14580
13659 14720
13659 14722
13659 14783
13659 14790
13659 14804
13659 14814
13659 14825
13659 14888
13659 14921
13659 14999
13659 15000
13659 15001
13659 15002
13659 15003
13659 15036
13659 15044
13659 15171
13660 13671
13661 13671
13662 13671
13663 13671
13664 13671
13665 13671
13666 13671
13667 13671
13668 13671
13669 13671
13670 13671
13670 14358
13670 14362
13670 14363
13670 14369
13671 13672
13671 13673
13671 13674
13671 13675
13671 13676
13671 13760
13671 14232
13678 13929
13679 14720
13680 13931
13680 14236
13681 13682
13681 13684
13682 13683
13682 14720
13682 15526
13685 14011
13686 14011
13687 14720
13688 14344
13689 14011
13690 13691
13690 13692
13690 13693
13690 13694
13690 14232
13694 13710
13694 13711
13694 13799
13694 13813
13694 13815
13694 13965
13694 14080
13694 14082
13694 14086
13694 14090
13694 14112
13694 14166
13694 14232
13695 13696
13695 15548
13696 13697
13696 13699
13696 14232
13696 15548
13698 15548
13700 13701
13701 13709
13701 15548
13701 15566
13702 13703
13702 14133
13702 14232
13702 14264
13702 14297
13702 15013
13704 13706
13705 13706
13706 13707
13706 13708
13706 13709
13706 14232
13706 15548
13710 13712
13713 13716
13714 13716
13715 13716
13716 13717
13716 14232
13716 15160
13718 15160
13719 15290
13720 14856
13721 14852
13722 14011
13723 14201
13724 14011
13725 14720
13726 14011
13727 14011
13728 14011
13729 14011
13730 14011
13731 14011
13732 14011
13733 14011
13734 14011
13735 14011
13736 13743
13737 13743
13738 13743
13739 13743
13740 13743
13741 13743
13742 13743
13743 13744
13743 13745
13743 13746
13743 13747
13743 13748
13743 13824
13743 14232
13749 13824
13750 14818
13751 13752
13752 13753
13752 13754
13752 13755
13752 14201
13752 14241
13756 14838
13757 14838
13758 14838
13759 13823
13761 13825
13762 13825
13763 13825
13764 13825
13765 13825
13766 13825
13767 13825
13768 13825
13769 13773
13770 13772
13770 13773
13771 13773
13772 13773
13772 13775
13772 13886
13772 14218
13772 14286
13773 13774
13773 13775
13773 13776
13773 13777
13778 14011
13779 13780
13780 13781
13780 13782
13780 14234
13780 14706
13783 13792
13783 14234
13784 13791
13784 14234
13785 13791
13785 14234
13786 13791
13787 13791
13788 13791
13789 13791
13790 13791
13791 13792
13791 14234
13792 13793
13792 13794
13792 13795
13792 13796
13792 14234
13797 13798
13797 13813
13797 14077
13797 14078
13797 14079
13797 14232
13797 14581
13800 13813
13801 13813
13802 13813
13803 13813
13804 13813
13805 13813
13806 13813
13807 13813
13808 13813
13809 13813
13810 13813
13811 13930
13812 13813
13813 13814
13813 14232
13813 14908
13816 14201
13817 14218
13818 13823
13819 14011
13820 13858
13821 13858
13822 13826
13823 13824
13823 13825
13823 13868
13823 13883
13823 14052
13823 14232
13823 14237
13823 14617
13823 15381
13823 15516
13824 13825
13824 13883
13824 14044
13824 14303
13824 14583
13825 13826
13825 13834
13825 14115
13825 14232
13825 14237
13826 13827
13826 13829
13826 13834
13826 13845
13826 13846
13826 13847
13826 13848
13826 13849
13826 13850
13826 13851
13826 13852
13826 13853
13826 13854
13826 13857
13826 13858
13826 14206
13826 14237
13826 14605
13828 13829
13829 13830
13830 13831
13832 13833
13832 13844
13833 14237
13834 13835
13834 13836
13834 13837
13834 13838
13834 13841
13834 13842
13834 13843
13834 13844
13834 14237
13839 13848
13840 13849
13855 13928
13856 13930
13859 14201
13860 14201
13861 14201
13862 14244
13863 14852
13864 14011
13865 14201
13866 14216
13867 14011
13869 13883
13870 13883
13871 14011
13872 13880
13873 14011
13874 13883
13875 13883
13876 13883
13877 13883
13878 13883
13879 14583
13880 13881
13880 13882
13880 13883
13880 14347
13881 13883
13882 13883
13883 13884
13883 13885
13883 14232
13887 14041
13887 14052
13888 14218
13889 14218
13890 14011
13891 14223
13892 14223
13893 14011
13894 15003
13895 13896
13895 13897
13895 14232
13898 14229
13899 13900
13899 15204
13901 13929
13902 13931
13902 14236
13903 13946
13904 13928
13905 13930
13906 13911
13907 13911
13908 13929
13909 13931
13909 14236
13910 13911
13911 13912
13911 13913
13911 13914
13911 13917
13911 13918
13911 13931
13911 13954
13911 13956
13911 14236
13911 14384
13915 13916
13915 13931
13915 14236
13919 13932
13920 13928
13921 13930
13922 13930
13923 13928
13924 13929
13925 13929
13926 13930
13927 13930
13928 13929
13928 13930
13928 13931
13928 13936
13928 13937
13928 13951
13928 13953
13928 13955
13928 14132
13928 14236
13928 14646
13928 14834
13928 15163
13928 15365
13929 13930
13929 13931
13929 13940
13929 13941
13929 13952
13929 13958
13929 14236
13929 14850
13929 15164
13929 15364
13929 15565
13930 13931
13930 13957
13930 13961
13930 13964
13930 14236
13930 14622
13930 14836
13931 13932
13931 13942
13931 13943
13931 13946
13931 13960
13931 14236
13931 14680
13931 14833
13931 15362
13932 13933
13932 13934
13932 13935
13932 13939
13932 13950
13932 14236
13932 14318
13938 13946
13942 14236
13943 14236
13944 13946
13945 13946
13946 13947
13946 13948
13946 13949
13946 13963
13946 14236
13946 15470
13959 14232
13959 14233
13959 14235
13959 14236
13959 14238
13959 14239
13959 15111
13960 14236
13962 14232
13962 14233
13962 14234
13962 14235
13962 14236
13962 14238
13962 14239
13962 15114
13965 13966
13967 14011
13968 14011
13969 14011
13970 14011
13971 14011
13972 14011
13973 14011
13974 14011
13975 14011
13976 14011
13977 14233
13978 14011
13979 14011
13980 14011
13981 14011
13982 14011
13983 14011
13984 14011
13985 14011
13986 14011
13987 14011
13988 14011
13989 14011
13990 14011
13991 14011
13992 14011
13993 14011
13994 14011
13995 14011
13996 14011
13997 14011
13998 14011
13999 14011
14000 14011
14001 14011
14002 14011
14003 14011
14004 14011
14005 14011
14006 14011
14007 14011
14008 14011
14009 14011
14010 14011
14011 14012
14011 14013
14011 14014
14011 14015
14011 14016
14011 14017
14011 14018
14011 14019
14011 14020
14011 14021
14011 14022
14011 14023
14011 14024
14011 14025
14011 14026
14011 14027
14011 14028
14011 14029
14011 14030
14011 14031
14011 14032
14011 14033
14011 14034
14011 14035
14011 14036
14011 14037
14011 14038
14011 14039
14011 14040
14011 14059
14011 14061
14011 14062
14011 14063
14011 14064
14011 14065
14011 14111
14011 14114
14011 14116
14011 14117
14011 14118
14011 14119
14011 14120
14011 14121
14011 14123
14011 14124
14011 14125
14011 14126
14011 14127
14011 14128
14011 14131
14011 14160
14011 14233
14011 14248
14011 14284
14011 14285
14011 14301
14011 14355
14011 14372
14011 14373
14011 14374
14011 14389
14011 14577
14011 14624
14011 14645
14011 14667
14011 14668
14011 14670
14011 14671
14011 14690
14011 14735
14011 14744
14011 14748
14011 14767
14011 14770
14011 14773
14011 14787
14011 14792
14011 14800
14011 14801
14011 14805
14011 14807
14011 14813
14011 14822
14011 14858
14011 14861
14011 14865
14011 14866
14011 14867
14011 14870
14011 14871
14011 14873
14011 14914
14011 14923
14011 14976
14011 14991
14011 15012
14011 15035
14011 15043
14011 15053
14011 15055
14011 15067
14011 15091
14011 15102
14011 15123
14011 15125
14011 15145
14011 15165
14011 15169
14011 15173
14011 15208
14011 15211
14011 15230
14011 15234
14011 15336
14011 15349
14011 15352
14011 15358
14011 15370
14011 15396
14011 15405
14011 15410
14011 15431
14011 15433
14011 15456
14011 15457
14011 15458
14011 15459
14011 15461
14011 15468
14011 15469
14011 15511
14011 15543
14011 15563
14027 14233
14042 14818
14043 14052
14044 14045
14044 14047
14044 14232
14046 14052
14048 14829
14049 14050
14049 14052
14049 14058
14051 14052
14052 14053
14052 14054
14052 14055
14052 14056
14052 14057
14052 14070
14052 14232
14060 15426
14066 14090
14067 14090
14068 14090
14068 14096
14069 14070
14070 14071
14070 14072
14070 14074
14073 14350
14075 14350
14076 14272
14076 14316
14081 14095
14083 14229
14083 14234
14084 14090
14085 14090
14087 14090
14088 14090
14089 14090
14090 14091
14090 14092
14090 14093
14090 14094
14090 14095
14090 14096
14090 14097
14090 14098
14090 14099
14090 14100
14090 14101
14090 14102
14090 14103
14090 14104
14090 14105
14090 14106
14090 14107
14090 14232
14090 15503
14090 15513
14090 15514
14090 15517
14090 15520
14090 15541
14091 14096
14092 14096
14095 14096
14096 14097
14096 14101
14096 14106
14096 14107
14096 15517
14096 15541
14108 14233
14109 14112
14112 14113
14115 14232
14122 14939
14129 14506
14130 14506
14133 14156
14133 14232
14133 14233
14133 14258
14133 14317
14133 14578
14133 14802
14133 14879
14133 15004
14133 15139
14133 15269
14133 15314
14133 15401
14133 15420
14133 15429
14133 15523
14133 15535
14133 15593
14134 14137
14134 14148
14135 14137
14136 14137
14137 14138
14137 14139
14137 14140
14137 14141
14137 14142
14137 14143
14137 14144
14137 14145
14137 14146
14137 14156
14146 14156
14146 14984
14146 15350
14147 14149
14147 14156
14149 14150
14149 14151
14149 14152
14149 14153
14149 14155
14149 14156
14154 14156
14156 14157
14156 14232
14156 14349
14156 14984
14156 15014
14156 15270
14156 15347
14156 15351
14156 15430
14156 15507
14158 15374
14159 14432
14161 14432
14162 14939
14163 14222
14164 14212
14165 14201
14165 14202
14166 14167
14166 14168
14166 14169
14166 14170
14166 14232
14171 14203
14172 14218
14173 14203
14174 14203
14174 14371
14174 14785
14174 15476
14175 14203
14176 14203
14177 14203
14178 14209
14179 14180
14179 14196
14181 14200
14182 14183
14182 14218
14182 14786
14183 14224
14183 14786
14184 14218
14184 14226
14185 14203
14186 14214
14187 14218
14188 14218
14189 14214
14190 14203
14191 14192
14191 14203
14193 14203
14194 14203
14195 14203
14196 14214
14196 14218
14196 14221
14196 14246
14197 14203
14198 14218
14199 14203
14200 14218
14200 14257
14200 14819
14201 14202
14201 14232
14201 14241
14201 14808
14202 14203
14203 14231
14203 14241
14204 14217
14205 14217
14206 14207
14207 14208
14209 14218
14210 14218
14211 14218
14211 14225
14212 14213
14212 14218
14213 14218
14215 14218
14215 15038
14215 15040
14215 15042
14216 14218
14216 14227
14216 14232
14216 14233
14216 14243
14216 14364
14216 14676
14216 14775
14216 14793
14216 15382
14216 15411
14216 15434
14216 15441
14216 15480
14217 14236
14218 14219
14218 14220
14218 14232
14218 14233
14218 14255
14218 14256
14218 14579
14218 14673
14218 14688
14218 14730
14218 14771
14218 14818
14218 14922
14218 14951
14218 15063
14218 15383
14218 15442
14218 15474
14218 15509
14218 15515
14222 14223
14222 14677
14222 14678
14222 14679
14222 14849
14223 14232
14223 14745
14223 15064
14223 15066
14223 15085
14223 15504
14227 14228
14228 15395
14229 14230
14229 14234
14229 14245
14229 14809
14230 14234
14232 14233
14232 14234
14232 14235
14232 14236
14232 14237
14232 14238
14232 14239
14232 14241
14232 14250
14232 14317
14232 14364
14232 14394
14232 14422
14232 14432
14232 14461
14232 14483
14232 14506
14232 14511
14232 14537
14232 14566
14232 14585
14232 14586
14232 14613
14232 14625
14232 14633
14232 14648
14232 14657
14232 14720
14232 14723
14232 14736
14232 14750
14232 14762
14232 14776
14232 14793
14232 14838
14232 14847
14232 14852
14232 14856
14232 14859
14232 14869
14232 14888
14232 14895
14232 14908
14232 14915
14232 14928
14232 14939
14232 14942
14232 14955
14232 14992
14232 15036
14232 15044
14232 15058
14232 15059
14232 15075
14232 15085
14232 15092
14232 15099
14232 15103
14232 15110
14232 15114
14232 15140
14232 15160
14232 15166
14232 15168
14232 15204
14232 15209
14232 15224
14232 15232
14232 15235
14232 15280
14232 15290
14232 15301
14232 15314
14232 15337
14232 15371
14232 15374
14232 15435
14232 15445
14232 15454
14232 15462
14232 15480
14232 15490
14232 15548
14232 15550
14232 15572
14232 15593
14233 14234
14233 14235
14233 14236
14233 14237
14233 14238
14233 14239
14233 14280
14233 14284
14233 14316
14233 14317
14233 14396
14233 14628
14233 14923
14233 15068
14233 15085
14233 15088
14233 15383
14233 15396
14233 15397
14233 15456
14233 15457
14233 15458
14233 15459
14234 14235
14234 14236
14234 14237
14234 14238
14234 14239
14234 14245
14234 14695
14234 14696
14234 14697
14234 14698
14234 14699
14234 14700
14234 14703
14234 14706
14234 14707
14234 14709
14234 14710
14234 14711
14234 14713
14234 14716
14234 14809
14234 14810
14234 14811
14234 14812
14234 15021
14234 15022
14234 15023
14234 15025
14234 15147
14234 15148
14234 15149
14234 15150
14234 15152
14234 15153
14234 15154
14234 15155
14235 14236
14235 14237
14235 14238
14235 14239
14235 15026
14235 15027
14235 15029
14235 15031
14235 15033
14236 14237
14236 14238
14236 14239
14236 14680
14236 14833
14236 15362
14237 14238
14237 14239
14237 15114
14238 14239
14238 14309
14238 14343
14238 14354
14238 15413
14238 15415
14240 14342
14241 14242
14241 14244
14241 14356
14241 14357
14241 14377
14241 14394
14241 14398
14241 14422
14241 14623
14241 14769
14241 14868
14241 14869
14241 14872
14241 15047
14241 15048
14241 15050
14241 15051
14241 15052
14241 15054
14241 15113
14241 15182
14241 15200
14241 15204
14241 15519
14244 15113
14246 14247
14249 14250
14249 15374
14250 14251
14250 14252
14250 14253
14250 14254
14259 14260
14260 15314
14261 14262
14261 14263
14261 15314
14265 14357
14266 14271
14267 14271
14268 14271
14269 14271
14270 14271
14271 14317
14271 15415
14273 14276
14274 14276
14275 14276
14276 14277
14276 14278
14276 14279
14276 14317
14280 14281
14280 14282
14280 14283
14280 14316
14287 14291
14288 14291
14289 14291
14290 14291
14291 14292
14291 14293
14291 14294
14291 14295
14291 14296
14291 14317
14298 14299
14298 14300
14298 14317
14302 14353
14303 15528
14304 14316
14305 14316
14306 14316
14307 14316
14308 14309
14308 14316
14310 14311
14311 14312
14311 14313
14311 14314
14311 14317
14315 14342
14316 14317
14316 14319
14316 15240
14316 15529
14317 14319
14317 14320
14317 14342
14317 14343
14317 14345
14317 14348
14317 14350
14317 14351
14317 14352
14317 14353
14317 14354
14317 15415
14319 14320
14319 14340
14319 14341
14319 14342
14319 14343
14320 14321
14320 14322
14320 14323
14320 14324
14320 14325
14320 14326
14320 14327
14320 14328
14320 14329
14320 14330
14320 14331
14320 14332
14320 14333
14320 14334
14320 14335
14320 14336
14320 14337
14320 14338
14320 14339
14344 14358
14346 14351
14349 15348
14359 14364
14360 14921
14361 14364
14364 14365
14364 14366
14364 14367
14364 14368
14364 14370
14375 14377
14376 14377
14377 14378
14377 14379
14377 14380
14377 14381
14377 14382
14377 14394
14383 14394
14385 14394
14386 14394
14387 14394
14388 14394
14390 14394
14391 14394
14392 14394
14393 14394
14394 14395
14394 14608
14394 14768
14394 14769
14394 15199
14397 14422
14399 14422
14400 14422
14401 14422
14402 14422
14403 14422
14404 14422
14405 14422
14406 14422
14407 14422
14408 14422
14409 14422
14410 14422
14411 14422
14412 14422
14413 14422
14414 14422
14415 14422
14416 15200
14417 14422
14418 14422
14419 14422
14420 14422
14421 14422
14423 14506
14423 14508
14424 14506
14424 14508
14425 14506
14425 14508
14426 14432
14427 14432
14428 14432
14429 14432
14430 14432
14431 14432
14432 14433
14432 14434
14432 14435
14432 14436
14432 14437
14432 14438
14432 14439
14432 14440
14432 14441
14432 14442
14432 14443
14432 14444
14432 14445
14432 14446
14432 14447
14432 14448
14432 14449
14432 14450
14432 14451
14432 14452
14432 14469
14432 14470
14432 14506
14432 14508
14432 14576
14453 14461
14454 14461
14455 14461
14456 14461
14457 14461
14458 14461
14459 14461
14460 14461
14461 14462
14461 14463
14461 14464
14461 14465
14461 14466
14461 14467
14461 14560
14468 14511
14471 14506
14472 14483
14473 14483
14474 14483
14475 14483
14476 14483
14477 14483
14478 14483
14479 14483
14480 14483
14481 14483
14482 14483
14483 14484
14483 14485
14483 14486
14483 14487
14483 14488
14483 14489
14483 14490
14483 14491
14483 14506
14483 14508
14483 14746
14492 14537
14493 14511
14494 14511
14495 14511
14496 14511
14497 14511
14498 14511
14499 14537
14500 14537
14501 14537
14502 14537
14503 14537
14504 14537
14505 14537
14506 14507
14506 14508
14506 14511
14506 14537
14506 14560
14506 14747
14506 15279
14507 14508
14508 14511
14508 14537
14508 14560
14508 15279
14509 14537
14510 14537
14511 14512
14511 14513
14511 14514
14511 14515
14511 14516
14511 14517
14511 14518
14511 14519
14511 14520
14511 14521
14511 14522
14511 14523
14511 14524
14511 14525
14511 14526
14511 14527
14511 14528
14511 14529
14511 14530
14511 14531
14511 14532
14511 14533
14511 14534
14511 14535
14511 14725
14536 14537
14537 14538
14537 14539
14537 14540
14537 14541
14537 14542
14537 14543
14537 14544
14537 14545
14537 14546
14537 14547
14537 14548
14537 14549
14537 14550
14537 14551
14537 14552
14537 14553
14537 14554
14537 14555
14537 14556
14537 14557
14537 14558
14537 14559
14537 14726
14537 14727
14537 14728
14560 14566
14561 14566
14562 14566
14563 14566
14564 14566
14565 14566
14566 14567
14566 14568
14566 14569
14566 14570
14566 14571
14566 14572
14566 14573
14566 14574
14566 14575
14580 14582
14584 14586
14585 14586
14585 14596
14585 14597
14585 14598
14585 14599
14585 14604
14586 14587
14586 14588
14586 14589
14586 14590
14586 14591
14586 14592
14586 14593
14594 14602
14595 14602
14596 14601
14596 14611
14596 14648
14597 14648
14600 14827
14601 14648
14602 14603
14602 14615
14602 14648
14606 14611
14609 14611
14610 14611
14611 14612
14611 14613
14611 14648
14613 14614
14616 14915
14618 14648
14619 14620
14619 14625
14619 14630
14619 14648
14621 14648
14625 14626
14625 14627
14629 14633
14630 15450
14631 14633
14632 14633
14633 14634
14633 14635
14633 14636
14633 14637
14633 14638
14633 14639
14633 14648
14640 14642
14641 14895
14642 15290
14643 14644
14644 14893
14644 15290
14644 15531
14647 14650
14648 14649
14648 14657
14648 14669
14648 14736
14648 15241
14648 15267
14650 14657
14651 14657
14652 14657
14653 14657
14654 14657
14655 14657
14656 14657
14657 14658
14657 14659
14657 14660
14657 14661
14657 14662
14657 14663
14657 14664
14657 14665
14657 14666
14672 14673
14673 14674
14673 14675
14681 14682
14681 15085
14682 14683
14683 14684
14685 14686
14687 14688
14689 14720
14691 14720
14692 14697
14693 14697
14694 14697
14695 14697
14696 14697
14698 14699
14699 14700
14701 14706
14702 14706
14703 14706
14704 14707
14705 14707
14706 14707
14707 14708
14708 14709
14710 14711
14711 14712
14711 14713
14711 14714
14711 14715
14711 14716
14717 14720
14718 14720
14719 14720
14720 14722
14720 14724
14720 15170
14720 15460
14720 15510
14720 15544
14721 14724
14729 14837
14731 14736
14732 14736
14733 14736
14734 14736
14736 14737
14736 14738
14736 14739
14736 14740
14736 14741
14736 14742
14736 14743
14749 14750
14750 14751
14750 14752
14750 14753
14750 14754
14750 14755
14750 14758
14756 14762
14757 14762
14758 14762
14758 15290
14759 14762
14760 14762
14761 14762
14762 14763
14762 14764
14762 14765
14762 14766
14772 14775
14775 14776
14775 14817
14776 14777
14776 14778
14776 14779
14776 14780
14776 14781
14776 14782
14784 15204
14788 14793
14789 14793
14791 14793
14793 14794
14793 14795
14793 14796
14793 14797
14793 14798
14793 14799
14793 15041
14803 15140
14806 15290
14811 14812
14811 15155
14814 14815
14814 14816
14819 14820
14820 14828
14821 14823
14823 14825
14824 15171
14825 14826
14825 14827
14825 14828
14825 14829
14825 14830
14831 14838
14832 14835
14835 14843
14835 14856
14837 14856
14837 15214
14837 15239
14838 14839
14838 14840
14838 14841
14838 14842
14838 14847
14838 14856
14844 14845
14845 15224
14846 14856
14847 14848
14847 14856
14851 14852
14852 14855
14852 15049
14852 15212
14852 15213
14852 15215
14852 15224
14853 15224
14854 15224
14855 15224
14856 15224
14856 15229
14856 15231
14856 15235
14856 15239
14856 15512
14856 15588
14857 15224
14859 14862
14859 15374
14860 15444
14862 14863
14862 15374
14862 15444
14864 15359
14868 14869
14868 14872
14874 14955
14875 14963
14876 14939
14876 14962
14877 14879
14878 14879
14879 14880
14879 14881
14879 14882
14879 14883
14879 14884
14879 14885
14886 15290
14887 14888
14889 15290
14890 14895
14891 14895
14892 14895
14894 14895
14895 14896
14895 14897
14895 14898
14895 14899
14895 14900
14895 14901
14895 14902
14895 14903
14895 15290
14904 14905
14905 15099
14906 15290
14907 14908
14908 14909
14908 14910
14908 14911
14908 14915
14912 14915
14913 14915
14915 14916
14915 14917
14915 14918
14915 14919
14915 14920
14915 15290
14924 14939
14925 14928
14926 14927
14926 14928
14926 14936
14926 14937
14926 14941
14927 14928
14928 14929
14928 14930
14928 14931
14933 14934
14933 14939
14935 14975
14938 14939
14939 14941
14939 14952
14939 14953
14939 14955
14939 14963
14939 14975
14939 15056
14939 15346
14939 15505
14939 15522
14940 14942
14941 14942
14942 14943
14942 14944
14942 14945
14942 14946
14942 14947
14942 14948
14942 14949
14942 14950
14951 15391
14951 15521
14953 14965
14954 14957
14955 14956
14955 14957
14955 14958
14955 14959
14955 14960
14961 14963
14963 14964
14966 15374
14967 14975
14968 14975
14969 14975
14970 14975
14971 14975
14972 14975
14973 14975
14974 14975
14975 14977
14975 14992
14978 14984
14979 14984
14980 14984
14981 14984
14982 14984
14983 14984
14984 14985
14984 14986
14984 14987
14984 14988
14984 14998
14989 14992
14990 14992
14992 14993
14992 14994
14992 14995
14992 14996
14992 14997
15004 15005
15004 15006
15004 15007
15004 15008
15004 15009
15004 15010
15004 15011
15014 15015
15014 15016
15014 15017
15014 15018
15014 15019
15020 15099
15021 15022
15022 15023
15022 15024
15022 15025
15026 15027
15026 15029
15026 15031
15026 15033
15027 15028
15027 15029
15027 15031
15027 15033
15029 15030
15029 15031
15029 15033
15031 15032
15031 15033
15033 15034
15036 15037
15038 15039
15044 15045
15044 15046
15048 15333
15049 15224
15056 15057
15057 15058
15059 15060
15059 15061
15059 15062
15059 15075
15065 15085
15069 15075
15070 15075
15071 15075
15072 15075
15073 15075
15074 15075
15075 15076
15075 15077
15075 15078
15075 15079
15075 15080
15075 15081
15075 15082
15075 15083
15075 15084
15075 15085
15075 15086
15085 15087
15085 15090
15085 15099
15089 15099
15092 15093
15092 15094
15092 15095
15092 15099
15096 15099
15097 15099
15098 15099
15099 15100
15099 15101
15099 15103
15103 15104
15103 15105
15103 15106
15103 15107
15103 15108
15103 15109
15112 15114
15114 15115
15114 15116
15114 15117
15114 15118
15114 15119
15114 15120
15114 15121
15114 15122
15124 15140
15126 15140
15127 15129
15128 15129
15129 15140
15130 15140
15131 15140
15132 15140
15133 15140
15134 15140
15135 15140
15136 15140
15137 15140
15138 15140
15139 15140
15139 15144
15139 15475
15140 15142
15140 15353
15141 15401
15142 15143
15146 15147
15147 15148
15147 15149
15150 15152
15151 15152
15152 15153
15152 15154
15156 15160
15157 15160
15158 15160
15159 15160
15160 15161
15160 15162
15160 15167
15166 15167
15167 15168
15172 15182
15174 15182
15175 15182
15176 15182
15177 15182
15178 15182
15179 15182
15180 15182
15181 15182
15182 15183
15182 15184
15182 15185
15182 15186
15182 15187
15182 15188
15182 15189
15182 15190
15182 15191
15182 15192
15182 15193
15182 15194
15182 15195
15195 15196
15197 15200
15198 15200
15200 15201
15200 15206
15202 15204
15203 15204
15204 15205
15204 15207
15204 15209
15209 15210
15216 15224
15217 15224
15218 15224
15219 15224
15220 15224
15221 15224
15222 15224
15223 15224
15224 15225
15224 15226
15224 15227
15224 15228
15231 15232
15233 15235
15235 15236
15235 15237
15235 15238
15235 15239
15242 15314
15243 15314
15244 15314
15245 15314
15246 15314
15247 15248
15247 15314
15249 15314
15250 15314
15251 15252
15251 15253
15251 15257
15252 15257
15253 15257
15254 15257
15255 15257
15256 15257
15257 15258
15257 15259
15257 15260
15257 15261
15257 15262
15257 15263
15257 15264
15257 15265
15257 15314
15266 15269
15268 15269
15269 15489
15271 15273
15272 15273
15273 15314
15274 15280
15275 15280
15276 15280
15277 15280
15278 15280
15279 15280
15280 15281
15280 15282
15280 15283
15280 15284
15280 15285
15280 15286
15280 15287
15280 15288
15280 15289
15290 15291
15290 15301
15290 15542
15290 15587
15292 15301
15293 15301
15294 15301
15295 15301
15296 15301
15297 15301
15298 15301
15299 15301
15300 15301
15301 15302
15301 15303
15301 15304
15301 15305
15301 15306
15301 15307
15301 15308
15301 15309
15301 15310
15311 15327
15312 15327
15313 15327
15314 15327
15314 15330
15314 15569
15315 15327
15316 15327
15317 15327
15318 15327
15319 15327
15320 15327
15321 15327
15322 15327
15323 15327
15324 15327
15325 15327
15326 15327
15327 15328
15327 15329
15331 15341
15332 15339
15332 15344
15334 15337
15335 15337
15337 15338
15337 15339
15337 15340
15337 15341
15337 15342
15337 15343
15337 15374
15339 15340
15340 15345
15343 15449
15353 15354
15353 15355
15353 15356
15353 15357
15353 15475
15359 15372
15359 15444
15360 15361
15360 15372
15363 15374
15366 15373
15367 15374
15368 15374
15369 15374
15371 15374
15373 15376
15373 15377
15373 15378
15373 15379
15373 15380
15374 15375
15374 15379
15374 15443
15374 15444
15374 15445
15374 15518
15379 15444
15383 15384
15383 15385
15383 15386
15383 15387
15383 15388
15383 15389
15383 15390
15383 15392
15383 15393
15383 15394
15383 15397
15397 15398
15397 15399
15400 15401
15401 15402
15401 15403
15401 15404
15401 15406
15401 15408
15406 15407
15406 15408
15409 15412
15411 15412
15412 15413
15413 15414
15416 15419
15417 15419
15418 15419
15419 15420
15420 15421
15420 15422
15420 15423
15420 15424
15420 15425
15420 15426
15420 15427
15428 15430
15432 15435
15434 15435
15435 15436
15435 15437
15435 15438
15435 15439
15435 15440
15444 15445
15444 15452
15445 15446
15445 15447
15445 15448
15451 15509
15452 15453
15453 15454
15454 15455
15462 15463
15462 15464
15462 15465
15462 15466
15462 15548
15467 15548
15471 15477
15472 15480
15473 15480
15477 15480
15478 15480
15479 15480
15480 15481
15480 15482
15480 15483
15480 15484
15480 15485
15480 15486
15480 15487
15480 15488
15490 15548
15491 15584
15492 15584
15493 15494
15493 15584
15495 15584
15496 15584
15497 15584
15498 15499
15498 15584
15500 15584
15501 15502
15501 15584
15507 15508
15523 15524
15523 15525
15530 15535
15532 15535
15533 15535
15534 15535
15535 15536
15535 15537
15535 15538
15535 15539
15545 15548
15546 15548
15547 15548
15548 15549
15548 15550
15548 15572
15550 15551
15550 15552
15550 15553
15550 15554
15550 15555
15550 15556
15550 15557
15550 15558
15550 15559
15550 15560
15550 15561
15562 15572
15564 15572
15566 15572
15567 15572
15568 15572
15569 15570
15572 15573
15572 15574
15572 15575
15576 15584
15577 15584
15578 15584
15579 15584
15580 15584
15581 15584
15582 15584
15583 15584
15584 15585
15584 15589
15584 15590
15584 15591
15586 15593
15592 15593
15593 15594
