% 8837 4743 4743
1 221
1 251
1 252
1 253
1 254
1 255
1 256
1 257
1 258
1 259
1 260
1 261
1 262
1 263
1 264
1 265
1 266
1 267
1 268
1 269
1 270
1 271
1 272
1 273
1 274
1 275
1 276
1 277
1 278
1 279
1 280
1 281
1 282
1 283
1 284
1 285
1 286
1 287
3 80
3 221
3 296
3 297
3 300
3 302
3 303
3 305
3 309
3 312
3 320
3 321
3 327
3 329
3 330
3 1056
3 2887
4 379
4 380
4 381
4 382
4 383
4 384
4 385
4 386
4 387
4 388
4 389
5 221
5 391
5 419
5 420
5 421
6 434
6 436
6 439
6 442
6 446
6 447
6 450
6 457
6 458
6 459
6 460
6 461
6 462
6 463
6 464
6 465
6 466
6 467
6 468
6 469
7 221
7 280
7 470
7 471
7 472
7 473
7 474
7 475
7 476
7 477
7 478
7 479
7 480
7 481
7 482
7 483
7 484
7 485
7 486
7 487
7 488
7 489
7 490
7 491
7 492
7 493
7 494
7 495
7 496
7 497
7 498
7 499
7 500
7 501
7 502
7 503
7 504
7 505
7 506
7 507
7 508
7 509
7 510
7 511
7 512
7 513
7 514
7 515
7 516
7 517
7 518
7 519
7 520
7 521
7 522
7 523
7 524
7 525
7 526
7 527
7 528
7 529
7 530
7 531
7 532
7 533
7 534
7 535
7 536
7 537
7 538
7 539
7 540
7 541
7 542
7 543
7 544
7 545
7 546
7 547
7 548
7 549
7 550
7 551
7 552
7 553
7 554
7 555
7 556
7 557
7 558
7 559
7 560
7 561
7 562
7 563
7 564
7 565
7 566
7 567
7 568
7 569
7 570
7 571
7 572
7 573
7 574
7 575
7 576
7 577
7 578
7 579
7 580
7 581
7 582
7 583
7 584
7 585
7 586
7 587
7 588
7 589
7 590
7 591
7 592
7 593
7 594
7 595
7 596
7 597
7 598
7 599
7 600
7 601
7 602
7 603
7 604
7 605
7 606
7 607
7 608
7 609
7 610
8 611
8 616
8 619
8 621
8 627
8 630
8 637
8 640
8 653
8 656
9 658
9 661
9 672
9 673
9 675
9 679
9 680
9 682
9 684
9 688
9 694
9 697
9 699
9 700
9 706
9 707
9 708
9 709
9 710
9 711
9 712
9 713
9 714
9 1863
10 717
10 718
10 720
10 725
10 726
10 727
10 728
11 253
11 275
11 733
11 736
11 741
11 775
11 776
11 777
11 778
11 779
11 780
11 781
11 782
11 783
11 784
11 785
11 786
11 787
11 788
11 789
11 790
11 791
11 792
11 793
11 794
11 795
11 796
11 797
11 798
11 799
11 800
11 801
11 802
11 803
11 804
11 805
11 806
11 807
11 808
11 809
11 810
11 811
11 812
11 813
11 814
11 815
11 816
11 817
11 818
11 819
11 820
11 821
11 822
11 823
11 824
11 825
11 826
11 827
11 828
11 829
11 830
11 831
11 832
11 833
11 834
11 835
11 836
11 837
11 838
11 839
11 840
11 841
11 842
11 843
11 844
11 845
11 846
11 847
12 315
12 527
12 595
12 708
12 848
12 850
12 851
12 853
12 855
12 856
12 857
12 859
12 860
12 861
12 862
12 863
12 869
12 871
12 872
12 878
12 879
12 880
12 881
12 882
12 883
12 884
12 885
12 886
12 887
12 888
12 889
12 890
12 891
12 892
12 893
12 894
12 895
12 896
12 897
12 898
12 899
12 900
12 901
12 902
12 903
12 904
12 905
12 906
12 907
12 908
12 909
12 910
12 911
12 912
12 913
12 914
12 915
12 916
12 917
12 918
12 919
12 920
12 921
12 922
12 923
12 924
12 925
12 926
12 927
12 928
12 929
12 930
12 931
12 932
12 933
12 934
12 935
12 936
12 937
12 938
12 939
12 940
12 941
12 942
12 943
12 944
12 945
12 946
12 947
12 948
12 949
12 950
12 951
12 952
12 953
12 954
12 955
12 956
12 957
12 958
12 959
12 960
12 961
12 962
12 963
12 964
12 965
12 966
12 967
12 968
12 969
12 970
12 971
12 972
12 973
12 974
12 975
12 976
12 977
12 978
12 979
12 980
12 981
12 982
12 983
12 984
12 985
12 986
13 988
13 994
13 1019
13 1022
13 1023
13 1024
13 1025
13 1026
13 1027
13 1028
13 1029
13 1030
13 1031
13 1032
13 1033
14 708
14 1034
14 1035
14 1043
14 1049
14 1052
14 1056
14 1057
14 1058
15 708
15 939
15 985
15 1059
15 1060
15 1061
15 1062
15 1063
15 1064
15 1065
15 1066
15 1067
15 1068
15 1069
15 1070
15 1071
15 1072
15 1073
15 1074
15 1075
15 1076
15 1077
15 1078
15 1079
15 1080
15 1081
15 1082
15 1083
15 1084
15 1085
15 1086
15 1087
15 1088
15 1089
16 1091
16 1094
16 1095
16 1096
16 2429
17 221
17 1097
17 1098
17 1099
17 1100
18 1108
18 1128
18 1136
18 1137
18 1138
18 1139
18 1140
18 1141
18 1142
18 1143
19 708
19 946
19 1156
19 1157
19 1158
19 1159
19 1160
19 1161
19 1162
19 1163
19 1164
19 1165
19 1166
19 1167
19 1168
19 1169
19 1170
19 1171
19 1172
19 1173
19 1175
19 1176
19 1178
20 221
20 255
20 283
20 593
20 828
20 942
20 1082
20 1100
20 1179
20 1180
20 1181
20 1182
20 1183
20 1184
20 1185
20 1186
20 1187
20 1188
20 1189
20 1190
20 1191
20 1192
20 1193
20 1194
20 1195
20 1196
20 1197
20 1198
20 1199
20 1200
20 1201
20 1202
20 1203
20 1204
20 1205
20 1206
20 1207
20 1208
20 1209
20 1210
20 1211
20 1212
20 1213
20 1214
20 1215
20 1216
20 1217
20 1218
20 1222
20 1223
20 1224
20 1225
20 1226
20 1227
20 1228
20 1229
20 1230
20 1231
20 1232
20 1233
20 1235
20 1236
20 1237
20 1238
20 1239
20 1240
20 1241
20 1242
20 1243
20 1244
20 1245
20 1246
20 1247
20 1248
20 1249
20 1250
20 1251
20 1252
20 1253
20 1254
20 1255
20 1256
20 1257
20 1258
20 1259
20 1260
20 1261
20 1262
20 1263
21 221
21 1268
21 1279
21 1280
21 1290
21 1291
21 1292
21 1293
21 2892
22 232
22 1193
22 1229
22 1237
22 1294
22 1295
22 1297
22 1298
22 1299
22 1300
22 1301
22 1302
22 1303
22 1304
22 1305
22 1306
22 1307
22 1308
22 1309
22 1310
22 1311
22 1312
22 1313
22 1314
22 1315
22 1316
22 1317
23 1318
23 1319
23 1320
23 1321
23 1322
23 1323
23 1324
23 1325
23 1326
23 1327
23 1328
23 1329
23 1330
23 1331
23 1332
23 1333
23 1334
23 1335
25 1336
25 1337
25 1338
25 1339
25 1340
25 1341
26 221
26 1342
26 1343
26 1344
26 1345
26 1346
26 1347
26 1348
26 1349
26 1350
26 1352
26 1353
26 1354
26 1355
26 1356
26 1357
26 1358
26 1359
27 1361
27 1367
27 1372
27 1377
27 1378
27 1379
27 1380
27 1381
27 1382
27 1383
27 1384
27 1385
27 1386
27 1387
27 1388
27 1389
27 1390
27 1391
27 1392
27 1393
27 1394
27 1395
27 1396
27 1397
27 1398
28 1400
28 1402
28 1403
28 1404
28 1405
28 1406
28 1407
28 1408
29 708
29 1410
29 1413
29 1415
29 1416
29 1417
29 1419
29 1420
29 1423
29 1430
29 1431
29 1432
29 1433
29 1434
29 1435
29 1436
29 1439
29 1441
29 1451
29 1452
29 1455
29 1457
29 1458
29 1459
29 1460
29 1461
29 1462
29 1463
29 1464
29 1465
29 1466
29 1467
29 1468
29 1469
29 1470
29 1471
29 1472
29 1473
29 1474
29 1475
29 1476
29 1477
29 1478
29 1479
29 1480
29 1481
29 1482
29 1483
29 1484
29 1485
29 1486
29 1487
29 1488
30 708
30 1489
30 1490
30 1491
30 1492
30 1493
30 1494
30 1495
30 1496
30 1497
31 221
31 1260
31 1498
31 1499
31 1500
31 1501
32 211
32 708
32 1034
32 1046
32 1051
32 1052
32 1502
32 1505
32 1506
32 1507
32 1508
32 1512
32 1513
32 1514
32 1515
32 1516
32 1517
32 1518
32 1519
32 1522
32 1524
32 1525
32 1526
32 1527
32 1528
32 1529
32 1530
33 221
33 1531
34 283
34 706
34 708
34 976
34 1534
34 1535
34 1536
34 1537
34 1538
34 1539
34 1540
34 1541
34 1542
34 1543
34 1544
34 1545
34 1546
34 1547
34 1548
34 1549
34 1550
34 1551
34 1552
34 1553
34 1554
34 1555
34 1556
34 1557
34 1558
34 1559
34 1560
34 1561
34 1562
34 1563
34 1564
34 1565
34 1566
34 1567
34 1568
34 1569
34 1570
34 1571
34 1572
34 1573
34 1574
34 1575
34 1576
34 1577
34 1578
35 221
35 801
35 802
35 835
35 1033
35 1227
35 1304
35 1581
35 1582
35 1583
35 1584
35 1585
35 1586
35 1587
35 1588
35 1589
35 1590
35 1591
35 1592
35 1593
35 1594
35 1595
35 1596
35 1597
35 1598
35 1599
35 1600
35 1601
35 1602
35 1603
35 1604
35 1605
35 1606
35 1607
35 1608
35 1609
35 1610
35 1611
35 1612
35 1613
35 1614
35 1615
35 1616
35 1617
35 1618
35 1619
35 1620
35 1621
35 1622
35 1623
35 1624
35 1625
36 221
36 283
36 597
36 939
36 1225
36 1237
36 1314
36 1315
36 1316
36 1475
36 1626
36 1627
36 1628
36 1629
36 1630
36 1631
36 1632
36 1633
36 1634
36 1635
36 1636
36 1637
36 1638
36 1639
36 1640
36 1641
36 1642
36 1643
36 1644
36 1645
36 1646
36 1647
36 1648
36 1649
36 1650
36 1651
36 1652
36 1653
36 1654
36 1655
36 1656
36 1657
36 1658
36 1659
36 1660
36 1661
36 1662
36 1663
36 1664
36 1665
36 1666
36 1667
36 1668
36 1669
36 1670
36 1671
36 1672
36 1673
36 1674
36 1675
36 1676
36 1677
36 1678
36 1679
36 1680
36 1681
36 1682
36 1683
36 1684
36 1685
36 1686
36 1687
36 1688
36 1689
36 1690
36 1691
36 1692
36 1693
36 1694
36 1695
36 1696
36 1697
36 1698
36 1699
36 1700
36 1701
36 1702
36 1703
36 1704
36 1705
36 1706
36 1707
36 1708
36 1709
36 1710
36 1711
36 1712
36 1713
36 1714
36 1715
36 1716
36 1717
36 1718
36 1719
36 1720
36 1721
36 1722
36 1723
36 1724
36 1725
36 1726
36 1727
36 1728
36 1729
36 1730
36 1731
36 1732
36 1733
36 1734
36 1735
36 1736
37 221
37 1737
37 1738
38 255
38 708
38 788
38 827
38 831
38 1190
38 1229
38 1554
38 1569
38 1608
38 1699
38 1739
38 1740
38 1741
38 1742
38 1743
38 1744
38 1745
38 1746
38 1747
38 1748
38 1749
38 1750
38 1751
38 1752
38 1753
38 1754
38 1755
38 1756
38 1757
38 1758
38 1759
38 1760
38 1761
38 1762
38 1763
38 1764
38 1765
38 1766
38 1767
38 1768
38 1769
38 1770
38 1771
38 1772
38 1773
38 1774
38 1775
38 1776
38 1777
38 1778
38 1779
38 1780
38 1781
38 1782
38 1783
38 1784
38 1785
38 1786
38 1787
38 1788
38 1789
38 1790
38 1791
38 1792
38 1793
38 1794
38 1795
38 1796
38 1797
38 1798
38 1799
38 1800
38 1801
38 1802
38 1803
38 1804
38 1805
38 1806
38 1807
38 1808
38 1809
38 1810
38 1811
38 1812
38 1813
38 1814
38 1815
38 1816
38 1817
38 1818
38 1819
38 1820
38 1821
38 1822
38 1823
38 1824
38 1825
38 1826
38 1827
38 1828
38 1829
38 1830
38 1831
38 1832
38 1833
38 1834
38 1835
38 1836
38 1837
38 1838
38 1839
38 1840
38 1841
38 1842
38 1843
38 1844
38 1845
38 1846
38 1847
38 1848
38 1849
39 727
39 1850
39 1851
39 1852
39 1855
39 1856
39 1857
39 1858
39 1859
40 669
40 680
40 684
40 1863
41 287
41 595
41 708
41 932
41 1317
41 1869
41 1870
41 1871
41 1872
41 1873
41 1874
41 1875
41 1876
41 1877
41 1878
41 1879
42 708
42 1880
42 1881
44 1158
44 1882
44 1883
44 1884
44 1885
44 1886
44 1887
44 1888
44 1889
44 1890
44 1891
44 1892
44 1893
44 1894
44 1895
45 1899
45 1900
45 1903
45 1906
45 1909
45 1912
45 1913
45 1914
45 1917
45 1919
45 1920
45 1921
45 1923
45 1924
45 1925
45 1927
45 1928
45 1930
46 320
46 1029
46 1934
46 1935
46 1936
46 1937
46 1939
46 1941
46 1942
46 1943
46 1944
46 1947
46 1951
46 1952
46 1956
46 1957
46 1958
46 1959
46 1960
46 1961
46 1962
48 1963
48 1968
48 1975
48 1978
48 1979
48 1980
48 1983
48 1984
48 1998
48 1999
49 596
49 708
49 1236
49 1258
49 2000
49 2001
49 2002
49 2003
49 2004
49 2005
49 2006
49 2007
49 2008
49 2009
49 2010
49 2011
49 2012
49 2013
49 2014
49 2015
49 2016
49 2017
49 2018
49 2019
49 2020
49 2021
49 2022
49 2023
49 2024
49 2025
49 2026
49 2027
49 2028
49 2029
49 2030
49 2031
49 2032
49 2033
49 2034
49 2035
49 2036
49 2037
49 2038
50 2045
50 2047
50 2049
50 2054
50 2056
50 2060
50 2078
50 2085
50 2086
51 2088
51 2089
51 2091
51 2092
51 2097
51 2100
51 2102
51 2107
51 2109
51 2111
51 2113
51 2118
51 2121
51 2125
51 2126
51 2128
51 2129
51 2131
51 2132
51 2135
51 2136
52 708
52 837
52 1028
52 1501
52 2137
52 2138
52 2139
52 2140
52 2141
52 2142
52 2143
52 2144
52 2145
52 2146
52 2147
52 2148
52 2149
52 2150
52 2151
52 2152
52 2153
52 2154
52 2155
52 2156
52 2157
52 2158
52 2159
52 2160
52 2161
52 2162
52 2163
53 283
53 285
53 708
53 714
53 789
53 931
53 932
53 953
53 1167
53 1258
53 1380
53 1527
53 1540
53 1757
53 1768
53 1875
53 2164
53 2165
53 2166
53 2167
53 2168
53 2169
53 2170
53 2171
53 2172
53 2173
53 2174
53 2175
53 2176
53 2177
53 2178
53 2179
53 2180
53 2181
53 2182
53 2183
53 2184
53 2185
53 2186
53 2187
53 2188
53 2189
53 2190
53 2191
53 2192
53 2193
53 2194
53 2195
53 2196
53 2197
53 2198
53 2199
53 2200
53 2201
53 2202
53 2203
53 2204
53 2205
53 2206
53 2207
53 2208
53 2209
53 2210
53 2211
53 2212
53 2213
53 2214
53 2215
53 2216
53 2217
53 2218
53 2219
53 2220
53 2221
53 2222
53 2223
53 2224
53 2225
53 2226
53 2227
53 2228
53 2229
53 2230
53 2231
53 2232
53 2233
53 2234
53 2235
53 2236
53 2237
53 2238
53 2239
53 2240
53 2241
53 2242
53 2243
53 2244
53 2245
53 2246
53 2247
53 2248
53 2249
53 2250
53 2251
53 2252
53 2253
53 2254
53 2255
53 2256
53 2257
53 2258
53 2259
53 2260
53 2261
53 2262
53 2263
53 2264
53 2265
53 2266
53 2267
53 2268
53 2269
53 2270
53 2271
53 2272
53 2273
53 2274
53 2275
53 2276
53 2277
53 2278
53 2279
53 2280
53 2281
53 2282
53 2283
53 2284
53 2285
53 2286
53 2287
53 2288
53 2289
53 2290
53 2291
53 2292
53 2293
53 2294
53 2295
53 2296
53 2297
53 2298
53 2299
53 2300
53 2301
53 2302
53 2303
53 2304
53 2305
53 2306
53 2307
53 2308
53 2309
53 2310
53 2311
53 2312
53 2313
53 2314
53 2315
53 2316
53 2317
53 2318
53 2319
53 2320
53 2321
53 2322
54 708
54 1893
54 2350
54 2351
54 2352
54 2353
54 2354
54 2355
54 2356
54 2357
54 2358
54 2359
54 2360
54 2361
54 2362
54 2363
54 2364
54 2365
54 2366
54 2367
54 2368
54 2369
54 2370
54 2371
54 2372
55 708
55 2403
55 2408
55 2422
55 2423
55 2424
55 2425
56 2426
57 1094
57 1336
57 2427
57 2428
57 2429
57 2431
57 2432
57 2433
57 2434
58 708
58 2437
59 708
59 2438
59 2439
59 2440
59 2441
61 233
61 283
61 527
61 528
61 708
61 795
61 968
61 970
61 1081
61 1237
61 1239
61 1317
61 1696
61 1705
61 1756
61 1784
61 1879
61 2012
61 2290
61 2305
61 2442
61 2443
61 2444
61 2445
61 2446
61 2447
61 2448
61 2449
61 2450
61 2451
61 2452
61 2453
61 2454
61 2455
61 2456
61 2457
61 2458
61 2459
61 2460
61 2461
61 2462
61 2463
61 2464
61 2465
61 2466
61 2467
61 2468
61 2469
61 2470
61 2471
61 2472
61 2473
61 2474
61 2475
61 2476
61 2477
61 2478
61 2479
61 2480
61 2481
61 2482
61 2483
61 2484
61 2485
61 2486
61 2487
61 2488
61 2489
61 2490
61 2491
61 2492
61 2493
61 2494
61 2495
61 2496
61 2497
61 2498
61 2499
61 2500
61 2501
61 2502
61 2503
61 2504
61 2505
61 2506
61 2507
61 2508
61 2509
61 2510
61 2511
61 2512
61 2513
61 2514
61 2515
61 2516
61 2517
61 2518
61 2519
61 2520
61 2521
61 2522
61 2523
61 2524
61 2525
61 2526
61 2527
61 2528
61 2529
61 2530
61 2531
61 2532
61 2533
61 2534
61 2535
61 2536
61 2537
61 2538
61 2539
61 2540
61 2541
61 2542
61 2543
61 2544
61 2545
61 2546
61 2547
61 2548
61 2549
61 2550
61 2551
61 2552
61 2553
61 2554
61 2555
61 2556
61 2557
61 2558
61 2559
61 2560
61 2561
61 2562
61 2563
61 2564
61 2565
61 2566
61 2567
61 2568
61 2569
61 2570
61 2571
61 2572
61 2573
61 2574
61 2575
61 2576
61 2577
61 2578
61 2579
61 2580
61 2581
61 2582
61 2583
61 2584
61 2585
62 221
62 2593
62 2594
62 2595
62 2596
62 2597
63 968
63 2493
63 2598
63 2599
63 2600
63 2601
63 2602
63 2603
63 2604
63 2605
63 2606
63 2607
63 2608
63 2609
63 2610
63 2611
63 2612
63 2613
63 2614
63 2615
63 2616
64 2617
64 2618
64 2619
64 2620
64 2621
64 2622
64 2623
64 2624
64 2625
64 2626
64 2627
64 2628
64 2629
64 2630
64 2631
64 2632
64 2633
64 2634
64 2635
64 2636
64 2637
64 2638
64 2639
64 2640
64 2641
64 2642
64 2643
64 2644
64 2645
64 2646
64 2647
64 2648
64 2649
64 2650
64 2651
64 2652
64 2653
64 2654
64 2655
64 2656
64 2657
64 2658
64 2659
64 2660
64 2662
64 2663
64 2664
64 2665
65 221
65 1081
65 1258
65 1307
65 1676
65 2011
65 2037
65 2149
65 2666
65 2667
65 2668
65 2669
65 2670
65 2671
65 2672
65 2673
65 2674
65 2675
65 2676
65 2677
65 2678
65 2679
65 2680
65 2681
65 2682
65 2683
65 2684
65 2685
65 2686
65 2687
65 2688
65 2689
65 2690
65 2691
65 2692
65 2693
65 2694
65 2695
65 2696
65 2697
65 2698
65 2699
65 2700
65 2701
65 2702
65 2703
65 2704
65 2705
65 2706
65 2707
65 2708
65 2709
65 2710
65 2711
65 2712
65 2713
65 2714
65 2715
65 2716
65 2717
65 2718
65 2719
65 2720
65 2721
65 2722
65 2723
65 2724
65 2725
65 2726
65 2727
65 2728
65 2729
65 2730
65 2731
65 2732
65 2733
65 2734
65 2735
65 2736
65 2737
65 2738
65 2739
65 2740
65 2741
65 2742
65 2743
65 2744
65 2745
65 2746
65 2747
66 221
66 251
66 253
66 285
66 462
66 469
66 595
66 831
66 946
66 948
66 1608
66 2748
66 2749
66 2750
66 2751
66 2752
66 2753
66 2754
66 2755
66 2756
66 2757
66 2758
66 2759
66 2760
66 2761
66 2762
66 2763
66 2764
66 2765
66 2766
66 2767
66 2768
66 2769
66 2770
66 2771
66 2773
66 2774
66 2775
66 2776
66 2777
66 2778
66 2779
66 2780
66 2781
66 2782
66 2783
66 2784
66 2785
66 2786
66 2787
67 708
67 1227
67 1534
67 2788
67 2789
67 2790
67 2791
67 2792
67 2793
67 2794
67 2795
67 2796
67 2797
67 2798
67 2799
67 2800
67 2801
67 2802
67 2803
67 2804
67 2805
67 2806
67 2807
67 2808
67 2809
67 2810
67 2811
67 2812
67 2813
67 2814
67 2815
67 2816
67 2817
67 2818
67 2819
67 2820
67 2821
67 2822
68 221
68 1238
68 1260
68 1320
68 1336
68 1347
68 2825
68 2826
68 2827
68 2828
68 2829
68 2830
68 2831
68 2832
68 2833
68 2834
68 2835
68 2836
68 2837
68 2838
68 2839
68 2840
68 2841
68 2842
68 2843
68 2844
68 2845
68 2846
68 2847
68 2848
68 2849
68 2850
68 2851
68 2852
68 2853
68 2854
68 2855
68 2856
68 2857
68 2858
68 2859
68 2860
68 2861
69 597
69 788
69 1225
69 1226
69 1336
69 2855
69 2862
69 2863
69 2864
69 2865
69 2866
69 2867
69 2868
69 2869
69 2870
69 2871
69 2872
69 2873
69 2874
69 2875
69 2876
69 2877
69 2878
69 2879
69 2880
69 2881
69 2882
69 2883
69 2884
69 2885
69 2886
69 2887
69 2888
69 2890
69 2891
69 2892
69 2893
69 2894
69 2895
69 2897
69 2898
69 2899
69 2900
69 2901
69 2902
69 2903
69 2904
69 2905
69 2906
69 2907
69 2908
69 2909
69 2910
69 2911
69 2912
69 2913
69 2914
69 2915
69 2916
69 2917
69 2918
69 2919
70 221
70 1048
70 1084
70 1224
70 1487
70 2825
70 2920
70 2921
70 2922
70 2923
70 2924
70 2925
70 2926
70 2927
70 2928
70 2929
70 2930
70 2931
70 2932
70 2933
70 2934
70 2935
70 2936
70 2937
70 2938
70 2939
71 97
71 221
71 285
71 936
71 1182
71 1203
71 1210
71 1215
71 1222
71 1238
71 1250
71 1304
71 1353
71 1623
71 2893
71 2917
71 2940
71 2941
71 2942
71 2943
71 2944
71 2945
71 2946
71 2947
71 2948
71 2949
71 2950
71 2951
71 2952
71 2953
71 2954
71 2955
71 2956
71 2957
71 2958
71 2959
71 2960
71 2961
71 2962
71 2963
71 2964
71 2965
71 2966
71 2967
71 2968
71 2969
71 2970
71 2971
71 2972
71 2973
71 2974
71 2975
71 2976
71 2977
71 2978
71 2979
71 2980
71 2981
71 2982
71 2983
71 2984
71 2985
71 2986
71 2987
71 2988
71 2989
71 2990
71 2991
71 2992
71 2993
71 2994
71 2995
71 2996
71 2997
71 2998
71 2999
71 3000
71 3001
71 3002
71 3003
71 3004
71 3005
71 3006
72 381
72 1317
72 3007
72 3008
72 3009
72 3010
72 3011
72 3012
72 3013
72 3014
73 221
73 3015
73 3016
73 3017
73 3018
73 3019
73 3020
75 221
75 1211
75 1219
75 1317
75 1619
75 1798
75 2873
75 2916
75 3021
75 3022
75 3023
75 3024
75 3025
75 3026
75 3027
75 3028
75 3029
75 3030
75 3031
75 3032
75 3033
75 3034
75 3035
75 3036
75 3037
75 3038
75 3039
75 3040
75 3041
75 3042
75 3043
75 3044
75 3045
75 3046
75 3047
75 3048
75 3049
75 3050
75 3051
75 3052
75 3053
75 3054
75 3055
75 3056
75 3057
75 3058
75 3059
75 3060
75 3061
75 3062
75 3063
75 3064
75 3065
75 3066
75 3067
75 3068
75 3069
75 3070
75 3071
75 3072
75 3073
75 3074
75 3075
75 3076
75 3077
75 3078
75 3079
75 3080
75 3081
75 3082
75 3083
75 3084
75 3085
75 3086
75 3087
75 3088
75 3089
75 3090
75 3091
75 3092
75 3093
75 3094
75 3095
75 3096
75 3097
75 3098
75 3099
75 3100
75 3101
75 3102
75 3103
75 3104
75 3105
75 3106
75 3107
75 3108
75 3109
75 3110
75 3111
75 3112
75 3113
75 3114
75 3115
75 3116
75 3117
75 3118
75 3119
75 3120
75 3121
75 3122
75 3123
75 3124
75 3125
75 3126
75 3127
75 3128
75 3129
75 3130
75 3131
75 3132
75 3133
75 3134
75 3135
75 3136
75 3137
75 3138
75 3139
75 3140
75 3141
75 3142
75 3143
75 3144
75 3145
75 3146
75 3147
75 3148
75 3149
75 3150
75 3151
75 3152
75 3153
75 3154
75 3155
75 3156
75 3157
75 3158
75 3159
75 3160
75 3161
75 3162
75 3163
75 3164
75 3165
75 3166
75 3167
75 3168
75 3169
75 3170
75 3171
75 3172
75 3173
75 3174
75 3175
75 3176
75 3177
75 3178
75 3179
75 3180
75 3181
75 3182
75 3183
75 3184
75 3185
75 3186
75 3187
76 708
76 3188
76 3189
76 3190
76 3191
77 255
77 513
77 708
77 795
77 939
77 941
77 942
77 953
77 1081
77 1082
77 1193
77 1205
77 1229
77 1237
77 1240
77 1245
77 1315
77 1317
77 1542
77 1545
77 1563
77 1569
77 1683
77 1768
77 2198
77 2206
77 2207
77 2241
77 2488
77 2554
77 2569
77 2677
77 3192
77 3193
77 3194
77 3195
77 3196
77 3197
77 3198
77 3199
77 3200
77 3201
77 3202
77 3203
77 3204
77 3205
77 3206
77 3207
77 3208
77 3209
77 3210
77 3211
77 3212
77 3213
77 3214
77 3215
77 3216
77 3217
77 3218
77 3219
77 3220
77 3221
77 3222
77 3223
77 3224
77 3225
77 3226
77 3227
77 3228
77 3229
77 3230
77 3231
77 3232
77 3233
77 3234
77 3235
77 3236
77 3237
77 3238
77 3239
77 3240
77 3241
77 3242
77 3243
77 3244
77 3245
77 3246
77 3247
77 3248
77 3249
77 3250
77 3251
77 3252
77 3253
78 221
78 3255
78 3257
78 3259
78 3261
78 3262
78 3263
78 3264
78 3265
78 3266
79 708
79 1100
79 1316
79 3209
79 3267
79 3268
79 3269
79 3270
79 3271
79 3272
79 3273
79 3274
79 3275
79 3276
79 3277
79 3278
79 3279
79 3280
79 3281
79 3282
79 3283
79 3284
79 3285
79 3286
79 3287
79 3288
79 3289
79 3290
79 3291
79 3292
79 3293
79 3294
79 3295
79 3296
79 3297
79 3298
79 3299
79 3300
79 3301
79 3302
79 3303
79 3304
79 3305
79 3306
79 3307
79 3308
79 3309
79 3310
79 3311
79 3312
79 3313
79 3314
79 3315
79 3316
79 3317
79 3318
79 3319
79 3320
79 3321
79 3322
79 3323
79 3324
79 3325
79 3326
79 3327
79 3328
79 3329
79 3330
79 3331
79 3332
79 3333
79 3334
79 3335
79 3336
79 3337
79 3338
79 3339
79 3340
79 3341
79 3342
79 3343
79 3344
79 3345
79 3346
80 2968
80 2994
80 3354
80 3355
80 3356
80 3357
80 3358
80 3359
80 3360
80 3361
80 3362
80 3363
80 3364
80 3365
80 3366
80 3367
80 3368
81 3372
81 3373
82 221
82 282
82 287
82 1099
82 1190
82 1208
82 2244
82 3005
82 3195
82 3375
82 3376
82 3377
82 3378
82 3379
82 3380
82 3381
82 3382
82 3383
82 3384
82 3385
82 3386
82 3387
82 3388
82 3389
82 3390
82 3391
82 3392
82 3393
82 3394
82 3395
82 3396
82 3397
82 3398
82 3399
82 3400
82 3401
82 3402
82 3403
82 3404
82 3405
82 3406
82 3407
82 3408
82 3409
82 3410
82 3411
82 3412
82 3413
82 3414
82 3415
82 3416
82 3417
82 3418
82 3419
82 3420
82 3421
82 3422
82 3423
82 3424
82 3425
82 3426
82 3427
82 3428
82 3429
82 3430
82 3431
82 3432
82 3433
82 3434
82 3435
82 3436
82 3437
82 3438
82 3439
82 3440
82 3441
82 3442
82 3443
83 3444
83 3445
83 3446
83 3447
83 3448
83 3449
83 3450
83 3451
83 3452
83 3453
83 3454
83 3455
83 3456
83 3457
83 3458
83 3459
83 3460
83 3461
83 3462
83 3463
83 3464
83 3465
83 3466
83 3467
83 3468
83 3469
83 3470
83 3471
83 3472
83 3473
83 3474
83 3475
83 3476
83 3477
83 3478
83 3479
83 3480
83 3481
83 3482
83 3483
84 3484
84 3485
84 3486
84 3487
86 1317
86 1706
86 2888
86 3488
86 3489
86 3490
86 3491
86 3492
86 3493
86 3494
86 3495
86 3496
86 3497
86 3498
86 3499
86 3500
86 3501
86 3502
86 3503
86 3504
86 3505
86 3506
86 3507
86 3508
86 3509
86 3510
86 3511
86 3512
86 3513
86 3514
86 3515
86 3516
86 3517
86 3518
86 3519
86 3520
86 3521
86 3522
86 3523
86 3524
86 3525
86 3526
86 3527
86 3528
86 3529
86 3530
86 3531
86 3532
86 3533
86 3534
86 3535
86 3536
86 3537
86 3538
86 3539
86 3540
86 3541
86 3542
86 3543
86 3544
86 3545
86 3546
86 3547
86 3548
86 3549
86 3550
86 3551
86 3552
86 3553
86 3554
86 3555
86 3556
86 4298
87 657
87 659
87 665
87 668
87 674
87 681
87 689
87 692
87 693
87 695
87 707
87 708
87 709
87 710
87 712
87 713
87 714
87 3557
87 3558
87 3559
88 708
88 1158
88 1892
88 1893
88 1895
88 3560
88 3561
88 3562
88 3563
88 3564
88 3565
88 3566
88 3567
88 3568
88 3569
88 3570
88 3571
88 3572
88 3573
88 3574
88 3575
88 3576
88 3577
88 3578
88 3579
88 3580
88 3581
88 3582
88 3583
88 3584
88 3585
88 3586
88 3587
88 3588
88 3589
88 3590
88 3591
88 3592
88 3593
88 3594
88 3595
88 3596
88 3597
88 3598
88 3599
88 3600
88 3601
88 3602
88 3603
88 3604
88 3605
88 3606
88 3607
88 3611
88 3612
88 3613
88 3614
88 3615
88 3616
88 3617
88 3618
88 3619
89 282
89 595
89 3209
89 3392
89 3440
89 3620
89 3621
89 3622
89 3623
89 3624
89 3625
89 3626
89 3627
89 3628
89 3629
91 3630
91 3631
91 3632
92 3633
92 3634
92 3635
92 3636
92 3637
92 3638
92 3639
92 3640
92 3641
92 3642
92 3643
92 3644
92 3645
92 3646
92 3647
92 3648
92 3649
92 3650
92 3651
92 3652
92 3653
92 3654
92 3655
92 3656
92 3657
92 3658
92 3659
92 3660
92 3661
92 3662
92 3663
92 3664
92 3665
92 3666
92 3667
92 3668
92 3669
92 3670
92 3671
92 3672
92 3673
92 3674
92 3675
92 3676
92 3677
92 3678
92 3679
92 3680
92 3681
92 3682
92 3683
92 3684
92 3685
92 3686
92 3687
92 3688
92 3689
92 3690
92 3691
92 3692
92 3693
93 3717
93 3718
93 3719
93 3720
94 708
94 1255
94 1501
94 1879
94 3721
94 3722
94 3723
94 3724
95 1187
95 3010
95 3725
95 3726
95 3733
95 3734
95 3735
95 3736
95 3737
95 3738
95 3739
95 3740
95 3741
95 3742
96 221
96 590
96 1250
96 1501
96 2954
96 3436
96 3743
96 3744
96 3745
96 3746
96 3747
96 3748
96 3749
96 3750
96 3751
96 3752
96 3753
96 3754
96 3755
96 3756
96 3757
96 3758
96 3759
96 3760
96 3761
96 3762
96 3763
96 3764
96 3765
96 3766
96 3767
96 3768
96 3769
96 3770
96 3771
96 3772
96 3773
96 3774
96 3775
96 3776
96 3777
96 3778
97 2089
97 2421
97 3779
97 3781
97 3782
97 3783
97 3784
97 3785
97 3787
97 3788
97 3789
97 3791
97 3792
97 3793
97 3795
97 3796
97 3797
97 3800
97 3801
97 3802
97 3803
97 3805
97 3806
97 3809
97 3810
97 3812
98 254
98 3813
98 3814
98 3815
98 3816
98 3817
98 3818
98 3819
98 3820
98 3821
98 3822
98 3823
98 3824
98 3825
98 3826
98 3827
98 3828
98 3829
98 3830
98 3831
99 381
99 1317
99 3008
99 3009
99 3010
99 3013
99 3014
99 3832
99 3833
100 2900
100 3266
100 3834
100 3835
100 3836
100 3837
100 3838
100 3839
101 788
101 1205
101 1768
101 2258
101 3840
101 3841
101 3842
101 3843
101 3844
101 3845
101 3846
101 3847
101 3848
101 3849
101 3850
101 3851
101 3852
101 3853
101 3854
101 3855
101 3856
101 3857
101 3858
101 3859
101 3860
101 3861
101 3862
101 3863
101 3864
101 3865
101 3866
101 3867
101 3868
101 3869
102 837
102 1534
102 1573
102 1575
102 1819
102 2432
102 2442
102 2792
102 2794
102 3870
102 3871
102 3872
102 3873
102 3874
102 3875
102 3876
102 3877
102 3878
102 3879
102 3880
102 3881
102 3882
102 3883
102 3884
102 3885
102 3886
102 3887
102 3888
102 3889
102 3890
102 3891
102 3892
102 3893
102 3894
102 3895
102 3896
102 3897
102 3898
102 3899
102 3900
102 3901
102 3902
102 3903
102 3904
102 3905
102 3906
102 3907
102 3908
102 3909
102 3910
102 3911
102 3912
102 3913
102 3914
102 3915
102 3916
102 3917
102 3918
102 3919
102 3920
102 3921
102 3922
102 3923
102 3924
102 3925
102 3926
102 3927
102 3928
102 3929
102 3930
102 3931
102 3932
102 3933
102 3934
102 3935
102 3936
102 3937
102 3938
102 3939
102 3940
102 3941
102 3942
102 3943
102 3944
102 3945
102 3946
102 3947
102 3948
102 3949
102 3950
102 3951
102 3952
102 3953
102 3954
102 3955
102 3956
102 3957
102 3958
102 3959
102 3960
102 3961
102 3962
102 3963
102 3964
102 3965
102 3966
102 3967
102 3968
102 3969
102 3970
102 3971
102 3972
102 3973
102 3974
102 3975
102 3976
102 3977
102 3978
102 3979
102 3980
102 3981
102 3982
102 3984
102 3985
102 3986
102 3987
102 3988
102 3989
102 3990
102 3991
102 3992
102 3993
102 3994
102 3995
102 3996
103 1079
103 1210
103 1211
103 1215
103 1353
103 2945
103 3997
103 3998
103 3999
103 4000
103 4001
103 4002
103 4003
103 4004
103 4005
103 4006
103 4007
103 4008
103 4009
103 4010
103 4011
103 4012
103 4013
103 4014
103 4015
103 4016
103 4017
103 4018
103 4019
103 4020
103 4021
103 4022
103 4023
103 4024
103 4025
103 4026
103 4027
103 4028
103 4029
103 4030
103 4031
103 4032
103 4033
103 4034
103 4035
104 4036
104 4037
104 4038
104 4039
104 4040
104 4041
104 4042
104 4043
104 4044
104 4045
104 4046
104 4047
104 4048
104 4049
104 4050
104 4051
104 4052
104 4053
104 4054
104 4055
106 2163
106 4056
106 4057
106 4058
106 4059
106 4060
106 4061
106 4062
106 4063
106 4064
106 4065
106 4066
106 4067
106 4068
106 4069
106 4070
106 4071
107 1683
107 1725
107 2033
107 4072
107 4073
107 4074
107 4075
107 4076
107 4077
107 4078
107 4079
107 4080
107 4081
107 4082
107 4083
107 4084
107 4085
107 4086
107 4087
107 4088
107 4089
107 4090
107 4091
107 4092
107 4093
107 4094
107 4095
107 4096
108 708
108 837
108 1086
108 1481
108 1653
108 4097
108 4098
109 796
109 2012
109 3243
109 4099
109 4100
109 4101
109 4102
109 4103
109 4104
109 4105
109 4106
109 4107
109 4108
109 4109
109 4110
109 4111
109 4112
109 4113
109 4114
109 4115
109 4116
109 4117
109 4118
109 4119
109 4120
109 4121
109 4122
109 4123
109 4124
109 4125
109 4126
109 4127
109 4128
109 4129
109 4130
109 4131
109 4132
109 4133
109 4134
109 4135
109 4136
109 4137
109 4138
109 4139
109 4140
109 4141
109 4142
109 4143
109 4144
109 4145
109 4146
109 4147
109 4148
109 4149
109 4150
109 4151
109 4152
109 4153
109 4154
109 4155
109 4156
109 4157
109 4158
109 4159
109 4160
109 4161
109 4162
109 4163
109 4164
109 4165
109 4166
109 4167
109 4168
109 4169
109 4170
109 4171
109 4172
109 4173
109 4174
109 4175
109 4176
109 4177
109 4178
109 4179
109 4180
109 4181
109 4182
109 4183
109 4184
109 4185
109 4186
109 4187
109 4188
109 4189
109 4190
109 4191
109 4192
109 4193
109 4194
109 4195
109 4196
109 4197
109 4198
109 4199
109 4200
109 4201
109 4202
109 4203
109 4204
109 4205
109 4206
109 4207
109 4208
109 4209
109 4210
109 4211
109 4212
109 4213
109 4214
109 4215
109 4216
109 4217
109 4218
109 4219
111 275
111 835
111 837
111 973
111 1308
111 1311
111 1481
111 1556
111 1575
111 2163
111 2731
111 2786
111 3993
111 4220
111 4221
111 4222
111 4223
111 4224
111 4225
111 4226
111 4227
111 4228
111 4229
111 4230
111 4231
111 4232
111 4233
111 4234
111 4235
111 4236
111 4237
111 4238
111 4239
111 4240
111 4241
111 4242
111 4243
111 4244
111 4245
111 4246
111 4247
111 4248
111 4249
111 4250
111 4251
111 4252
111 4253
111 4254
111 4255
111 4256
111 4257
111 4258
111 4259
111 4260
111 4261
111 4262
111 4263
111 4264
111 4265
111 4266
111 4267
111 4268
111 4269
111 4270
111 4271
111 4272
111 4273
111 4274
112 708
112 1534
112 1557
112 3198
112 4275
112 4276
112 4277
112 4278
112 4279
112 4280
112 4281
112 4282
112 4283
112 4284
112 4285
112 4286
112 4287
113 380
113 596
113 597
113 708
113 1262
113 1541
113 1874
113 1893
113 2037
113 3216
113 3494
113 4236
113 4288
113 4289
113 4290
113 4291
113 4292
113 4293
113 4294
113 4295
113 4296
113 4297
113 4298
113 4299
113 4300
113 4301
113 4302
113 4303
113 4304
113 4305
113 4306
114 3301
114 4309
114 4310
114 4311
114 4312
114 4313
114 4314
114 4315
114 4316
114 4317
114 4318
114 4319
114 4320
114 4321
114 4322
114 4323
114 4324
114 4325
114 4326
114 4327
114 4328
114 4329
114 4330
116 965
116 1219
116 2732
116 4331
116 4332
116 4333
116 4334
116 4335
116 4336
116 4337
116 4338
116 4339
116 4340
116 4341
116 4342
116 4343
116 4344
116 4345
116 4346
116 4347
116 4348
116 4349
116 4350
116 4351
116 4352
116 4353
116 4354
116 4355
116 4356
116 4357
116 4358
116 4359
116 4360
116 4361
116 4362
116 4363
116 4364
116 4365
116 4366
116 4367
116 4368
116 4369
116 4370
116 4371
117 4372
117 4373
117 4374
117 4375
119 708
119 813
119 1188
119 1219
119 1317
119 1701
119 1734
119 1784
119 2814
119 2825
119 3539
119 3820
119 4233
119 4323
119 4376
119 4377
119 4378
119 4379
119 4380
119 4381
119 4382
119 4383
119 4384
119 4385
119 4386
119 4387
119 4388
119 4389
119 4390
119 4391
119 4392
119 4393
119 4394
119 4395
119 4396
119 4397
119 4398
119 4399
119 4400
119 4401
119 4402
119 4403
119 4404
119 4405
119 4406
119 4407
119 4408
119 4409
119 4410
119 4411
119 4412
119 4413
119 4414
119 4415
119 4416
119 4417
119 4418
119 4419
119 4420
119 4421
119 4422
119 4423
119 4424
119 4425
119 4426
119 4427
119 4428
119 4429
119 4430
119 4431
119 4432
119 4433
119 4434
119 4435
119 4436
119 4437
119 4438
119 4439
119 4440
119 4441
119 4442
119 4443
119 4444
119 4445
119 4446
119 4447
119 4448
119 4449
119 4450
119 4451
119 4452
119 4453
119 4454
119 4455
119 4456
119 4457
119 4458
119 4459
119 4460
119 4461
119 4462
119 4463
119 4464
119 4465
119 4466
119 4467
119 4468
119 4469
119 4470
119 4471
119 4472
119 4473
119 4474
119 4475
119 4476
119 4477
119 4478
119 4479
119 4480
119 4481
119 4482
119 4483
120 593
120 597
120 708
120 939
120 942
120 1081
120 1185
120 1317
120 1768
120 1800
120 1846
120 1847
120 2814
120 2825
120 2921
120 3167
120 3182
120 3198
120 3236
120 3241
120 3502
120 3938
120 4292
120 4472
120 4484
120 4485
120 4486
120 4487
120 4488
120 4489
120 4490
120 4491
120 4492
120 4493
120 4494
120 4495
120 4496
120 4497
120 4498
120 4499
120 4500
120 4501
120 4502
120 4503
120 4504
120 4505
120 4506
120 4507
120 4508
120 4509
120 4510
120 4511
120 4512
120 4513
120 4514
120 4515
120 4516
120 4517
120 4518
120 4519
120 4520
120 4521
120 4522
120 4523
120 4524
120 4525
120 4526
120 4527
120 4528
120 4529
120 4530
120 4531
120 4532
120 4533
120 4534
120 4535
120 4536
120 4537
120 4538
120 4539
120 4540
120 4541
120 4542
120 4543
120 4544
120 4545
120 4546
120 4547
120 4548
120 4549
120 4550
120 4551
120 4552
120 4553
120 4554
120 4555
120 4556
120 4557
120 4558
120 4559
120 4560
120 4561
120 4562
120 4563
120 4564
120 4565
120 4566
121 221
121 1203
121 1342
121 1869
121 2359
121 2597
121 2837
121 2998
121 4567
121 4568
121 4569
121 4570
121 4571
121 4572
121 4573
121 4574
121 4575
121 4576
121 4577
121 4578
121 4579
121 4580
121 4581
121 4582
121 4583
121 4584
121 4585
121 4586
121 4587
121 4588
121 4589
121 4590
122 519
122 4591
122 4592
122 4593
122 4594
122 4595
122 4596
122 4597
122 4598
122 4599
122 4600
123 708
123 2928
123 4601
123 4602
123 4603
123 4604
123 4605
123 4606
123 4607
123 4608
123 4609
123 4610
123 4611
123 4612
123 4613
123 4614
123 4615
123 4616
123 4617
124 708
124 1236
124 1487
124 2240
124 3209
124 4346
124 4350
124 4618
124 4619
124 4620
124 4621
124 4622
124 4623
124 4624
124 4625
125 255
125 708
125 827
125 1086
125 1487
125 2554
125 3250
125 4621
125 4626
125 4627
125 4628
125 4629
125 4630
125 4631
125 4632
126 708
126 1182
126 4633
126 4634
126 4635
126 4636
126 4638
126 4639
126 4640
126 4641
126 4642
126 4643
126 4644
126 4645
126 4646
126 4647
126 4648
129 708
129 1311
129 1488
129 4625
129 4652
129 4653
129 4654
129 4655
129 4656
129 4657
129 4658
129 4659
129 4660
129 4661
129 4662
129 4663
130 708
130 1773
130 2856
130 3062
130 3177
130 4609
130 4664
130 4665
130 4666
130 4667
130 4668
130 4669
130 4670
130 4671
130 4672
130 4673
130 4674
130 4675
130 4676
130 4677
130 4678
130 4679
130 4680
130 4681
130 4682
130 4683
130 4684
130 4685
130 4686
130 4687
130 4688
130 4689
130 4690
130 4691
130 4692
130 4693
130 4694
130 4695
130 4696
130 4697
130 4698
130 4699
130 4700
130 4701
130 4702
130 4703
130 4704
130 4705
130 4706
130 4707
130 4708
130 4709
130 4710
130 4711
130 4712
130 4713
130 4714
130 4715
130 4716
130 4717
130 4718
130 4719
131 255
131 595
131 708
131 939
131 942
131 1315
131 1379
131 1545
131 1754
131 2677
131 3209
131 3621
131 4498
131 4720
131 4721
131 4722
131 4723
131 4724
131 4725
131 4726
131 4727
131 4728
131 4729
131 4730
131 4731
131 4732
131 4733
131 4734
131 4735
132 221
132 3786
132 4736
132 4742
133 221
133 1222
133 1227
133 1250
133 1290
133 1291
133 3165
133 3436
134 801
134 1586
134 1599
134 1601
134 1602
134 4212
135 221
135 1202
135 1246
135 1337
135 1488
135 1554
135 1645
135 1703
135 1855
135 2016
135 2038
135 2140
135 2141
135 2144
135 2147
135 2151
135 2244
135 2685
135 2917
135 3020
135 4350
135 4621
136 221
137 221
137 2168
138 708
138 788
138 936
138 941
138 1258
138 2168
138 3238
138 3432
138 4680
139 221
139 1182
139 4488
142 708
142 1798
146 595
146 945
146 948
146 1391
146 2914
146 3266
147 708
147 2677
149 282
149 708
149 788
149 1100
149 3440
149 3442
150 597
150 942
150 1243
150 1317
151 708
153 221
153 282
153 285
153 286
153 287
153 1187
153 1257
153 1554
153 3431
153 3434
153 3463
153 4388
155 708
155 2825
156 708
156 2825
156 2912
156 3010
156 3177
156 4701
157 221
157 284
157 1202
157 1208
157 1222
157 1227
157 1246
157 1501
157 1554
157 2027
157 2249
157 2893
157 3436
157 3437
157 3438
157 3440
157 4507
157 4725
158 221
158 280
158 282
158 284
158 285
158 286
158 287
158 1187
158 1554
158 2222
158 2320
158 3308
158 3463
158 4388
159 221
159 3436
160 708
160 1197
160 1198
160 1203
160 1676
160 2818
160 2983
160 3167
160 4080
160 4472
161 221
161 595
161 1086
161 1208
161 1227
161 1246
161 1256
161 1257
161 1554
161 2030
161 3209
161 3238
161 3386
161 3401
161 3436
162 593
162 708
162 1534
162 2825
164 802
164 827
164 1029
164 1545
164 1569
164 1959
164 1961
164 2222
164 2234
164 3236
164 4217
164 4731
165 1154
165 2184
166 708
166 788
166 936
166 976
166 1234
166 1384
166 1547
166 1569
166 2269
167 708
168 280
168 513
168 708
168 1545
168 3238
168 4507
170 347
170 708
170 936
170 941
170 942
170 1236
170 1258
170 1541
170 1542
170 1547
170 2029
170 2030
170 2234
170 2238
170 3208
170 3209
170 3236
170 3237
170 3244
170 3415
170 4720
170 4729
170 4731
171 221
171 285
171 708
171 828
171 939
171 1081
171 1084
171 1320
171 1501
171 1620
171 1676
171 1760
171 1789
171 1879
171 2168
171 2237
171 2250
171 2837
171 3130
171 3182
171 3946
171 4081
172 727
173 221
173 937
173 1195
173 2825
173 3177
173 3368
174 708
174 1542
174 2825
174 2847
174 3897
175 221
175 1068
175 1237
176 260
176 837
176 970
176 1573
176 2847
176 3236
176 3419
176 4031
176 4095
176 4220
177 708
177 4530
178 381
178 1317
178 3008
178 3009
178 3010
178 3013
178 3014
178 3833
179 4662
180 801
181 227
181 251
181 253
181 282
181 283
181 285
181 286
181 287
181 708
181 813
181 1187
181 1554
181 1637
181 2467
181 2481
181 2575
181 3238
181 3463
181 4230
181 4388
181 4498
182 708
182 714
182 788
182 1187
182 1541
182 1547
182 1569
182 2554
182 3443
182 3624
184 221
184 2885
184 2895
184 2959
185 1203
185 3854
186 221
187 255
187 379
187 550
187 597
187 708
187 828
187 939
187 942
187 1081
187 1082
187 1084
187 1193
187 1203
187 1205
187 1252
187 1315
187 1316
187 1317
187 1487
187 1542
187 1563
187 2246
187 2569
187 2818
187 2825
187 3199
187 3203
187 3244
187 3637
187 4558
188 287
188 708
188 837
188 936
188 1028
188 1069
188 1071
188 1487
188 1547
188 1575
188 2163
188 3215
188 3437
190 708
190 788
190 840
190 965
190 2533
190 2537
190 3299
190 3531
190 3921
190 4361
190 4674
191 329
192 2995
192 4007
193 2677
193 3750
194 708
194 1315
197 708
197 788
197 1685
197 2690
197 4621
197 4625
206 3539
206 4095
206 4401
211 221
211 801
211 1604
211 2778
211 2873
211 2972
211 3118
211 3130
211 3137
213 4485
214 329
214 508
216 4743
217 4743
218 4743
219 4743
220 4743
221 297
221 307
221 317
221 319
221 631
221 642
221 669
221 694
221 699
221 1079
221 1146
221 1183
221 1326
221 1504
221 1505
221 1509
221 1676
221 1864
221 1954
221 2034
221 2111
221 2137
221 2421
221 2426
221 2597
221 2837
221 2855
221 2902
221 2962
221 3365
221 3788
221 3789
221 3793
221 3796
221 3801
221 3802
221 3893
221 4639
221 4743
222 4743
223 4743
224 1651
224 4743
225 4743
226 4743
227 4743
228 275
228 833
228 2740
228 2887
228 3029
228 4711
228 4716
228 4743
229 275
229 303
229 305
229 642
229 1052
229 3163
229 3182
229 3812
229 4635
229 4711
229 4743
230 275
230 691
230 3163
230 4233
230 4743
231 4743
232 275
232 3488
232 4743
233 307
233 360
233 392
233 434
233 1601
233 4362
233 4743
234 967
234 2468
234 2730
234 4743
240 3496
243 258
243 270
243 272
250 2678
251 313
251 350
251 351
251 636
251 856
251 1146
251 1184
251 1207
251 1459
251 1850
251 1851
251 1852
251 2111
251 2204
251 2309
251 2403
251 2529
251 2690
251 2793
251 2816
251 3347
251 3349
251 3538
251 3802
251 4073
251 4233
251 4563
252 398
252 470
252 937
252 1036
252 1422
252 1609
252 1638
252 2077
252 2783
252 2793
252 3488
252 4073
253 338
253 706
253 1269
253 2163
254 736
254 747
254 833
254 840
254 857
254 871
254 964
254 1025
254 1612
254 2064
254 2083
254 2793
254 3133
254 3347
254 4098
254 4639
255 256
255 2887
255 3538
255 4095
256 2052
260 1297
260 2064
260 2074
260 2083
260 2730
260 3488
260 3538
260 4415
265 285
265 1569
265 1839
265 3938
267 3538
270 3438
271 612
273 4226
275 340
275 434
275 736
275 757
275 933
275 963
275 967
275 1025
275 1065
275 1452
275 1480
275 1534
275 1612
275 1714
275 1834
275 1835
275 2053
275 2465
275 2466
275 2468
275 3029
275 3050
275 3182
275 3991
275 3994
275 4098
275 4697
275 4711
275 4716
276 612
277 4415
278 1269
280 1116
282 703
282 788
282 2044
282 2224
282 3216
282 3349
283 652
283 656
283 788
283 1269
283 1709
283 2064
283 2078
283 2083
283 2337
283 2338
283 2863
283 3216
283 3443
283 3488
283 3538
284 1065
284 1239
284 3434
284 3820
285 533
285 656
285 669
285 856
285 1508
285 1710
285 2044
285 3349
285 3624
285 4623
287 364
287 703
287 937
287 939
287 1109
287 1190
287 1936
287 2044
287 2783
287 2962
287 4623
289 2439
289 2440
289 2924
289 3112
289 3125
289 3850
289 4573
289 4667
290 1094
290 1291
290 2776
291 1094
291 1291
291 2776
293 708
293 831
293 1079
293 2833
293 2928
293 2961
293 2973
295 2438
295 3165
295 3176
295 3863
295 4375
295 4487
295 4608
296 381
296 388
296 708
296 788
296 831
296 936
296 1684
296 2188
296 2826
296 2923
296 2985
296 3032
296 3137
296 3148
296 3198
296 4472
296 4701
297 2183
298 329
298 708
298 1094
298 1206
298 1676
298 1760
298 2814
298 2825
298 2928
298 2983
298 3132
298 4133
298 4290
300 381
300 593
300 597
300 708
300 788
300 1699
300 2433
300 2439
300 2825
300 2831
300 2833
300 2923
300 2924
300 2968
300 3183
300 3198
300 3857
300 3859
300 4007
300 4086
300 4283
300 4519
301 2860
301 3182
301 4016
301 4586
302 2968
302 2994
302 3354
302 3355
302 3356
302 3357
302 3358
302 3359
302 3360
302 3362
302 3363
302 3364
302 3366
302 3367
304 1699
304 2174
304 2185
304 2202
304 3965
305 381
305 593
305 597
305 708
305 788
305 2213
305 2433
305 2439
305 2825
305 2833
305 2923
305 2924
305 3177
305 3183
305 3198
305 3857
305 3859
305 4007
305 4086
305 4283
305 4519
307 835
307 970
307 1028
307 1501
307 4423
308 3359
308 4246
310 2924
310 3117
310 4472
311 837
311 2287
311 2468
311 2579
311 3828
312 3112
312 3359
312 3834
313 2192
313 2221
313 2825
315 880
315 2993
315 4645
316 1798
316 1892
316 2891
316 2928
316 3820
316 3843
316 4009
316 4283
317 2776
317 2874
317 2959
317 3175
318 708
318 1094
320 708
320 831
320 837
320 1028
320 1056
320 1079
320 1215
320 1218
320 1349
320 1353
320 1587
320 1588
320 1589
320 1592
320 1598
320 1961
320 2163
320 2778
320 2928
320 2947
320 3837
320 4026
320 4289
320 4290
320 4488
321 1086
321 2184
321 2191
321 2423
321 2836
321 3112
321 3118
321 3354
321 3359
323 708
323 2826
323 2860
323 4287
325 708
325 790
325 942
325 1074
325 1313
325 1481
325 2760
325 2825
325 3518
325 3648
325 4348
325 4654
326 1203
326 3112
326 3834
326 4081
326 4488
327 680
327 1079
328 2826
329 330
329 694
329 2940
329 3540
329 4289
329 4439
330 2814
333 1317
333 4472
334 611
334 619
334 621
334 656
334 3786
337 964
337 2495
337 4596
340 1107
340 1563
340 4381
341 379
341 1190
341 1250
341 1253
341 4401
347 3421
347 4736
347 4742
356 1086
357 973
359 4239
364 964
364 1756
364 1820
364 3443
368 2205
368 4239
371 964
375 976
375 1028
375 2847
375 3238
375 4240
377 804
379 1250
379 1251
379 1252
379 1253
379 1317
379 2818
379 2983
379 2985
379 3167
379 4472
380 384
380 673
380 675
380 697
380 1190
380 1250
380 1317
380 1964
380 4513
380 4514
380 4515
381 673
381 675
381 697
381 1250
381 1317
382 2985
382 4509
383 1317
384 2786
386 939
386 1317
387 2985
388 1190
388 1250
388 2985
388 4513
388 4514
389 673
389 675
389 697
389 1250
389 1317
389 4509
391 420
392 1246
394 1027
394 1725
394 1732
394 2035
396 837
396 958
396 3992
396 4050
396 4303
397 837
397 1724
397 3274
397 4224
398 837
398 1027
398 1575
398 2786
398 4220
401 1245
401 1315
401 1316
401 1732
401 1819
401 2575
401 3333
403 1736
403 2359
403 3209
403 3294
403 4325
403 4629
403 4630
404 1236
404 1246
404 1337
404 1736
404 2032
404 3274
404 3279
404 3283
404 3299
404 3330
404 4630
407 942
407 1315
411 965
411 4364
420 4098
421 4670
423 468
425 2760
425 3744
425 3746
426 2756
426 3723
427 2756
427 2895
427 3778
427 4472
429 960
429 1501
429 1554
429 1779
429 4646
433 435
433 457
433 459
433 466
433 469
433 607
433 2764
433 3754
433 3756
434 706
434 816
434 845
434 936
434 971
434 1571
434 1724
434 1829
434 2172
434 2234
434 2493
434 2576
434 3555
434 3921
434 4542
435 455
435 457
435 460
435 462
435 468
435 469
435 2752
435 3756
436 595
436 2754
437 468
437 469
438 468
439 469
439 1255
439 2748
439 2752
439 2753
439 2756
439 2760
439 2761
439 2764
439 2836
439 3484
439 3756
439 4083
441 595
441 598
441 709
441 898
441 940
441 950
441 951
441 963
441 2825
441 2914
442 447
442 598
442 2756
442 2814
442 2914
443 468
443 469
443 595
443 948
444 837
444 2765
447 455
450 469
450 2756
450 2758
450 2761
454 459
454 4646
456 837
456 2765
458 861
458 1146
458 3349
462 703
462 704
462 1501
462 1866
462 2421
462 2749
462 2751
462 3781
462 3793
462 3810
466 2111
470 977
486 2786
486 4226
494 4226
497 2337
497 2338
498 4736
498 4742
508 1994
510 1651
513 1513
516 2672
516 2673
517 1151
519 1036
523 827
523 1012
523 1237
523 1609
523 1784
523 1941
523 2170
523 2533
523 3220
523 4466
523 4480
523 4498
527 1036
527 1512
527 2729
527 3480
527 3488
527 4233
528 702
528 3994
528 4233
541 1151
544 964
545 1728
545 1994
545 2338
545 2940
545 3286
548 1651
554 964
558 672
558 4042
574 1850
574 1851
574 1852
582 964
588 1036
588 1065
590 1036
590 2128
590 2132
590 3801
590 3802
593 1116
593 1279
593 1991
593 2892
593 3198
593 3401
593 4731
594 3401
594 4731
595 850
595 857
595 859
595 860
595 883
595 1144
595 1391
595 2768
595 3631
595 4633
596 3631
597 673
597 675
597 697
597 850
597 1052
597 1223
597 1269
597 2427
597 2862
597 2892
597 3256
597 3455
597 3631
597 3783
597 3787
597 3812
597 3840
597 3848
597 3851
597 4634
597 4635
598 658
598 666
598 1279
598 1391
598 3631
598 3840
598 4635
606 1501
611 1353
611 3241
613 621
614 3214
618 4545
621 2488
621 3241
631 1100
631 1255
631 1320
631 1403
631 1406
631 1501
631 1620
631 1676
631 2140
631 2815
631 2915
631 2959
631 3754
631 3765
631 4672
632 3279
632 3299
633 4545
638 4545
640 1846
640 3626
642 831
642 1798
642 2776
642 3010
648 1781
648 3913
648 3938
648 3949
648 3951
648 3964
648 3966
649 4545
650 1305
650 2240
652 1836
652 2241
652 3276
656 804
656 936
656 1569
656 1768
656 1772
656 1773
656 2244
656 2505
656 2554
656 3869
658 1323
658 1625
658 4701
659 964
659 1523
659 2182
659 2198
661 708
661 1317
661 1625
661 2433
661 2923
661 2929
661 2986
661 3008
661 3010
661 4694
662 1350
662 1403
662 1526
666 3863
666 4671
669 1100
669 1353
669 4026
670 1823
670 2833
670 2841
670 3183
670 3436
670 4586
671 709
671 710
671 711
671 712
671 713
671 714
671 3477
672 708
672 2928
672 2994
672 4288
673 708
673 939
673 1317
673 2825
673 2983
673 3863
673 4381
673 4511
675 708
675 939
675 1317
675 2825
675 2983
675 3863
675 4381
675 4511
677 709
677 710
677 712
677 713
677 3477
679 788
679 1772
680 708
680 837
680 1028
680 1069
680 1236
680 1317
680 1487
680 1541
680 1575
680 1618
680 1876
680 2163
680 2176
680 2690
680 2778
680 2837
680 2994
680 4224
680 4621
682 1034
682 2438
682 2917
682 3863
684 714
684 1058
684 1167
684 1875
684 1895
684 2171
684 2172
684 2173
684 2174
684 2175
684 2176
684 2177
684 2180
684 2182
684 2183
684 2184
684 2185
684 2186
684 2187
684 2188
684 2189
684 2192
684 2193
684 2194
684 2195
684 2196
684 2197
684 2198
684 2199
684 2200
684 2203
684 2205
684 2206
684 2207
684 2209
684 2212
684 2213
684 2214
684 2994
684 3248
687 936
687 1991
688 2825
688 3872
690 3851
690 3863
691 2928
694 1203
694 1227
694 2994
697 708
697 939
697 1317
697 2825
697 2983
697 3863
697 4381
697 4511
698 1229
698 4009
698 4025
699 1250
699 1625
699 2433
699 2923
699 2986
699 3008
699 3010
699 4694
700 3477
700 4521
700 4560
701 709
701 711
702 964
703 1100
703 1190
703 1403
703 2685
703 2917
703 3437
703 3442
703 3443
703 3757
704 1219
704 2809
704 2928
704 3754
704 4220
705 714
705 2182
705 2195
705 2209
705 2825
706 725
706 1101
706 1543
706 1573
706 1697
706 1700
706 1701
706 1741
706 2163
706 2794
706 3337
706 4049
706 4190
706 4362
706 4366
706 4571
708 1043
708 1045
708 1052
708 1116
708 1144
708 1148
708 1151
708 1154
708 1155
708 1173
708 1203
708 1279
708 1367
708 1503
708 1514
708 1515
708 1862
708 1880
708 1946
708 1974
708 1987
708 2097
708 2324
708 2369
708 2408
708 2427
708 2696
708 2840
708 2940
708 2995
708 3257
708 3347
708 3455
708 3538
708 3631
708 3650
708 3783
708 3786
708 3787
708 3790
708 3806
708 3893
708 4625
708 4633
708 4634
708 4638
708 4640
709 710
709 714
709 3557
709 3863
709 4635
710 714
710 1039
711 1305
712 2050
714 3811
714 3862
714 3863
718 837
720 837
722 2468
726 937
726 977
726 1149
726 2783
727 3811
729 733
729 736
729 741
729 777
729 1025
729 1612
730 1934
730 1936
730 1942
730 1952
731 1025
732 1025
732 1934
733 777
734 837
734 4220
736 777
736 837
736 973
736 1025
736 1612
736 2888
737 837
737 1028
737 1612
739 802
739 835
739 1028
739 1030
739 4222
740 1934
740 1936
740 1942
740 1952
741 777
746 1025
747 802
747 837
747 1026
747 1612
748 835
748 837
748 838
748 976
748 1028
748 1575
748 1611
748 2163
748 2560
748 4208
748 4224
752 988
757 1025
758 1025
758 4239
759 1599
759 4212
761 833
761 837
762 1025
777 1025
777 1612
786 933
788 869
788 872
788 878
788 1363
788 1502
788 1547
788 1709
788 1778
788 1862
788 1921
788 1930
788 2044
788 2047
788 2064
788 2083
788 2337
788 2338
788 2848
788 2864
788 3216
788 3347
788 3443
788 3783
788 3790
788 3872
790 2335
790 2427
790 3783
791 851
795 3785
801 1946
801 1954
802 991
802 999
802 1003
802 1011
802 1015
802 1587
802 1941
802 1946
802 1947
802 1952
802 1954
803 2466
803 3991
804 3965
813 3524
816 1036
816 1091
816 2085
819 1068
825 3819
827 1109
827 1128
827 1279
827 2887
827 3509
827 3820
827 4386
827 4411
827 4462
827 4478
828 1501
828 1964
828 2730
828 2892
828 3784
828 3811
828 4211
829 933
830 977
831 1866
831 1994
832 933
833 837
833 869
833 878
833 1027
833 1573
833 1609
833 2097
833 2575
833 2579
833 4098
835 1576
835 1609
835 1946
835 1954
837 871
837 937
837 1025
837 1036
837 1052
837 1279
837 1422
837 1429
837 1609
837 1612
837 1616
837 1838
837 2064
837 2076
837 2077
837 2081
837 2083
837 2097
837 2137
837 2443
837 2558
837 2729
837 2783
837 2888
837 2920
837 2955
837 3133
837 3488
837 3536
837 3994
837 4098
837 4172
837 4282
837 4362
837 4536
838 937
838 2783
840 1184
840 1247
840 1819
840 3991
846 2472
848 859
850 945
850 950
850 968
850 2221
850 3183
851 927
851 983
851 1575
851 1620
851 1779
851 1879
851 2234
851 2250
851 2839
851 3955
853 1879
853 2250
853 3201
855 859
855 868
855 890
855 958
855 959
855 1870
855 4488
857 945
857 973
857 1576
857 1696
857 1801
857 2624
857 2629
857 2636
857 2638
857 2647
857 2658
859 882
859 885
859 902
859 906
859 948
859 950
859 951
859 1085
859 1336
859 2260
859 3201
860 914
860 950
860 951
860 1547
860 1569
860 2206
860 3584
860 3586
860 4645
861 914
862 948
862 951
862 963
862 4059
864 884
868 883
868 1872
869 939
869 948
869 953
869 985
869 1085
869 1879
869 2237
869 2245
869 2250
869 2260
869 3249
869 4240
871 882
871 963
871 965
871 4184
871 4240
871 4245
871 4248
871 4645
872 939
872 948
872 953
872 985
872 1085
872 1879
872 2237
872 2245
872 2250
872 2260
872 3249
872 4240
873 1747
873 4096
878 939
878 948
878 953
878 985
878 1085
878 1879
878 2237
878 2245
878 2250
878 2260
878 3249
878 4240
883 1872
888 4646
899 1146
907 1146
907 2768
907 4646
909 4646
916 1193
916 2772
918 1510
918 2633
922 1234
923 4645
924 2786
924 4226
927 937
927 2783
928 2335
928 3538
930 937
930 1759
930 2783
931 937
931 2783
931 3538
932 937
932 1512
932 2783
933 983
933 1766
933 1779
933 2044
933 3148
933 3623
933 3723
936 939
936 1190
936 2044
936 2047
936 2209
936 2215
936 2675
936 3249
936 3783
936 3790
936 3869
937 940
937 953
937 1027
937 1258
937 1380
937 1540
937 1575
937 2047
937 2163
937 2166
937 2215
937 2218
937 2219
937 2221
937 2222
937 2225
937 2228
937 2229
937 2232
937 2233
937 2234
937 2235
937 2236
937 2237
937 2238
937 2239
937 2240
937 2241
937 2242
937 2243
937 2244
937 2245
937 2246
937 2247
937 2248
937 2249
937 2250
937 2251
937 2252
937 2253
937 2254
937 2255
937 2256
937 2257
937 2258
937 2259
937 2260
937 2261
937 2262
937 2263
937 2264
937 2337
937 2338
937 2786
937 2984
937 2985
937 3359
937 3730
937 4220
937 4223
937 4226
938 2047
939 1250
939 1251
939 1252
939 1253
939 1259
939 1317
939 1554
939 1555
939 1746
939 1941
939 2818
939 2983
939 2984
939 3167
939 3359
939 4337
939 4396
939 4461
939 4472
939 4515
940 1862
940 2783
940 3347
941 977
942 1052
942 1297
942 1367
942 1700
942 1701
942 3538
942 4298
942 4417
945 1146
945 3029
945 4646
945 4739
946 4646
948 2633
950 1151
950 1153
950 2862
950 3592
952 2769
952 3183
952 4637
953 2783
953 2786
953 4226
958 2437
959 2786
964 981
964 985
964 1077
964 1329
964 1422
964 1484
964 1497
964 1523
964 1575
964 1654
964 1734
964 1753
964 1872
964 2171
964 2787
964 3041
964 3050
964 3073
964 3125
964 3158
964 3185
964 3292
964 3478
964 3479
964 3493
964 3528
964 3545
964 3566
964 3691
964 3977
964 3987
964 4108
964 4179
964 4716
965 1247
965 1279
965 1422
965 2048
965 2060
965 4362
965 4364
965 4479
967 2286
967 2730
968 2812
968 3488
968 4371
970 1036
970 1422
970 1651
970 3488
973 1025
973 1036
973 1612
973 2633
973 3056
973 3304
973 3779
973 3991
976 1422
976 1609
976 2786
976 4226
977 1067
977 3215
977 3244
977 3921
977 4047
979 3994
983 986
986 2335
988 1026
988 1598
993 1601
994 1598
997 3493
997 4233
999 1029
999 1030
1005 1033
1005 1601
1006 1611
1019 1227
1019 2814
1019 4488
1025 1609
1025 1611
1025 2888
1027 1052
1027 1609
1027 1946
1027 1985
1027 2076
1027 2077
1027 2097
1027 2111
1027 2783
1027 2809
1027 3488
1027 3536
1028 1036
1028 1422
1028 1609
1028 1985
1028 2097
1028 2137
1028 2204
1028 2496
1028 2887
1028 2955
1028 3488
1028 4619
1029 1585
1029 1941
1033 1587
1033 1954
1034 1058
1034 1502
1034 1506
1034 1525
1034 2825
1034 2921
1034 3198
1034 3857
1034 4485
1035 1058
1035 2172
1036 1072
1036 1073
1036 1317
1036 1527
1036 1575
1036 1668
1036 1670
1036 2163
1036 2474
1036 2494
1036 2786
1036 2792
1036 2825
1036 3216
1036 3236
1036 3555
1036 3648
1036 4085
1036 4224
1036 4240
1039 1537
1039 2438
1039 2917
1039 2921
1039 2944
1039 2994
1039 3857
1039 3864
1039 4530
1039 4533
1039 4536
1039 4538
1040 2180
1040 2181
1041 2439
1041 2440
1042 2951
1043 1058
1043 1214
1043 2172
1043 2174
1043 2195
1043 4041
1044 4504
1044 4677
1044 4683
1045 1057
1045 4701
1046 1516
1046 1525
1047 2979
1047 2983
1047 3837
1048 1537
1048 2438
1048 2917
1048 2921
1048 3857
1048 3864
1048 4530
1048 4533
1048 4536
1048 4538
1051 1058
1052 1058
1052 1206
1052 1243
1052 1317
1052 1525
1052 1527
1052 1703
1052 1792
1052 1837
1052 2221
1052 2786
1052 2983
1052 3173
1052 3177
1052 4292
1052 4401
1052 4404
1052 4405
1052 4417
1052 4472
1052 4485
1052 4504
1052 4660
1052 4701
1054 1058
1055 4087
1055 4701
1056 1079
1056 1498
1057 3350
1058 1517
1058 1863
1060 1512
1062 1064
1062 1073
1064 3790
1065 1670
1067 1175
1067 1178
1067 1378
1067 1753
1067 1769
1067 1771
1067 2262
1067 2741
1067 2927
1067 4638
1067 4730
1068 1320
1068 1895
1068 2001
1068 2110
1068 2996
1068 3490
1068 3912
1068 4043
1068 4244
1068 4268
1069 2091
1069 2097
1069 2111
1069 2125
1072 2097
1072 2109
1073 2097
1073 2107
1073 3790
1074 2097
1076 3636
1079 1209
1079 2408
1079 2887
1079 2985
1079 3790
1081 1083
1081 1700
1081 2730
1081 2786
1081 2830
1081 3784
1081 3786
1081 3811
1081 4226
1081 4479
1082 1513
1082 2730
1082 3240
1082 3784
1082 3786
1082 4639
1083 1084
1084 1262
1084 1513
1084 2034
1084 2730
1084 3784
1084 3786
1084 4639
1085 1190
1086 1190
1086 1269
1086 1431
1086 1447
1086 2097
1086 2128
1086 2423
1086 3790
1086 4335
1086 4337
1094 1095
1094 1096
1094 2434
1094 2892
1094 2947
1094 3112
1094 3834
1095 1096
1095 3112
1095 3834
1099 2030
1099 3392
1099 3396
1099 4721
1100 1505
1100 2111
1100 2137
1100 2892
1100 2962
1100 4040
1100 4085
1102 1237
1102 4303
1104 1115
1104 1140
1107 4375
1107 4461
1107 4547
1108 1115
1108 1480
1108 1481
1108 1563
1108 2793
1108 3502
1109 1143
1109 1251
1109 1554
1109 1696
1109 2814
1109 3090
1109 3156
1109 3167
1109 3502
1109 4393
1109 4462
1109 4470
1109 4490
1109 4492
1109 4500
1109 4511
1109 4514
1109 4529
1109 4547
1109 4552
1109 4554
1109 4694
1109 4735
1110 3010
1112 1136
1112 1847
1115 1250
1115 1317
1115 4735
1116 1143
1116 1317
1116 2677
1116 2825
1116 4292
1116 4378
1116 4452
1116 4720
1116 4735
1119 1143
1121 3436
1121 4614
1123 1167
1123 2226
1131 1481
1131 1733
1131 2144
1131 2670
1131 4260
1134 2474
1140 1317
1140 2786
1144 1175
1144 1194
1144 1315
1144 3198
1144 3233
1144 3584
1144 3586
1144 3592
1144 3597
1146 1148
1146 1158
1146 1176
1146 1177
1146 1224
1146 1236
1146 1406
1146 1554
1146 1685
1146 1893
1146 2359
1146 2778
1146 3583
1146 3584
1146 3590
1146 4184
1146 4240
1146 4623
1146 4638
1148 1151
1148 1152
1148 1153
1148 1175
1148 1176
1148 3198
1148 3592
1148 3597
1149 1160
1149 1175
1149 1176
1149 1889
1149 2883
1149 3570
1149 3592
1149 4350
1151 1161
1151 1203
1151 1224
1151 1231
1151 1481
1151 1487
1151 1708
1151 1732
1151 1892
1151 1893
1151 1894
1151 2324
1151 2350
1151 2359
1151 2937
1151 3566
1151 3583
1151 3586
1151 3590
1151 3597
1151 3615
1151 4081
1152 3597
1153 1161
1153 1203
1153 1224
1153 1231
1153 1708
1153 1732
1153 1892
1153 1893
1153 3583
1153 3586
1153 3592
1153 3597
1154 1175
1154 1176
1154 3198
1154 3592
1154 3597
1155 1175
1155 1176
1155 3198
1155 3592
1155 3597
1158 1165
1158 1169
1158 1175
1158 1178
1159 1165
1160 1165
1161 1165
1162 1165
1163 1165
1165 1173
1165 1177
1166 1168
1166 1175
1166 1177
1166 1178
1167 3811
1168 1175
1168 1177
1168 1178
1168 1513
1168 3037
1168 4479
1169 1175
1169 1178
1170 1177
1173 3192
1177 1178
1180 2324
1182 1500
1182 2677
1182 3811
1183 2705
1184 1227
1184 1290
1184 2787
1184 3083
1184 4711
1185 1205
1186 2137
1187 1906
1187 3730
1188 1317
1190 1248
1190 1554
1190 1555
1190 1563
1190 3757
1190 4337
1190 4511
1191 1391
1193 4645
1194 3183
1195 2840
1198 1987
1198 2138
1198 4358
1199 1569
1201 1262
1201 1504
1201 2940
1201 2995
1202 1337
1202 2027
1202 2137
1202 3296
1202 3302
1202 4623
1202 4722
1203 1236
1203 1315
1203 1337
1203 1615
1203 2325
1203 2331
1203 2332
1203 2359
1203 2426
1203 2786
1203 2893
1203 3209
1203 3783
1203 3791
1203 4370
1203 4488
1203 4587
1203 4629
1203 4631
1204 2325
1205 2337
1205 2338
1205 2887
1205 2910
1205 4250
1206 1554
1206 2403
1206 3460
1206 3865
1208 1531
1208 1543
1208 2137
1208 2797
1208 2892
1208 3893
1208 3949
1208 3973
1208 4024
1209 3806
1209 3812
1210 3373
1210 3812
1211 3794
1211 4009
1215 3783
1216 4619
1218 1518
1219 3538
1219 3777
1219 3784
1219 3788
1219 3789
1219 3796
1219 3801
1219 3802
1219 4442
1222 1281
1222 1286
1222 2840
1222 2923
1222 3004
1222 3207
1222 3349
1222 3791
1223 2909
1223 3848
1224 2427
1227 1230
1227 1243
1227 1264
1227 1265
1227 1266
1227 1267
1227 1270
1227 1273
1227 1274
1227 1275
1227 1276
1227 1277
1227 1284
1227 1285
1227 1286
1227 1293
1227 1954
1227 2822
1227 2826
1227 2924
1227 2926
1227 2927
1227 3349
1227 3453
1227 4519
1227 4521
1229 1243
1229 3455
1229 3488
1229 3538
1229 3783
1229 4675
1230 1290
1234 4742
1235 2786
1235 4226
1236 2369
1236 4625
1237 3219
1237 3226
1237 3455
1237 3816
1237 3820
1238 2935
1238 4452
1239 2466
1239 3816
1239 3818
1240 4479
1242 2403
1243 2427
1243 2825
1243 3005
1243 3631
1243 3840
1243 3850
1244 1315
1244 1316
1246 1337
1246 1367
1246 1429
1246 2027
1246 2137
1246 2892
1246 2962
1246 4629
1247 1315
1247 1316
1247 2465
1247 2466
1247 2478
1247 2568
1247 3233
1247 4234
1247 4360
1248 1964
1248 4331
1248 4333
1250 1254
1250 2433
1250 2894
1250 2983
1250 3013
1250 3802
1250 4461
1250 4511
1251 1317
1251 2985
1251 4233
1252 1279
1252 1317
1252 3538
1252 4639
1253 1317
1253 2983
1253 3538
1254 2985
1256 4527
1256 4735
1258 1862
1258 2034
1258 2137
1258 2730
1258 2783
1262 2677
1262 2887
1262 4292
1262 4295
1263 1487
1263 2403
1263 3215
1264 1290
1269 1542
1269 2221
1269 2241
1269 3238
1278 1822
1278 4220
1278 4224
1279 1542
1279 1545
1279 1779
1279 1784
1279 1879
1279 2209
1279 2814
1279 2825
1279 2847
1279 2915
1279 2923
1279 3183
1279 4239
1279 4283
1279 4303
1279 4472
1286 1291
1287 2852
1287 4259
1288 4475
1289 2909
1290 1293
1290 2822
1290 2825
1290 2826
1290 2924
1290 2926
1290 2927
1292 1905
1296 1297
1297 1302
1297 3530
1297 4234
1297 4416
1297 4452
1297 4652
1300 1363
1300 1431
1300 2465
1300 2466
1303 2325
1303 3488
1304 1615
1304 1946
1304 1954
1304 2940
1304 3783
1305 2786
1306 1315
1307 1308
1307 1311
1307 1438
1307 2730
1308 1309
1308 1311
1308 2730
1308 4342
1309 2730
1309 3223
1310 1438
1310 2730
1310 3802
1310 4359
1311 2403
1311 2730
1311 3757
1313 2151
1313 2730
1315 1316
1315 1387
1315 1422
1315 1433
1315 1685
1315 1700
1315 2064
1315 2083
1315 2331
1315 2337
1315 2338
1315 2369
1315 2426
1315 2863
1315 2892
1315 2893
1315 3233
1315 4625
1315 4739
1316 2064
1316 2083
1316 2892
1316 3209
1316 3233
1317 1964
1317 2430
1317 2431
1317 2433
1317 2818
1317 2894
1317 2983
1317 2984
1317 2985
1317 2986
1317 3008
1317 3013
1317 3014
1317 3167
1317 3359
1317 3538
1317 3783
1317 4024
1317 4393
1317 4396
1317 4461
1317 4472
1317 4511
1317 4515
1320 2403
1320 2892
1320 3490
1320 3790
1320 3811
1320 3812
1321 3162
1321 4604
1323 3806
1328 3349
1329 1918
1329 3725
1336 1991
1336 3791
1337 2139
1337 3020
1337 4085
1337 4621
1346 3812
1347 4639
1348 4235
1350 1863
1350 1982
1353 3783
1353 4250
1361 1365
1363 1827
1363 3233
1363 4303
1367 1388
1367 1393
1367 1481
1367 3244
1369 2678
1372 1381
1372 2202
1380 2783
1380 4388
1382 1763
1385 2138
1389 1530
1391 2892
1391 2914
1391 3183
1391 3441
1396 2915
1405 2869
1405 2968
1405 4701
1406 3812
1410 1476
1413 1436
1413 1476
1414 1422
1415 1439
1416 1436
1416 1480
1417 1436
1419 4098
1422 1480
1422 2163
1422 2786
1422 3515
1422 4224
1422 4225
1422 4226
1422 4370
1422 4663
1422 4701
1423 1476
1429 1480
1429 1653
1431 4358
1433 1475
1433 1703
1433 4092
1433 4351
1435 1480
1435 1653
1436 1468
1438 1480
1438 1651
1438 1653
1438 4230
1438 4234
1438 4652
1439 4171
1441 4239
1444 1481
1444 4097
1447 4358
1451 1476
1452 1480
1477 1836
1480 1651
1480 1703
1480 2325
1480 2372
1480 3488
1480 3790
1480 3802
1480 4234
1480 4350
1480 4352
1480 4360
1480 4652
1480 4654
1481 1640
1481 1642
1481 1651
1481 1991
1481 1996
1481 2346
1481 2887
1481 4652
1487 1991
1487 2097
1487 2426
1487 3788
1487 3796
1487 4040
1487 4085
1487 4633
1490 4472
1491 2980
1491 3813
1491 3826
1491 4450
1491 4451
1491 4470
1491 4509
1497 3801
1498 4084
1500 1501
1501 1569
1501 2111
1501 2133
1501 2596
1501 2749
1501 2962
1501 2998
1501 3788
1501 3796
1501 3802
1501 4024
1501 4358
1501 4363
1501 4639
1502 1768
1502 2438
1502 2928
1502 2994
1502 3165
1502 3357
1502 3863
1502 4012
1504 1681
1504 1789
1504 2959
1504 3754
1505 2917
1508 1621
1511 2474
1512 2496
1513 1784
1513 2611
1513 2677
1513 4542
1513 4543
1513 4545
1514 2778
1514 3843
1515 2778
1515 3843
1517 2181
1517 2191
1517 2195
1517 2917
1517 3358
1517 4012
1518 2587
1518 4040
1522 3171
1523 3177
1523 3354
1523 3566
1525 1975
1525 1984
1525 1996
1525 3790
1527 3475
1530 1763
1530 2300
1530 2976
1530 4461
1531 1545
1534 1669
1534 4276
1536 3938
1540 2783
1541 1710
1541 1862
1541 3624
1542 1921
1542 1930
1542 1941
1542 2047
1542 2138
1542 2892
1542 3455
1542 3538
1543 1545
1545 1862
1545 2097
1545 3949
1545 3973
1546 2825
1546 4283
1546 4734
1547 2097
1547 2224
1547 2337
1547 2338
1547 3216
1549 4277
1551 4700
1554 2044
1554 2111
1554 2215
1554 2705
1554 3249
1554 3463
1554 3869
1554 4623
1557 4276
1563 2125
1563 2892
1565 3925
1566 4276
1566 4277
1569 1609
1569 1921
1569 1930
1569 1941
1569 2030
1569 2047
1569 2097
1569 2337
1569 2338
1569 2677
1569 2892
1569 3392
1569 3439
1569 4721
1572 3893
1573 2097
1573 2163
1573 2793
1573 2935
1573 3304
1573 3347
1573 4098
1575 1609
1575 2097
1575 2137
1575 2690
1575 2783
1575 3488
1580 1946
1584 1954
1585 1933
1585 1946
1585 1949
1585 1950
1585 1954
1585 1956
1585 1957
1585 1958
1585 1959
1585 1960
1585 1961
1585 1962
1586 1946
1586 1954
1587 1954
1589 1946
1589 1954
1590 1954
1591 1954
1592 1946
1592 1954
1593 1954
1594 1954
1595 1954
1596 1946
1596 1954
1597 1946
1597 1954
1598 1946
1598 1954
1599 1936
1599 1942
1599 1949
1599 1954
1600 1954
1601 1954
1602 1954
1603 1954
1604 1954
1606 1954
1607 1954
1608 1940
1608 1954
1609 1611
1609 1946
1609 1954
1609 2163
1609 2222
1609 2786
1609 4224
1609 4239
1609 4240
1610 1954
1611 1946
1611 1954
1612 1613
1612 1954
1612 2888
1613 1946
1613 1954
1614 1954
1615 1618
1615 1619
1615 1620
1615 1789
1615 1954
1615 2776
1615 2826
1615 2833
1615 2843
1615 2855
1615 3168
1615 3207
1615 4348
1616 1954
1616 2335
1616 3812
1617 1954
1618 1946
1618 1954
1618 2935
1619 1946
1619 1954
1620 1954
1620 2097
1620 2335
1620 2940
1620 3812
1621 1954
1621 2113
1621 2118
1622 1946
1622 1954
1623 1954
1623 2793
1623 3349
1623 3812
1624 1954
1624 3915
1625 1946
1625 1954
1642 4652
1645 2346
1651 1653
1651 2372
1651 4351
1651 4654
1653 2346
1653 4230
1653 4234
1653 4360
1654 4234
1654 4360
1668 3893
1669 1715
1669 2125
1670 2097
1671 3925
1672 2125
1674 2493
1675 3812
1676 1985
1676 1991
1677 3032
1677 4488
1678 3252
1683 2032
1683 2034
1683 2677
1683 3786
1683 3811
1684 1738
1684 2335
1684 4639
1685 1864
1685 2359
1685 2962
1688 2113
1688 2118
1688 2121
1688 2887
1694 2786
1696 3006
1700 2030
1700 2314
1700 3493
1700 4231
1700 4450
1701 2786
1701 2887
1701 2892
1703 1964
1705 2022
1705 2802
1706 3488
1709 2848
1709 3994
1709 4415
1712 2081
1721 2255
1724 2876
1725 2325
1725 2339
1729 3543
1736 2331
1736 2336
1736 2337
1736 2338
1736 2863
1737 2928
1738 2928
1738 3176
1739 3994
1741 2163
1755 2047
1755 2097
1756 2505
1756 3994
1759 1870
1759 1879
1759 2437
1760 2335
1760 3793
1765 2077
1768 1771
1768 2920
1768 3859
1768 4486
1768 4536
1768 4667
1769 1895
1769 2841
1769 3858
1769 4535
1769 4536
1772 2239
1778 2224
1778 3216
1779 3488
1784 1936
1784 2533
1784 3509
1784 3819
1784 4479
1784 4481
1787 3436
1787 4506
1789 3784
1791 1794
1794 3783
1794 4670
1795 2427
1798 1974
1798 2892
1798 3783
1798 4659
1800 2826
1802 2814
1802 2929
1804 1813
1812 1813
1816 4226
1823 2137
1829 2465
1829 2466
1829 2481
1829 2533
1829 2887
1829 3133
1829 3308
1829 3994
1829 4362
1829 4479
1829 4481
1829 4720
1830 2465
1833 2049
1833 2084
1834 2090
1834 2103
1847 4546
1847 4547
1847 4552
1848 2097
1850 2787
1850 3764
1851 2787
1851 3764
1852 2787
1852 3764
1855 2120
1857 2120
1861 4026
1862 2173
1862 2195
1862 2196
1862 2198
1862 2214
1862 2677
1862 2751
1862 4517
1863 1996
1863 2174
1863 2180
1863 2193
1863 2208
1863 2994
1863 3165
1863 3812
1863 3863
1864 2987
1864 2995
1864 3859
1864 4012
1866 2998
1866 3947
1866 4300
1866 4701
1869 1985
1875 3811
1879 2335
1879 2505
1889 2325
1892 2324
1892 2325
1892 2403
1892 3614
1893 2325
1893 2337
1893 2338
1893 2403
1893 4634
1893 4640
1895 2325
1906 2173
1906 3437
1914 2173
1917 2173
1921 2215
1921 3208
1921 3216
1921 3869
1925 2173
1926 2173
1928 2173
1930 2215
1930 3208
1930 3216
1930 3250
1930 3869
1934 1959
1934 4211
1936 1959
1936 1961
1936 2170
1936 4217
1941 2222
1941 4217
1942 1959
1942 1961
1942 4217
1943 1959
1944 2972
1946 2825
1946 4222
1947 1961
1949 4217
1950 4210
1952 1959
1952 1961
1952 4217
1956 1959
1962 2312
1962 4204
1964 2221
1964 3167
1964 3236
1964 3237
1964 3839
1968 3432
1974 3083
1974 3128
1974 3177
1974 4485
1975 2995
1975 3182
1978 2826
1978 2833
1978 2903
1978 4691
1982 2849
1985 4312
1985 4350
1987 2928
1987 3145
1987 4404
1991 2793
1991 3843
1994 2778
1996 1998
1996 2403
1996 4031
2005 2138
2005 2151
2006 2034
2007 2703
2013 4292
2016 2138
2018 2138
2020 2030
2022 2582
2023 2786
2027 2331
2027 2337
2027 2338
2027 4567
2030 2047
2030 2223
2030 3236
2030 3383
2030 3401
2030 4731
2031 2034
2032 2034
2032 2138
2032 2677
2033 2138
2034 2138
2034 2150
2034 2152
2034 2666
2034 2893
2034 3308
2037 2138
2043 2503
2044 3238
2044 3247
2046 2287
2047 2244
2047 2255
2047 2503
2047 2677
2047 3148
2047 3216
2047 3243
2047 3358
2047 3646
2047 4388
2048 4368
2052 2056
2052 2086
2053 2057
2055 2086
2055 2503
2057 2076
2060 4248
2064 2321
2064 4231
2064 4240
2064 4303
2064 4305
2069 3214
2070 4371
2071 2503
2074 2524
2074 3539
2074 4095
2074 4683
2076 2084
2076 2086
2076 2163
2076 2692
2076 4222
2076 4370
2077 2503
2078 2084
2082 3216
2083 2321
2083 4231
2083 4240
2083 4303
2083 4305
2084 2241
2087 3244
2089 3750
2089 3751
2091 3751
2097 2215
2097 2255
2097 2593
2097 2676
2097 2677
2097 2690
2097 2794
2097 3215
2097 3216
2097 3238
2097 3746
2097 3751
2097 4222
2097 4240
2097 4326
2097 4622
2107 3750
2107 3751
2111 2163
2111 2240
2111 3017
2111 3433
2111 3750
2111 3757
2111 4621
2111 4622
2113 2121
2113 2690
2113 2792
2113 2943
2116 3747
2118 2792
2118 2943
2120 2140
2120 2954
2120 3756
2121 2403
2121 2792
2121 2928
2121 2943
2125 2932
2125 4292
2128 3746
2128 3747
2128 3752
2128 3774
2128 4472
2137 2138
2137 2141
2137 2142
2137 2151
2137 2152
2137 2163
2137 2240
2137 2685
2137 2951
2137 4040
2137 4621
2137 4622
2137 4623
2138 2143
2138 2144
2138 2146
2138 2147
2138 2151
2138 2154
2138 2666
2138 2710
2138 2716
2138 2728
2138 3757
2140 2892
2140 4024
2144 2686
2146 2734
2151 4200
2157 2560
2161 2711
2162 2669
2163 2729
2163 2783
2163 2920
2163 2955
2163 3488
2163 3536
2163 4057
2163 4058
2163 4073
2163 4226
2163 4233
2163 4250
2163 4362
2163 4536
2166 2783
2170 3224
2172 3811
2172 3937
2173 3811
2174 3811
2175 3811
2176 3811
2177 3811
2179 3725
2179 3730
2179 3734
2180 3811
2182 3811
2183 3811
2184 3811
2185 3811
2186 3811
2187 3811
2188 3811
2189 3811
2191 2984
2191 3359
2191 3811
2192 3811
2193 3811
2194 3050
2194 3811
2194 3865
2195 3811
2196 3811
2197 3811
2198 3811
2199 3811
2200 3811
2202 3488
2203 3811
2205 3811
2206 3488
2206 3811
2207 3811
2208 4226
2209 3216
2209 3488
2209 3811
2212 3811
2213 3811
2214 3811
2215 2783
2218 2783
2219 2783
2219 4739
2221 2427
2221 2783
2221 2892
2221 3787
2221 3840
2221 4617
2222 2783
2222 3440
2223 3392
2223 4721
2225 2783
2226 2887
2228 2783
2229 2783
2232 2783
2233 2783
2234 2783
2235 2783
2236 2783
2237 2783
2238 2783
2239 2783
2239 4535
2240 2783
2240 3811
2240 4620
2240 4667
2241 2783
2242 2783
2243 2783
2244 2783
2244 3467
2245 2783
2246 2783
2247 2783
2248 2408
2248 2783
2248 2892
2249 2783
2250 2335
2250 2783
2251 2783
2252 2783
2253 2783
2254 2783
2255 2783
2256 2783
2257 2783
2258 2783
2259 2337
2259 2338
2259 2783
2260 2783
2261 2783
2262 2783
2263 2783
2264 2783
2269 4226
2276 2480
2276 4226
2279 4226
2286 2316
2286 2468
2286 4226
2287 2316
2290 2501
2290 2747
2295 2316
2306 2786
2306 4226
2317 4226
2324 2359
2324 2893
2324 3131
2324 3569
2324 3570
2324 3592
2324 4582
2324 4625
2324 4662
2325 2359
2325 2884
2325 3569
2325 3585
2325 3586
2325 3614
2325 3834
2325 4081
2325 4350
2325 4652
2326 4156
2329 2352
2329 3294
2331 2359
2331 3233
2331 3281
2331 3307
2331 3308
2331 4156
2335 2666
2335 2961
2335 3308
2337 2359
2337 3209
2337 3238
2337 3300
2337 3308
2337 4292
2338 2359
2338 3209
2338 3238
2338 3300
2338 3308
2338 4292
2339 4350
2340 3112
2340 3570
2345 4324
2346 4350
2346 4652
2348 2772
2348 3946
2352 2355
2359 2369
2359 2893
2359 4625
2366 4662
2369 2786
2369 2892
2369 2893
2369 3209
2369 4370
2369 4488
2369 4631
2403 2786
2403 2787
2403 2943
2403 2944
2403 4085
2403 4223
2403 4230
2403 4584
2408 2995
2408 3266
2408 4662
2421 2776
2421 3635
2423 3790
2426 2776
2426 2793
2426 4007
2426 4081
2426 4085
2426 4350
2426 4621
2426 4672
2427 2433
2427 2910
2427 3083
2427 3117
2427 3123
2427 3360
2427 4701
2428 2429
2432 3942
2437 2640
2440 2793
2440 2915
2440 3770
2458 2786
2458 4226
2463 2465
2463 2611
2463 3436
2463 3530
2463 3994
2465 2558
2466 2558
2466 2575
2466 2810
2466 4230
2466 4623
2468 2481
2468 4211
2474 3488
2480 2501
2494 4233
2495 3488
2496 4233
2499 2501
2501 2507
2501 2523
2501 2539
2501 2550
2501 2556
2501 2582
2503 2887
2503 3135
2529 2787
2533 4388
2554 4629
2571 3790
2575 3991
2579 2729
2587 2592
2592 2597
2597 2940
2609 4050
2632 2633
2633 2634
2633 2636
2633 2637
2672 3757
2673 2674
2673 3757
2675 2686
2677 2711
2677 2751
2677 2892
2677 2952
2677 3538
2677 3806
2678 3783
2685 2892
2685 3788
2685 3789
2685 3796
2685 3801
2685 3802
2729 4220
2730 2731
2730 4558
2730 4656
2730 4663
2732 3757
2732 4333
2739 2740
2744 2746
2745 2746
2746 2747
2751 3756
2756 3786
2756 3811
2757 2786
2760 3783
2760 3786
2760 3790
2760 3811
2763 3811
2764 3786
2764 3811
2768 2914
2769 3349
2769 3847
2769 4646
2776 2840
2778 2840
2778 3790
2778 3812
2781 4250
2782 2887
2783 2786
2783 4220
2783 4223
2783 4226
2786 2847
2786 2894
2786 2984
2786 3050
2786 3112
2786 3296
2786 3308
2786 3359
2786 3536
2786 3754
2786 4107
2786 4201
2786 4233
2786 4515
2786 4539
2786 4625
2786 4685
2786 4708
2786 4716
2787 3730
2787 3767
2792 3347
2793 2855
2793 3347
2793 3350
2796 4233
2796 4250
2797 3437
2802 4233
2802 4265
2809 3789
2810 2825
2814 3222
2814 3783
2814 4289
2814 4290
2814 4452
2814 4464
2817 3202
2818 2892
2819 4235
2825 2982
2825 3264
2825 3652
2825 3790
2825 3840
2825 3850
2825 4086
2825 4247
2825 4634
2826 4734
2832 4235
2836 3811
2837 2840
2839 3790
2839 3812
2839 4639
2840 4031
2840 4081
2840 4533
2840 4662
2847 4226
2847 4680
2848 3216
2848 3443
2849 4027
2855 2862
2855 3812
2860 3350
2862 2868
2862 2869
2862 2870
2862 2871
2862 2872
2862 2877
2862 2878
2862 2901
2862 2911
2862 2912
2862 2913
2862 2914
2862 2915
2863 2868
2863 2873
2863 2874
2863 2877
2863 2878
2863 2879
2863 2880
2863 2881
2863 2882
2863 2883
2863 2884
2863 2899
2863 3067
2863 4663
2864 2877
2864 2900
2864 2902
2864 2904
2864 2911
2864 2912
2864 2913
2864 2914
2865 4303
2867 4634
2870 2881
2873 2887
2875 3786
2875 3790
2876 2878
2876 3586
2883 2884
2883 4636
2884 4634
2884 4636
2884 4638
2884 4640
2887 2888
2887 2924
2887 2958
2887 2961
2887 2968
2887 2983
2887 3112
2887 3118
2887 3128
2887 3182
2887 3994
2887 4081
2887 4292
2887 4485
2887 4672
2888 3538
2888 3994
2892 2893
2892 2900
2892 2982
2892 3131
2892 3155
2892 3156
2892 3167
2892 3171
2892 3183
2892 3197
2892 3233
2892 3306
2892 3308
2892 3542
2892 3621
2892 3843
2892 4003
2892 4381
2892 4396
2892 4509
2892 4586
2892 4621
2892 4701
2892 4720
2893 2976
2893 3783
2893 4567
2893 4569
2893 4587
2893 4625
2895 3538
2895 3812
2895 4489
2900 2910
2905 3947
2910 3010
2914 4633
2914 4646
2915 3350
2915 4086
2915 4282
2917 3349
2917 3791
2920 3859
2921 3857
2923 3455
2923 3783
2923 4619
2924 3259
2928 3089
2928 3790
2928 3812
2928 4635
2928 4639
2935 4452
2940 2959
2940 4041
2941 3783
2949 3791
2950 3791
2954 3788
2954 3789
2954 3791
2954 3796
2954 3801
2954 3802
2955 4222
2956 3791
2957 3783
2958 3783
2958 3791
2960 3791
2961 3783
2961 3791
2962 3783
2963 3783
2963 3791
2964 3783
2965 3783
2966 3745
2968 3783
2969 4233
2970 3783
2971 3783
2972 3783
2973 3783
2973 3791
2976 3783
2977 3791
2979 3791
2979 4454
2979 4464
2979 4499
2980 3783
2980 3791
2983 2985
2983 4512
2985 3167
2985 3359
2985 4396
2985 4493
2985 4672
2986 3783
2987 3783
2987 3812
2988 4292
2990 3791
2991 3783
2992 3783
2993 3783
2994 3791
2995 3791
2995 3812
3000 3783
3002 3791
3003 3783
3003 3791
3004 3791
3005 3791
3007 4031
3008 3013
3008 3833
3020 4629
3029 3030
3029 3040
3029 4696
3029 4711
3030 3045
3030 3046
3030 3080
3030 4666
3030 4699
3030 4719
3037 3306
3044 3050
3044 3080
3050 4719
3069 4666
3080 4666
3083 3163
3083 4233
3089 4604
3097 3163
3107 3123
3130 3812
3131 3163
3135 3812
3137 3630
3137 3632
3152 3812
3156 3222
3156 3783
3156 4454
3156 4464
3156 4499
3162 4609
3162 4616
3163 3175
3163 3177
3163 4673
3163 4701
3167 4233
3173 3783
3176 3538
3176 3810
3177 3783
3177 3790
3182 4545
3183 4646
3195 3401
3195 4731
3198 4731
3199 3392
3199 3401
3208 3458
3209 3306
3209 4625
3209 4630
3210 4211
3215 4040
3215 4085
3216 3790
3220 3227
3220 4479
3222 3813
3222 4077
3222 4391
3222 4466
3222 4480
3222 4499
3226 3244
3236 3392
3236 3419
3236 4529
3236 4721
3237 4735
3237 4736
3237 4742
3244 3786
3248 3811
3248 4226
3248 4372
3248 4375
3256 4560
3257 4560
3258 4560
3263 4066
3279 3318
3302 4310
3308 4226
3322 3986
3349 3442
3352 3367
3359 3783
3368 4371
3375 3376
3375 3379
3375 3382
3375 3387
3376 3379
3378 3379
3379 3380
3379 3433
3392 4731
3395 3396
3401 3407
3405 4731
3411 3420
3411 4737
3411 4738
3411 4742
3412 4736
3412 4742
3413 4736
3413 4742
3414 4736
3414 4742
3415 4736
3415 4742
3416 4736
3416 4742
3417 4736
3417 4742
3419 3430
3419 4529
3419 4736
3419 4742
3421 4736
3421 4742
3422 3538
3422 4736
3422 4742
3433 3865
3433 4024
3434 3819
3434 4386
3436 3802
3436 4377
3440 4024
3455 4454
3461 3869
3463 3481
3467 3865
3468 3481
3479 3865
3485 3793
3485 3805
3485 3806
3485 3809
3488 4183
3488 4666
3488 4678
3493 4226
3501 4666
3501 4694
3501 4716
3502 3538
3502 4490
3505 3509
3509 4379
3531 3551
3531 3994
3531 4411
3536 4220
3538 4292
3538 4379
3538 4401
3538 4405
3538 4412
3538 4694
3538 4714
3548 3757
3583 3586
3592 4634
3592 4636
3592 4638
3592 4640
3597 4635
3631 4512
3632 4704
3648 3790
3663 3665
3664 3665
3705 3719
3705 3720
3725 3739
3725 3742
3725 3871
3728 3741
3728 3742
3730 3737
3731 3741
3733 3741
3733 3742
3734 3741
3734 3742
3734 3933
3734 4047
3739 3933
3741 3933
3742 3933
3746 3783
3750 3802
3750 3811
3752 3779
3752 3788
3752 3789
3752 3796
3752 3801
3752 3802
3753 3788
3753 3789
3753 3796
3753 3801
3753 3802
3756 3802
3756 3811
3757 4334
3757 4336
3757 4337
3757 4658
3758 3802
3759 3802
3760 3802
3762 3802
3767 3802
3770 3802
3783 4533
3786 3938
3786 3984
3786 4083
3786 4290
3787 4020
3787 4485
3788 4333
3790 4021
3790 4586
3793 4031
3794 4064
3796 4333
3802 3826
3802 4333
3806 4007
3806 4021
3806 4031
3809 4031
3812 4007
3812 4485
3812 4488
3812 4614
3813 4432
3814 3820
3815 3816
3815 3820
3819 3824
3819 4462
3820 4250
3820 4464
3820 4479
3826 4432
3840 3843
3840 3863
3840 4530
3848 3851
3857 3858
3859 4536
3863 4635
3865 4337
3869 4479
3874 3893
3874 3986
3893 3895
3893 3898
3893 3899
3893 3925
3893 3933
3893 3938
3893 3948
3893 3949
3893 3951
3893 3985
3893 3986
3893 4679
3895 3939
3895 3976
3895 4276
3895 4277
3910 3935
3913 3952
3925 3929
3925 3930
3930 4276
3930 4277
3935 3937
3935 3938
3935 3940
3935 3941
3955 3967
3966 3967
3970 3971
3971 3979
3991 3994
3993 4231
3994 4095
3994 4224
3994 4226
3994 4370
3994 4623
3994 4674
4024 4496
4024 4646
4029 4061
4073 4220
4077 4335
4085 4739
4226 4253
4226 4388
4226 4670
4226 4716
4226 4719
4232 4234
4232 4360
4233 4464
4233 4500
4234 4358
4235 4236
4245 4273
4250 4690
4262 4265
4273 4303
4276 4277
4281 4289
4281 4734
4290 4452
4323 4442
4331 4337
4333 4335
4337 4388
4358 4360
4362 4370
4363 4370
4370 4479
4370 4625
4370 4662
4382 4465
4382 4479
4388 4623
4393 4473
4411 4471
4415 4678
4428 4432
4430 4442
4431 4432
4431 4442
4432 4433
4432 4435
4465 4466
4479 4498
4479 4720
4485 4504
4488 4625
4488 4639
4505 4529
4505 4557
4505 4639
4505 4735
4527 4735
4532 4667
4546 4555
4586 4619
4587 4662
4591 4592
4591 4594
4604 4608
4604 4609
4604 4616
4625 4631
4629 4630
4633 4644
4634 4636
4635 4644
4636 4638
4636 4640
4637 4646
4639 4672
4646 4647
4666 4673
4674 4711
4675 4703
4721 4731
4731 4739
4735 4736
4735 4742
