%%MatrixMarket matrix coordinate pattern symmetric
4716 4716 37057
1 3705
1 3933
1 3939
1 3981
1 4172
2 50
2 105
2 161
2 242
2 442
2 511
2 847
2 954
2 979
2 1220
2 1323
2 1400
2 1509
2 1512
2 1539
2 1574
2 1576
2 1648
2 1697
2 1712
2 1753
2 1941
2 2000
2 2058
2 2188
2 2228
2 2304
2 2480
2 2523
2 2543
2 2910
2 3005
2 3009
2 3059
2 3110
2 3263
2 3268
2 3405
2 3523
2 3538
2 3633
2 3642
2 3795
2 3829
2 3841
2 3928
2 4001
2 4002
2 4011
2 4040
2 4215
2 4299
2 4367
2 4408
2 4571
2 4613
2 4666
2 4677
2 4711
3 435
3 635
3 725
3 731
3 749
3 789
3 950
3 1265
3 1274
3 1568
3 1650
3 1759
3 1796
3 1886
3 1928
3 1979
3 2005
3 2068
3 2344
3 2482
3 2526
3 2702
3 2716
3 2728
3 2777
3 3016
3 3470
3 3594
3 3622
3 3673
3 3697
3 3790
3 4068
3 4213
3 4288
3 4311
3 4339
3 4558
3 4626
3 4715
4 183
4 184
4 761
4 818
4 940
4 1103
4 2204
4 2516
4 2679
4 2766
4 2881
4 3042
4 3205
4 3682
4 4270
4 4377
4 4685
5 3661
6 4408
7 15
7 23
7 956
7 1091
7 1107
7 1264
7 1413
7 1562
7 1644
7 2143
7 2224
7 2602
7 2732
7 3085
7 3913
7 4046
7 4140
8 180
8 471
8 575
8 889
8 1013
8 1090
8 1268
8 1496
8 1770
8 2829
8 2869
8 3528
8 4154
8 4206
8 4543
9 709
10 1090
10 2829
11 141
11 448
11 1151
11 1478
11 1648
11 1955
11 2150
11 2276
11 3184
11 3208
11 3754
11 4035
12 1948
12 4652
13 353
13 1785
13 2231
13 3369
13 3907
13 4520
14 15
14 1151
14 1225
14 1262
14 1427
14 2107
14 2218
14 2436
14 2670
14 3289
14 3401
14 3513
14 3671
14 3735
14 3967
14 4064
14 4358
14 4628
15 17
15 23
15 49
15 84
15 108
15 164
15 193
15 276
15 318
15 353
15 361
15 430
15 432
15 470
15 485
15 540
15 626
15 741
15 764
15 775
15 880
15 906
15 927
15 940
15 956
15 979
15 980
15 984
15 986
15 1014
15 1031
15 1041
15 1061
15 1096
15 1107
15 1145
15 1151
15 1158
15 1167
15 1171
15 1175
15 1252
15 1259
15 1264
15 1301
15 1334
15 1408
15 1413
15 1421
15 1491
15 1520
15 1564
15 1569
15 1578
15 1595
15 1601
15 1621
15 1644
15 1651
15 1708
15 1756
15 1801
15 1841
15 1850
15 1855
15 1964
15 1977
15 1985
15 2008
15 2027
15 2035
15 2036
15 2059
15 2063
15 2098
15 2112
15 2122
15 2143
15 2184
15 2224
15 2226
15 2236
15 2252
15 2300
15 2302
15 2353
15 2379
15 2404
15 2451
15 2500
15 2543
15 2602
15 2645
15 2685
15 2732
15 2735
15 2896
15 2917
15 2974
15 3039
15 3042
15 3052
15 3063
15 3066
15 3093
15 3146
15 3199
15 3243
15 3244
15 3249
15 3268
15 3276
15 3295
15 3361
15 3419
15 3430
15 3437
15 3450
15 3482
15 3526
15 3546
15 3708
15 3756
15 3814
15 3848
15 3913
15 3962
15 3981
15 4001
15 4011
15 4023
15 4046
15 4051
15 4054
15 4079
15 4095
15 4173
15 4211
15 4234
15 4238
15 4404
15 4406
15 4483
15 4515
15 4615
15 4650
15 4654
16 1286
16 1330
16 1423
16 1740
16 1891
16 1898
16 1980
16 2185
16 2202
16 2297
16 2303
16 3234
16 3723
16 3946
16 4383
16 4705
17 299
17 405
17 430
17 1016
17 1323
17 1564
17 1913
17 1977
17 2226
17 2393
17 2418
17 2465
17 2639
17 2645
17 2967
17 3031
17 3039
17 3204
17 3252
17 3766
17 3897
17 4055
17 4330
17 4513
17 4639
17 4641
18 3639
19 3808
20 189
20 412
20 476
20 484
20 919
20 1051
20 1269
20 1296
20 1396
20 1413
20 1517
20 2199
20 2588
20 2747
20 3181
20 3858
20 3933
20 4259
20 4271
20 4333
20 4367
20 4464
20 4483
21 47
21 61
21 251
21 631
21 671
21 672
21 940
21 1112
21 1308
21 1391
21 1643
21 1747
21 1899
21 2039
21 2075
21 2759
21 2827
21 3015
21 3042
21 3103
21 3288
21 3438
21 3462
21 3617
21 3752
21 3957
21 3963
22 2872
23 198
23 299
23 430
23 598
23 748
23 763
23 766
23 963
23 979
23 1031
23 1161
23 1175
23 1250
23 1264
23 1273
23 1357
23 1562
23 1564
23 1567
23 1644
23 1913
23 1959
23 1977
23 2226
23 2382
23 2393
23 2418
23 2457
23 2465
23 2508
23 2541
23 2602
23 2639
23 2643
23 2732
23 2735
23 2745
23 2824
23 2941
23 2967
23 2978
23 3031
23 3039
23 3055
23 3088
23 3107
23 3203
23 3204
23 3251
23 3295
23 3357
23 3387
23 3493
23 3508
23 3680
23 3913
23 4055
23 4136
23 4173
23 4316
23 4410
23 4480
23 4513
23 4516
24 1255
24 1870
24 1965
24 2080
24 2451
24 2483
24 2951
24 3263
24 3750
24 3780
24 4023
24 4321
24 4354
25 26
25 141
25 364
25 862
25 1432
25 1560
25 1656
25 1674
25 1747
25 1770
25 1955
25 2191
25 2322
25 2813
25 3155
25 3291
25 3452
25 4178
25 4376
25 4394
25 4434
25 4477
26 141
26 733
26 940
26 1674
26 1955
26 2135
26 2191
26 2331
26 2543
26 3184
26 3291
26 3600
26 3783
26 3856
26 4239
26 4270
27 779
27 3569
28 76
28 105
28 110
28 545
28 664
28 850
28 1584
28 1595
28 1697
28 1941
28 2227
28 2447
28 2718
28 2860
28 2950
28 3085
28 3523
28 3635
28 4123
28 4360
28 4367
28 4408
28 4415
28 4666
29 57
29 240
29 271
29 604
29 684
29 719
29 974
29 1810
29 2565
29 2890
29 3239
29 3464
29 4003
29 4676
30 528
30 3042
30 3866
31 317
31 733
31 1399
31 1478
31 1846
31 3246
31 3272
31 3448
31 3503
31 3587
31 3639
31 3754
31 4035
31 4270
31 4520
31 4669
32 189
32 643
32 745
32 1562
32 2087
32 3085
32 3341
32 4572
33 981
33 1072
33 1091
33 2224
33 4571
34 1071
35 265
35 1575
35 2756
35 3042
35 3059
35 3155
35 3435
35 3800
35 3907
35 4045
35 4395
35 4520
36 89
36 171
36 1090
36 2682
36 2983
36 3042
36 4052
36 4206
36 4367
37 59
37 1776
37 1962
37 2201
37 2451
37 2779
37 2960
37 2962
37 3891
37 3931
38 1470
38 1688
38 2112
38 2528
39 355
39 854
39 858
39 1005
39 1130
39 1545
39 1594
39 2082
39 2388
39 3392
39 3542
39 3902
39 3921
40 927
40 2604
40 3095
41 136
41 337
41 366
41 528
41 671
41 818
41 972
41 1097
41 1103
41 1153
41 1186
41 1456
41 1570
41 1581
41 1643
41 1732
41 1917
41 1976
41 2059
41 2188
41 2222
41 2347
41 2377
41 2434
41 2530
41 2766
41 2780
41 3085
41 3105
41 3347
41 3353
41 3484
41 3504
41 3532
41 3551
41 3565
41 3620
41 3682
41 3715
41 3864
41 3922
41 4161
41 4206
41 4276
41 4367
41 4395
41 4415
41 4615
41 4671
41 4685
42 691
42 723
42 1219
42 1307
42 1575
42 2228
42 2267
42 3066
42 4001
43 1688
44 206
44 364
44 1503
44 1891
44 2664
44 3065
44 3127
44 3155
44 3293
44 3588
44 3805
44 4178
44 4251
44 4653
45 372
45 1414
45 1610
45 1923
45 2239
45 3799
45 4063
45 4681
46 528
46 639
46 741
46 1344
46 1444
46 1595
46 1638
46 1768
46 1877
46 2557
46 3085
46 3093
46 3146
46 3244
46 3972
46 4001
46 4296
46 4415
46 4606
47 63
47 101
47 119
47 136
47 145
47 303
47 307
47 418
47 420
47 431
47 444
47 480
47 489
47 515
47 553
47 572
47 577
47 586
47 628
47 631
47 646
47 810
47 826
47 854
47 881
47 901
47 1005
47 1090
47 1186
47 1196
47 1295
47 1298
47 1308
47 1323
47 1354
47 1391
47 1442
47 1505
47 1575
47 1601
47 1605
47 1681
47 1704
47 1708
47 1740
47 1744
47 1834
47 1939
47 2059
47 2075
47 2093
47 2171
47 2199
47 2259
47 2274
47 2313
47 2321
47 2374
47 2388
47 2400
47 2450
47 2471
47 2477
47 2479
47 2507
47 2543
47 2601
47 2623
47 2632
47 2654
47 2679
47 2710
47 2740
47 2756
47 2759
47 2780
47 2788
47 2859
47 2962
47 3015
47 3042
47 3060
47 3072
47 3142
47 3145
47 3166
47 3216
47 3303
47 3347
47 3413
47 3515
47 3522
47 3681
47 3696
47 3708
47 3726
47 3732
47 3744
47 3808
47 3918
47 3997
47 4017
47 4085
47 4375
47 4395
47 4489
47 4518
47 4560
47 4646
47 4685
48 380
48 572
48 1735
48 2477
48 2552
48 2740
48 3395
48 3753
48 4017
48 4685
49 628
49 1693
49 2119
49 2623
49 3288
50 105
50 571
50 856
50 2372
50 3796
50 3829
50 4002
50 4367
50 4711
51 1186
51 1334
51 2643
51 2811
51 2847
51 3538
51 3669
51 4182
51 4592
51 4602
52 412
52 812
52 825
52 2302
52 3532
52 3657
52 4055
52 4172
52 4463
53 595
53 2662
53 3286
54 139
54 476
54 856
54 1086
54 1151
54 1648
54 2538
54 2623
54 2731
54 2832
54 3779
54 3858
54 4132
54 4259
54 4333
54 4359
54 4564
55 184
55 489
55 1909
55 2059
55 2598
55 4017
56 2170
56 2850
56 3181
56 4321
56 4468
57 330
57 750
57 949
57 975
57 1134
57 1878
57 1895
57 1943
57 2089
57 2345
57 2468
57 2565
57 3047
57 3701
58 1091
58 1413
58 1421
58 1549
58 1959
58 2224
58 4571
58 4670
59 183
59 218
59 572
59 586
59 631
59 658
59 741
59 777
59 797
59 1007
59 1061
59 1103
59 1585
59 1914
59 2075
59 2088
59 2471
59 2598
59 2698
59 2759
59 2827
59 2974
59 3042
59 3504
59 3562
59 3744
59 3972
59 4001
59 4087
59 4238
59 4395
60 136
60 951
60 2463
60 3042
60 3605
60 4280
61 105
61 177
61 672
61 776
61 777
61 937
61 979
61 1334
61 1391
61 1430
61 1581
61 1669
61 1875
61 1903
61 3467
61 3804
61 3835
61 3917
61 4544
61 4609
61 4615
62 3628
62 4001
63 136
63 139
63 190
63 282
63 337
63 418
63 574
63 759
63 937
63 1005
63 1042
63 1095
63 1097
63 1103
63 1186
63 1242
63 1323
63 1374
63 1379
63 1391
63 1570
63 1575
63 1601
63 1776
63 1834
63 1843
63 1946
63 1962
63 2065
63 2075
63 2139
63 2199
63 2259
63 2321
63 2374
63 2471
63 2543
63 2584
63 2623
63 2654
63 2703
63 2740
63 2759
63 2769
63 2887
63 2962
63 2975
63 3015
63 3059
63 3060
63 3100
63 3105
63 3175
63 3303
63 3347
63 3369
63 3395
63 3413
63 3472
63 3509
63 3587
63 3651
63 3708
63 3726
63 3744
63 3807
63 3808
63 3848
63 3923
63 3971
63 3997
63 4151
63 4242
63 4381
63 4395
63 4462
63 4560
63 4707
64 671
64 818
64 1103
64 1962
64 2347
64 2350
64 4462
65 171
66 189
66 250
66 576
66 787
66 799
66 963
66 979
66 1114
66 1759
66 1831
66 1870
66 1937
66 2269
66 2740
66 2839
66 3039
66 3085
66 3333
66 3410
66 3538
66 3680
66 3786
66 4023
66 4225
66 4321
66 4351
66 4402
66 4410
66 4620
67 979
67 1112
67 1379
67 1453
67 1652
67 1759
67 1961
67 2523
67 2543
67 3009
67 3180
67 3341
67 3829
67 4023
67 4171
67 4238
67 4360
67 4404
67 4408
67 4592
67 4701
68 193
68 3335
69 912
69 1611
70 819
70 962
70 991
70 1044
70 1346
70 1416
70 1633
70 1840
70 2121
70 2485
70 3067
70 3102
70 3155
70 3305
70 3452
70 3512
70 3746
70 3783
70 4001
70 4201
70 4272
70 4418
70 4424
70 4588
71 3286
71 4115
71 4217
72 401
73 245
73 1356
73 3378
73 3463
73 4677
74 358
75 1177
77 712
77 1198
77 1214
77 2883
77 4342
78 3361
78 4382
79 1151
80 87
80 1570
80 1776
80 2173
80 2200
80 2623
80 3059
80 3369
80 3708
80 3787
80 3972
80 4560
80 4613
80 4671
81 986
81 1167
81 2277
82 418
82 594
82 763
82 1623
82 2231
82 2308
82 2539
82 3146
82 4043
82 4320
82 4410
82 4415
82 4619
83 481
84 136
84 139
84 221
84 524
84 528
84 574
84 628
84 723
84 779
84 909
84 937
84 940
84 1005
84 1174
84 1296
84 1335
84 1394
84 1429
84 1443
84 1570
84 1575
84 1601
84 1623
84 1815
84 2131
84 2147
84 2438
84 2543
84 2623
84 2843
84 2890
84 3059
84 3244
84 3288
84 3347
84 3435
84 3509
84 3533
84 3561
84 3565
84 3594
84 3700
84 3708
84 3808
84 3863
84 3879
84 3960
84 4151
84 4206
84 4236
84 4395
84 4497
84 4613
84 4669
84 4671
84 4707
85 574
85 1202
85 2479
85 2607
85 4038
86 161
86 162
86 177
86 644
86 1334
86 1485
86 1509
86 1514
86 2162
86 2228
86 2498
86 2523
86 2763
86 2830
86 3341
86 3538
86 3582
86 3630
86 3681
86 3780
86 4171
86 4218
86 4245
86 4351
86 4524
87 723
87 1103
87 1434
87 1509
87 1797
87 2200
87 2265
87 2466
87 2503
87 3214
87 3474
87 3808
87 4145
87 4462
87 4465
87 4551
87 4559
87 4613
88 1350
88 2051
89 201
89 204
89 314
89 364
89 444
89 681
89 886
89 1042
89 1054
89 1243
89 1503
89 1638
89 1656
89 1891
89 1955
89 2229
89 2254
89 2516
89 2573
89 2648
89 2664
89 2829
89 2992
89 3038
89 3065
89 3414
89 3714
89 3759
89 3805
89 3907
89 3981
89 4178
89 4413
89 4520
89 4653
90 553
90 2075
90 4085
91 901
91 2549
92 4214
93 267
93 435
93 469
93 624
93 680
93 733
93 964
93 1092
93 1379
93 1527
93 1565
93 1575
93 1661
93 1766
93 2246
93 2405
93 2416
93 2471
93 2503
93 2693
93 2754
93 3504
93 3783
93 3907
93 4142
93 4270
93 4519
93 4707
94 1494
94 2905
94 3151
95 115
95 429
95 946
95 1023
95 1101
95 1102
95 1170
95 1522
95 1632
95 1772
95 2096
95 2208
95 2467
95 2622
95 3122
95 3123
95 3275
95 3568
95 3665
95 3886
95 3945
95 4454
96 217
96 407
96 458
96 746
96 901
96 1005
96 1053
96 1109
96 1117
96 1240
96 1554
96 1601
96 1868
96 1955
96 2121
96 2210
96 2400
96 2454
96 2516
96 2586
96 2936
96 3149
96 3155
96 3261
96 3448
96 3452
96 3466
96 3540
96 3616
96 3644
96 3746
96 3749
96 3869
96 3941
96 4080
96 4103
96 4201
96 4251
96 4418
96 4588
96 4622
96 4637
96 4686
96 4707
97 368
97 1099
97 2107
97 2230
97 2476
97 2673
97 3169
97 3355
97 3520
97 3628
97 3733
97 4018
97 4268
97 4580
98 2890
99 291
99 741
99 1595
100 265
100 856
100 919
100 1153
100 1312
100 1570
100 2188
100 2811
100 3268
100 3592
100 3829
100 4367
101 414
101 701
101 779
101 881
101 1283
101 1819
101 2471
101 2552
101 2759
101 2827
101 3347
101 3594
101 3740
101 3934
101 4238
101 4309
101 4507
102 701
102 1269
102 2763
102 3418
102 4182
102 4190
102 4333
102 4453
103 3607
104 2781
104 3292
104 3970
104 4333
104 4428
104 4675
105 110
105 136
105 177
105 189
105 233
105 248
105 335
105 491
105 545
105 594
105 672
105 702
105 723
105 776
105 834
105 979
105 980
105 1016
105 1031
105 1070
105 1073
105 1175
105 1179
105 1209
105 1293
105 1430
105 1434
105 1581
105 1584
105 1595
105 1626
105 1638
105 1666
105 1669
105 1677
105 1697
105 1738
105 1759
105 1850
105 1875
105 1937
105 1968
105 2027
105 2122
105 2123
105 2188
105 2214
105 2228
105 2252
105 2255
105 2265
105 2292
105 2302
105 2350
105 2382
105 2449
105 2477
105 2479
105 2556
105 2623
105 2643
105 2645
105 2781
105 2785
105 2887
105 2987
105 3015
105 3050
105 3053
105 3060
105 3085
105 3093
105 3135
105 3162
105 3245
105 3341
105 3470
105 3495
105 3532
105 3543
105 3544
105 3553
105 3579
105 3601
105 3633
105 3669
105 3766
105 3780
105 3821
105 3829
105 3835
105 3838
105 3895
105 3917
105 3922
105 3925
105 3938
105 3960
105 4001
105 4011
105 4014
105 4123
105 4157
105 4161
105 4246
105 4308
105 4320
105 4347
105 4360
105 4367
105 4408
105 4415
105 4451
105 4482
105 4509
105 4559
105 4605
105 4615
105 4677
106 4309
107 412
107 818
107 1103
107 1531
107 1976
107 2104
107 2373
107 2533
107 2780
107 3105
107 3347
107 3715
107 4082
107 4518
107 4615
108 170
108 567
108 628
108 741
108 775
108 1708
108 1989
108 2088
108 2139
108 2377
108 3551
108 4001
108 4082
109 342
109 1091
109 1413
109 1539
109 1892
109 2543
109 3909
110 545
110 1661
110 1826
110 1850
110 2027
110 2546
110 2718
110 2749
110 2860
110 2908
110 3085
110 3162
110 3180
110 3341
110 3532
110 3553
110 4408
110 4415
110 4605
111 161
111 310
111 351
111 409
111 540
111 590
111 605
111 745
111 1031
111 1061
111 1153
111 1271
111 1301
111 1307
111 1581
111 1674
111 1738
111 1837
111 1952
111 2063
111 2252
111 2579
111 2628
111 2643
111 2661
111 2709
111 2720
111 2777
111 3012
111 3050
111 3066
111 3085
111 3093
111 3151
111 3364
111 3368
111 3394
111 3579
111 3609
111 3681
111 3742
111 3834
111 3972
111 4036
111 4190
111 4276
111 4333
111 4410
111 4415
111 4483
111 4654
112 338
112 434
112 586
112 631
112 1441
112 1524
112 1766
112 2379
112 2489
112 2619
112 2756
112 2827
112 2949
112 2963
112 3085
112 3100
112 3428
112 3856
112 4191
112 4462
112 4707
113 1245
113 2112
113 2966
114 1090
114 2829
115 429
115 946
115 1023
115 1101
115 1102
115 1170
115 1522
115 1632
115 2096
115 2208
115 2467
115 3122
115 3123
115 3275
115 3568
115 3665
115 3886
115 3945
116 242
116 847
116 1334
116 1509
116 1579
116 1825
116 2000
116 2372
116 2477
116 2498
116 2523
116 2709
116 3022
116 3633
116 3928
116 4001
116 4040
116 4404
116 4605
117 2712
118 3344
118 4217
119 515
119 586
119 631
119 779
119 905
119 1524
119 1653
119 1843
119 2075
119 2093
119 2259
119 2274
119 2304
119 2360
119 2421
119 2477
119 2543
119 2555
119 2601
119 2759
119 2887
119 2962
119 3042
119 3268
119 3347
119 3793
119 3834
119 4298
119 4520
119 4685
120 126
120 476
120 745
120 1296
120 2832
121 598
121 979
121 986
121 1114
121 1167
121 1259
121 1301
121 1367
121 1413
121 1421
121 1595
121 1761
121 1850
121 2063
121 2252
121 2674
121 2747
121 2788
121 3063
121 3085
121 3244
121 3388
121 3585
121 3756
121 4001
121 4158
121 4255
121 4404
121 4568
121 4654
122 1570
122 1980
122 2185
122 2297
122 2576
123 377
123 1010
123 2451
123 2800
123 3261
123 3353
123 3623
123 3746
124 565
124 1720
124 2958
124 4208
125 312
126 189
126 412
126 639
126 919
126 1051
126 1396
126 1931
126 2058
126 2110
126 2199
126 2588
126 2811
126 3858
126 3972
126 4483
126 4568
127 981
127 1072
127 2462
127 2505
127 3326
127 3360
127 3677
127 4445
127 4510
128 2933
129 712
130 672
130 1675
130 2942
130 3378
130 3640
130 4677
130 4699
131 1225
132 4001
133 291
133 1175
133 1179
133 1269
133 1353
133 1485
133 2070
133 2346
133 2367
133 2984
133 3281
133 3594
133 3708
133 3766
133 3981
133 4011
133 4288
133 4531
134 2965
135 2240
136 139
136 164
136 171
136 183
136 206
136 229
136 251
136 254
136 265
136 293
136 297
136 307
136 337
136 346
136 353
136 370
136 380
136 415
136 483
136 489
136 515
136 522
136 523
136 528
136 533
136 548
136 572
136 574
136 579
136 582
136 584
136 586
136 623
136 628
136 631
136 658
136 671
136 701
136 704
136 733
136 741
136 743
136 774
136 779
136 809
136 825
136 856
136 905
136 937
136 940
136 944
136 951
136 963
136 972
136 979
136 986
136 1005
136 1007
136 1010
136 1064
136 1071
136 1095
136 1103
136 1112
136 1133
136 1151
136 1167
136 1175
136 1186
136 1227
136 1243
136 1255
136 1267
136 1280
136 1301
136 1302
136 1323
136 1334
136 1340
136 1343
136 1354
136 1378
136 1379
136 1391
136 1395
136 1431
136 1442
136 1445
136 1453
136 1456
136 1465
136 1468
136 1477
136 1478
136 1480
136 1481
136 1498
136 1503
136 1508
136 1509
136 1523
136 1524
136 1532
136 1541
136 1570
136 1575
136 1578
136 1591
136 1601
136 1643
136 1660
136 1661
136 1671
136 1674
136 1681
136 1692
136 1693
136 1697
136 1704
136 1708
136 1712
136 1735
136 1744
136 1776
136 1815
136 1843
136 1857
136 1866
136 1934
136 1936
136 1941
136 1946
136 1969
136 1976
136 1993
136 2038
136 2044
136 2075
136 2088
136 2093
136 2121
136 2135
136 2139
136 2158
136 2185
136 2199
136 2222
136 2232
136 2274
136 2298
136 2300
136 2304
136 2307
136 2347
136 2350
136 2360
136 2377
136 2379
136 2396
136 2434
136 2451
136 2453
136 2458
136 2463
136 2471
136 2472
136 2477
136 2479
136 2484
136 2488
136 2503
136 2504
136 2512
136 2517
136 2543
136 2550
136 2552
136 2555
136 2556
136 2589
136 2598
136 2607
136 2623
136 2629
136 2643
136 2654
136 2658
136 2679
136 2681
136 2687
136 2698
136 2703
136 2710
136 2730
136 2740
136 2747
136 2759
136 2766
136 2779
136 2780
136 2821
136 2834
136 2846
136 2859
136 2866
136 2877
136 2887
136 2910
136 2911
136 2936
136 2949
136 2959
136 2974
136 2975
136 3000
136 3015
136 3034
136 3035
136 3038
136 3042
136 3059
136 3060
136 3065
136 3072
136 3085
136 3094
136 3097
136 3105
136 3127
136 3166
136 3168
136 3175
136 3208
136 3216
136 3221
136 3234
136 3244
136 3250
136 3268
136 3288
136 3294
136 3303
136 3304
136 3342
136 3347
136 3348
136 3363
136 3378
136 3395
136 3484
136 3504
136 3509
136 3522
136 3523
136 3533
136 3551
136 3554
136 3562
136 3565
136 3587
136 3601
136 3605
136 3607
136 3642
136 3649
136 3694
136 3696
136 3699
136 3708
136 3726
136 3732
136 3744
136 3753
136 3783
136 3787
136 3800
136 3807
136 3808
136 3809
136 3835
136 3848
136 3866
136 3873
136 3895
136 3912
136 3923
136 3949
136 3950
136 3951
136 3960
136 3969
136 3971
136 3972
136 3997
136 4001
136 4021
136 4023
136 4029
136 4038
136 4040
136 4041
136 4063
136 4082
136 4114
136 4144
136 4156
136 4157
136 4178
136 4180
136 4182
136 4206
136 4225
136 4242
136 4258
136 4270
136 4280
136 4296
136 4298
136 4317
136 4333
136 4359
136 4361
136 4395
136 4410
136 4412
136 4462
136 4489
136 4520
136 4528
136 4544
136 4560
136 4566
136 4615
136 4633
136 4634
136 4647
136 4649
136 4650
136 4669
136 4671
136 4677
136 4685
136 4686
136 4707
136 4711
136 4714
137 847
138 2360
138 2555
139 164
139 171
139 183
139 206
139 312
139 337
139 346
139 350
139 360
139 444
139 515
139 553
139 572
139 574
139 586
139 608
139 639
139 733
139 741
139 768
139 776
139 835
139 856
139 881
139 886
139 940
139 979
139 1005
139 1007
139 1011
139 1038
139 1042
139 1051
139 1086
139 1090
139 1103
139 1151
139 1174
139 1209
139 1227
139 1242
139 1267
139 1269
139 1296
139 1298
139 1304
139 1323
139 1362
139 1396
139 1431
139 1442
139 1448
139 1498
139 1570
139 1572
139 1575
139 1601
139 1638
139 1688
139 1726
139 1747
139 1776
139 1843
139 1866
139 1877
139 1936
139 1946
139 1976
139 2058
139 2059
139 2088
139 2119
139 2151
139 2188
139 2199
139 2222
139 2259
139 2276
139 2287
139 2299
139 2350
139 2376
139 2379
139 2438
139 2451
139 2471
139 2477
139 2503
139 2516
139 2518
139 2543
139 2550
139 2555
139 2584
139 2586
139 2593
139 2598
139 2623
139 2654
139 2664
139 2698
139 2703
139 2717
139 2740
139 2759
139 2779
139 2780
139 2794
139 2829
139 2846
139 2869
139 2936
139 2974
139 2975
139 2983
139 3038
139 3042
139 3053
139 3059
139 3060
139 3075
139 3077
139 3146
139 3175
139 3205
139 3216
139 3244
139 3264
139 3288
139 3343
139 3347
139 3423
139 3435
139 3440
139 3504
139 3526
139 3533
139 3536
139 3557
139 3565
139 3587
139 3643
139 3644
139 3694
139 3708
139 3726
139 3744
139 3760
139 3787
139 3794
139 3807
139 3808
139 3821
139 3848
139 3856
139 3869
139 3879
139 3902
139 3907
139 3933
139 3971
139 3972
139 3981
139 4026
139 4045
139 4063
139 4180
139 4206
139 4223
139 4238
139 4243
139 4270
139 4296
139 4298
139 4367
139 4374
139 4395
139 4462
139 4495
139 4518
139 4520
139 4553
139 4579
139 4671
139 4677
139 4707
139 4711
140 275
140 688
140 989
140 1117
140 1418
140 1467
140 1532
140 1757
140 2121
140 2489
140 3557
140 3746
140 4215
140 4418
140 4521
141 733
141 1674
141 2076
141 2514
141 2813
141 3042
141 3184
141 3208
141 3291
141 4001
142 1916
143 323
143 430
143 473
143 579
143 614
143 924
143 1026
143 1203
143 1274
143 1623
143 1653
143 1666
143 2225
143 2231
143 2252
143 2308
143 2338
143 2367
143 2407
143 2501
143 2505
143 2541
143 2579
143 2643
143 2702
143 2745
143 3146
143 3238
143 3281
143 3387
143 3579
143 3609
143 3791
143 4068
143 4339
143 4396
143 4410
143 4503
143 4534
144 1467
144 2489
145 420
145 1103
145 1456
145 2477
145 3515
145 4017
145 4462
146 989
146 2548
146 3184
146 3746
146 3783
147 312
147 790
147 964
147 1570
147 1671
147 2402
147 2963
147 3435
147 4082
147 4157
148 1476
149 716
149 1313
149 2430
149 3243
149 3989
150 2691
151 1413
151 2252
151 2643
151 2808
151 3579
152 250
152 1096
152 1114
152 1319
152 1331
152 1413
152 1801
152 2245
152 2643
152 3380
152 3526
152 3834
152 3972
152 4234
152 4327
152 4571
153 337
153 1007
153 1333
153 2304
153 2307
153 2543
153 3829
153 3958
153 4367
153 4711
154 853
154 998
154 1217
154 1671
154 1956
154 2022
154 2406
154 2862
154 3243
154 3779
154 3981
154 4259
154 4645
155 947
155 1077
155 1465
155 1611
155 2700
155 3395
155 3621
156 3042
157 938
157 2481
157 4350
158 997
158 3238
158 3582
159 3347
160 689
160 867
160 910
160 964
160 1280
160 1478
160 3738
160 3866
160 4035
160 4405
161 549
161 1104
161 1175
161 1301
161 1334
161 1509
161 1539
161 1581
161 2001
161 2212
161 2228
161 2267
161 2472
161 2498
161 2543
161 2709
161 2830
161 2887
161 2910
161 3111
161 3244
161 3245
161 3388
161 3633
161 3728
161 4001
161 4033
161 4040
161 4135
161 4171
161 4448
161 4483
161 4524
161 4671
162 211
162 919
162 1114
162 1334
162 1371
162 1618
162 2169
162 3093
162 3418
162 3519
162 3538
162 3590
162 4190
162 4448
163 446
163 620
163 1015
163 1368
163 2451
163 4418
164 171
164 231
164 309
164 343
164 575
164 628
164 692
164 721
164 790
164 821
164 867
164 868
164 940
164 964
164 1001
164 1197
164 1254
164 1323
164 1362
164 1448
164 1471
164 1531
164 1570
164 1608
164 1661
164 1671
164 1775
164 2092
164 2346
164 2370
164 2396
164 2402
164 2445
164 2556
164 2623
164 2732
164 2936
164 2963
164 2993
164 3038
164 3149
164 3156
164 3188
164 3708
164 3784
164 4117
164 4157
164 4532
164 4533
164 4620
164 4634
164 4663
165 723
165 2058
165 2931
165 3131
165 4177
166 561
166 638
166 2483
166 4023
166 4321
167 538
167 937
167 969
167 1006
167 1379
167 1575
167 2358
167 2477
167 3726
167 4061
167 4707
168 3420
169 1333
169 2122
169 2123
169 3579
170 567
170 586
170 741
170 1431
170 1468
170 1708
170 1855
170 1962
170 2075
170 2274
170 2451
170 2598
170 2652
170 2759
170 3042
170 3304
170 3504
170 3708
170 4374
170 4496
170 4516
171 206
171 231
171 235
171 253
171 254
171 343
171 344
171 346
171 354
171 446
171 476
171 528
171 586
171 628
171 711
171 741
171 747
171 779
171 856
171 881
171 905
171 940
171 979
171 986
171 996
171 1005
171 1011
171 1032
171 1066
171 1090
171 1103
171 1167
171 1202
171 1242
171 1259
171 1308
171 1321
171 1391
171 1396
171 1418
171 1481
171 1503
171 1524
171 1538
171 1565
171 1570
171 1575
171 1601
171 1610
171 1625
171 1656
171 1661
171 1693
171 1716
171 1936
171 1939
171 2129
171 2222
171 2246
171 2277
171 2298
171 2299
171 2300
171 2353
171 2379
171 2451
171 2488
171 2503
171 2514
171 2536
171 2543
171 2556
171 2589
171 2598
171 2599
171 2607
171 2619
171 2623
171 2678
171 2698
171 2719
171 2759
171 2974
171 3038
171 3040
171 3042
171 3065
171 3208
171 3221
171 3244
171 3261
171 3304
171 3395
171 3408
171 3428
171 3435
171 3438
171 3528
171 3551
171 3604
171 3626
171 3696
171 3726
171 3744
171 3784
171 3799
171 3808
171 3866
171 3868
171 3933
171 4001
171 4023
171 4045
171 4063
171 4103
171 4151
171 4178
171 4180
171 4202
171 4223
171 4270
171 4353
171 4367
171 4374
171 4406
171 4462
171 4489
171 4615
171 4647
171 4671
171 4683
171 4685
171 4703
171 4707
172 202
173 2167
173 4063
173 4539
174 586
174 1692
174 2119
174 2360
174 2555
174 2759
174 3935
174 4167
175 2052
176 591
176 684
176 781
176 827
176 975
176 1160
176 1338
176 1663
176 1828
176 1853
176 2363
176 2939
177 473
177 805
177 847
177 895
177 904
177 963
177 1334
177 1430
177 1524
177 1788
177 1831
177 1916
177 1937
177 1959
177 2165
177 2263
177 2298
177 2360
177 2623
177 2643
177 2645
177 2674
177 2740
177 2781
177 2826
177 2851
177 3085
177 3245
177 3341
177 3419
177 3472
177 3495
177 3508
177 3680
177 3726
177 3808
177 4001
177 4023
177 4056
177 4171
177 4185
177 4245
177 4320
177 4374
177 4410
177 4415
177 4428
177 4463
177 4544
177 4626
177 4675
178 4270
179 779
179 1295
179 1797
179 1843
179 1941
179 1962
179 2131
179 2227
179 2372
179 2779
179 2827
179 2962
179 3009
179 3059
179 3347
179 3971
179 4151
179 4395
179 4496
179 4671
180 575
180 711
180 856
180 866
180 886
180 889
180 894
180 1090
180 1481
180 1496
180 2244
180 2829
180 2869
180 4052
180 4206
180 4570
181 733
181 989
181 1109
181 1441
181 1910
181 2277
181 2489
181 3154
181 3612
181 3746
181 3783
181 4004
181 4201
181 4215
181 4442
181 4521
182 1313
182 1714
182 2764
182 2840
183 201
183 289
183 314
183 337
183 418
183 550
183 572
183 634
183 639
183 650
183 704
183 831
183 856
183 937
183 1097
183 1103
183 1151
183 1167
183 1186
183 1221
183 1227
183 1267
183 1280
183 1335
183 1374
183 1391
183 1431
183 1448
183 1456
183 1524
183 1570
183 1601
183 1735
183 1771
183 1776
183 1946
183 1976
183 1993
183 2059
183 2080
183 2088
183 2151
183 2171
183 2199
183 2304
183 2339
183 2350
183 2377
183 2477
183 2543
183 2552
183 2598
183 2623
183 2654
183 2679
183 2698
183 2740
183 2756
183 2759
183 2760
183 2780
183 2793
183 2827
183 2829
183 2857
183 2975
183 3035
183 3038
183 3042
183 3059
183 3075
183 3105
183 3175
183 3241
183 3244
183 3268
183 3270
183 3288
183 3347
183 3395
183 3413
183 3435
183 3484
183 3502
183 3509
183 3551
183 3565
183 3587
183 3624
183 3643
183 3694
183 3708
183 3753
183 3787
183 3807
183 3856
183 3972
183 4151
183 4180
183 4183
183 4206
183 4296
183 4303
183 4374
183 4395
183 4462
183 4514
183 4518
183 4548
183 4669
183 4671
183 4677
183 4685
183 4688
183 4707
183 4711
183 4714
184 418
184 489
184 709
184 818
184 1570
184 1704
184 1833
184 2059
184 2065
184 2155
184 3261
184 3435
184 3509
184 4017
184 4045
184 4554
184 4685
185 4396
186 631
186 905
186 982
186 1188
186 1638
186 2274
186 2471
186 2846
186 3059
186 3065
186 3098
186 4270
186 4707
187 1494
187 2905
187 3151
188 251
188 1606
188 2310
188 4406
188 4705
189 263
189 312
189 343
189 387
189 443
189 476
189 491
189 532
189 730
189 804
189 843
189 856
189 877
189 979
189 1016
189 1154
189 1269
189 1296
189 1353
189 1362
189 1391
189 1421
189 1516
189 1517
189 1562
189 1850
189 1937
189 2027
189 2053
189 2079
189 2106
189 2382
189 2556
189 2588
189 2714
189 2747
189 2769
189 2862
189 2879
189 3053
189 3085
189 3178
189 3365
189 3418
189 3495
189 3508
189 3757
189 3766
189 3858
189 4001
189 4140
189 4271
189 4333
189 4367
189 4408
189 4415
189 4453
189 4464
190 1843
190 2975
190 3175
190 3347
190 4022
190 4395
190 4495
190 4685
191 2146
191 2439
191 2814
191 3445
191 4045
191 4161
191 4462
192 2374
192 2953
192 3356
192 3422
192 3564
192 4091
193 361
193 829
193 1041
193 1151
193 1428
193 1688
193 1755
193 2135
193 2226
193 2477
193 2512
193 2866
193 3288
193 4011
193 4321
193 4650
194 2698
195 2489
196 337
196 1295
196 1661
196 1681
196 1883
196 2400
196 2451
196 2516
196 3042
196 3149
196 3205
196 3435
196 3446
196 3522
196 3869
196 4050
196 4413
196 4507
196 4646
196 4677
196 4707
197 2565
198 199
198 342
198 685
198 713
198 1091
198 1413
198 1421
198 1827
198 2224
198 2252
198 2264
198 3031
198 3085
198 3088
198 3203
198 3251
198 3493
198 3729
198 4140
198 4309
199 425
199 954
199 1273
199 1567
199 2264
199 3031
199 3088
199 3203
199 3419
199 3493
199 3579
200 2316
200 3928
201 364
201 476
201 856
201 1054
201 1224
201 1503
201 1527
201 1669
201 1844
201 1955
201 2277
201 2573
201 2648
201 2693
201 3233
201 3436
201 3595
201 3626
201 3714
201 4034
201 4202
201 4270
201 4373
201 4514
201 4519
202 3610
202 4001
203 1326
203 1492
203 1692
203 4167
204 206
204 217
204 364
204 379
204 681
204 705
204 766
204 900
204 970
204 1054
204 1100
204 1267
204 1391
204 1527
204 1638
204 1661
204 1820
204 1955
204 1980
204 2039
204 2114
204 2156
204 2185
204 2210
204 2310
204 2322
204 2445
204 2503
204 2511
204 2516
204 2573
204 2654
204 2712
204 2896
204 3149
204 3233
204 3293
204 3408
204 3414
204 3436
204 3542
204 3726
204 3823
204 3830
204 3869
204 4045
204 4103
204 4462
204 4520
205 1107
205 2027
205 2252
205 3622
205 3848
206 420
206 528
206 592
206 640
206 711
206 768
206 920
206 996
206 1090
206 1100
206 1150
206 1224
206 1503
206 1526
206 1570
206 1656
206 1718
206 1770
206 2135
206 2256
206 2377
206 2607
206 2648
206 2829
206 3059
206 3065
206 3127
206 3155
206 3293
206 3363
206 3414
206 3468
206 3533
206 3588
206 3726
206 3772
206 3783
206 3805
206 3810
206 3843
206 3971
206 4067
206 4178
206 4198
206 4202
206 4206
206 4387
206 4566
206 4591
206 4625
206 4653
206 4685
206 4706
207 3420
208 812
208 2627
208 3961
209 2027
209 3085
209 3574
210 766
210 986
210 1167
210 1688
210 2937
210 4650
211 3519
212 415
212 1323
212 2093
212 2192
212 3042
212 4560
213 4316
214 523
214 4356
215 1781
215 2250
216 2614
216 2990
216 3146
216 3163
216 4127
216 4390
216 4538
217 466
217 620
217 680
217 746
217 793
217 828
217 1005
217 1053
217 1151
217 1240
217 1295
217 1538
217 1820
217 1902
217 1980
217 2103
217 2167
217 2210
217 2239
217 2322
217 2390
217 2516
217 2693
217 2712
217 2760
217 3149
217 3217
217 3267
217 3338
217 3425
217 3438
217 3542
217 3808
217 3899
217 4045
217 4063
217 4251
217 4470
217 4519
217 4658
217 4698
218 3915
219 1916
219 2057
220 1104
220 1309
220 4023
221 291
221 316
221 432
221 545
221 549
221 576
221 597
221 643
221 672
221 723
221 727
221 733
221 745
221 779
221 785
221 789
221 802
221 972
221 979
221 1031
221 1036
221 1073
221 1114
221 1175
221 1283
221 1419
221 1421
221 1466
221 1509
221 1562
221 1581
221 1584
221 1623
221 1661
221 1717
221 1759
221 1798
221 1825
221 1834
221 1870
221 1880
221 1936
221 1937
221 1950
221 2027
221 2075
221 2087
221 2122
221 2200
221 2252
221 2302
221 2382
221 2451
221 2466
221 2543
221 2556
221 2643
221 2677
221 2717
221 2808
221 2826
221 2832
221 2882
221 3009
221 3032
221 3057
221 3085
221 3093
221 3114
221 3131
221 3205
221 3244
221 3341
221 3430
221 3532
221 3579
221 3657
221 3766
221 3829
221 4001
221 4177
221 4276
221 4282
221 4408
221 4415
221 4428
221 4503
221 4532
221 4551
221 4572
221 4663
221 4669
221 4671
222 893
222 3614
223 768
223 1120
223 4685
224 627
224 1186
224 1267
224 3435
225 517
225 825
225 979
225 986
225 1091
225 1301
225 1507
225 1985
225 2224
225 2300
225 2946
225 2974
225 3622
225 3704
225 3826
225 3909
225 4000
225 4001
225 4161
225 4456
226 4659
227 2890
228 598
228 1524
228 2088
228 2350
228 2623
228 2759
228 2969
228 3042
228 3060
228 3708
228 3787
228 3848
229 3348
230 248
230 312
230 545
230 594
230 597
230 1017
230 2027
230 2287
230 3311
230 3601
230 3895
230 3960
230 4606
230 4646
231 309
231 343
231 385
231 598
231 628
231 721
231 740
231 790
231 799
231 940
231 964
231 979
231 1254
231 1471
231 1608
231 1661
231 1775
231 2092
231 2313
231 2346
231 2370
231 2451
231 2556
231 2623
231 3085
231 3188
231 3267
231 3311
231 3726
231 3781
231 3799
231 3921
231 4001
231 4023
231 4082
231 4140
231 4157
231 4620
231 4707
232 3263
233 805
233 3012
233 3495
233 3895
233 3960
234 342
234 494
234 979
234 1121
234 1331
234 1755
234 1769
234 3478
234 3499
234 3729
234 4134
234 4136
234 4534
234 4577
236 418
236 880
236 1127
236 1460
236 1623
236 1834
236 3397
236 4571
237 940
237 2166
237 4694
238 1374
238 2550
238 3981
239 1935
241 2770
241 2848
241 4001
242 571
242 1539
242 1579
242 4040
243 2814
244 565
244 1134
245 1024
245 1188
245 1356
245 1898
245 2059
245 2543
245 2972
245 3281
245 3378
245 4061
245 4439
245 4677
245 4695
246 350
246 363
246 390
246 448
246 528
246 681
246 759
246 1426
246 1524
246 2014
246 2263
246 2276
246 2679
246 2710
246 2802
246 2860
246 3255
246 3338
246 3540
246 3958
246 4001
246 4180
246 4395
246 4462
246 4671
246 4685
246 4707
247 1323
247 3607
248 2145
248 2930
248 3601
248 4415
248 4646
248 4705
249 711
249 889
249 894
249 1090
249 2173
249 2556
249 3188
249 3428
250 631
250 731
250 1047
250 1175
250 1318
250 1562
250 2097
250 2245
250 2643
250 3085
250 3478
250 3579
250 4136
250 4534
250 4577
250 4616
251 265
251 337
251 388
251 418
251 442
251 511
251 574
251 586
251 628
251 733
251 818
251 854
251 856
251 932
251 940
251 1003
251 1005
251 1112
251 1283
251 1286
251 1312
251 1323
251 1335
251 1437
251 1570
251 1575
251 1682
251 1708
251 1712
251 1815
251 1818
251 1866
251 1891
251 2059
251 2115
251 2195
251 2299
251 2304
251 2359
251 2394
251 2408
251 2450
251 2477
251 2503
251 2543
251 2589
251 2623
251 2703
251 2710
251 2857
251 2962
251 3009
251 3035
251 3059
251 3105
251 3126
251 3145
251 3221
251 3268
251 3288
251 3342
251 3435
251 3465
251 3480
251 3563
251 3674
251 3722
251 3723
251 3744
251 3808
251 3829
251 3856
251 3893
251 3946
251 3972
251 4040
251 4045
251 4118
251 4161
251 4180
251 4270
251 4336
251 4367
251 4406
251 4462
251 4520
251 4542
251 4642
251 4677
251 4685
251 4697
251 4707
251 4711
252 598
252 673
252 933
252 1091
252 1114
252 1413
252 1626
252 2224
252 2252
252 2300
252 2543
252 2643
252 3388
252 3582
252 3590
252 3680
252 3996
252 4001
252 4571
252 4654
252 4707
253 575
253 793
253 1610
253 2719
253 2738
253 2801
253 3267
253 3408
253 4063
253 4103
254 759
254 779
254 856
254 1005
254 1066
254 1124
254 1151
254 1164
254 1354
254 1359
254 1391
254 1396
254 1442
254 1448
254 1570
254 1601
254 1625
254 1741
254 1976
254 2135
254 2199
254 2377
254 2698
254 2710
254 2937
254 2948
254 3042
254 3244
254 3303
254 3347
254 3533
254 3551
254 3565
254 3726
254 3783
254 3810
254 4161
254 4332
254 4333
254 4395
254 4406
254 4548
254 4588
254 4685
254 4689
254 4706
255 607
255 1142
255 1344
255 1419
255 2104
255 2595
255 3290
255 3339
255 3598
255 4085
255 4282
256 2829
257 1024
258 1175
258 4001
259 2001
259 2887
260 350
260 508
260 689
260 1478
260 1570
260 2268
260 3642
260 4180
261 677
261 2423
261 4023
262 360
262 2350
262 2813
262 3149
262 3694
262 3744
262 3808
262 3867
263 733
263 964
263 968
263 1167
263 1396
263 1570
263 2222
263 2683
263 3249
263 3818
263 4001
264 4372
265 309
265 337
265 624
265 631
265 643
265 701
265 733
265 779
265 818
265 849
265 865
265 940
265 964
265 1103
265 1283
265 1295
265 1302
265 1333
265 1456
265 1477
265 1524
265 1544
265 1570
265 1584
265 1601
265 1661
265 1712
265 1826
265 1941
265 2075
265 2115
265 2131
265 2188
265 2201
265 2304
265 2313
265 2350
265 2379
265 2398
265 2489
265 2519
265 2543
265 2698
265 2756
265 2759
265 2827
265 3009
265 3042
265 3043
265 3059
265 3100
265 3268
265 3291
265 3347
265 3356
265 3435
265 3532
265 3555
265 3616
265 3620
265 3682
265 3688
265 3726
265 3744
265 3747
265 3829
265 3856
265 3907
265 3971
265 3979
265 4001
265 4151
265 4183
265 4246
265 4270
265 4299
265 4367
265 4395
265 4408
265 4528
265 4605
265 4663
265 4671
265 4677
265 4701
265 4707
265 4711
266 1521
266 3085
266 3428
266 4001
267 341
267 2155
267 2365
267 2434
267 2612
267 3563
267 3600
267 3949
267 4615
267 4671
268 3286
269 1490
270 342
270 1175
270 1732
270 2643
270 3085
270 3532
271 306
271 949
271 975
271 1134
271 1878
271 1895
271 1943
271 2089
271 2565
271 2829
271 3701
271 3984
271 4590
272 3879
273 1017
273 1681
273 2598
273 2654
273 2698
273 3059
273 3460
274 1920
275 312
275 448
275 1418
275 1467
275 1532
275 1541
275 1640
275 1865
275 1883
275 1942
275 2190
275 2556
275 2721
275 3272
275 3311
275 3557
275 3761
275 3781
275 4080
277 1309
277 3630
277 4680
278 2390
278 2543
278 2607
278 2936
278 3149
278 3347
278 3540
279 470
279 1281
279 1358
279 1637
279 1858
279 2063
279 2379
279 2591
279 2887
279 3276
279 4552
280 345
280 812
280 1487
280 2895
281 776
281 3851
282 430
282 559
282 586
282 631
282 741
282 1005
282 1007
282 1103
282 1323
282 1585
282 2059
282 2075
282 2088
282 2275
282 2304
282 2543
282 2598
282 2623
282 2698
282 2759
282 2827
282 2974
282 2978
282 3012
282 3042
282 3226
282 3268
282 3504
282 3744
282 4395
282 4707
283 476
283 1051
283 1167
283 1743
283 1865
283 2098
283 2543
283 2714
283 3093
283 3490
283 4001
283 4058
284 2468
284 2691
284 4676
285 3945
286 2339
287 1883
287 3074
288 1056
288 2409
288 2943
288 4043
289 405
289 586
289 631
289 741
289 775
289 1308
289 1431
289 1578
289 1708
289 2075
289 2088
289 2300
289 2652
289 2698
289 3042
289 3347
289 3504
289 4395
290 2040
291 482
291 741
291 850
291 979
291 1070
291 1142
291 1179
291 1216
291 1301
291 1444
291 1509
291 1513
291 1595
291 1678
291 1692
291 1707
291 1850
291 2027
291 2623
291 2643
291 2660
291 2684
291 2950
291 3093
291 3220
291 3346
291 3507
291 3532
291 3544
291 3552
291 3725
291 3833
291 4001
291 4105
291 4408
291 4415
291 4438
291 4544
291 4592
292 860
292 986
292 3244
292 3610
293 440
293 951
293 1442
293 2396
293 2463
293 3034
293 3221
293 3950
293 4412
294 2475
294 2966
295 1279
295 3435
295 3946
295 4212
295 4336
296 2095
296 2573
297 350
297 508
297 628
297 689
297 809
297 1936
297 2158
297 2190
297 2556
297 2623
297 2936
297 2993
297 3097
297 3250
297 3626
297 4161
297 4242
297 4634
297 4707
298 314
299 748
299 1031
299 1159
299 1357
299 1413
299 1564
299 1595
299 1834
299 1997
299 2252
299 2418
299 2967
299 3085
299 3442
299 4330
299 4450
299 4641
300 1666
301 619
301 1404
301 2183
301 2298
301 3164
301 3383
301 3880
302 312
302 1391
302 1926
302 2445
302 3830
302 4214
302 4415
303 515
303 549
303 1086
303 1298
303 1323
303 1704
303 1744
303 2088
303 2477
303 2623
303 3059
303 3216
303 3607
303 3787
303 4045
303 4082
303 4518
304 903
304 2148
304 2966
304 4011
304 4172
304 4546
305 379
305 1236
305 1575
305 2039
305 2223
305 2834
305 3429
305 3675
306 330
306 477
306 531
306 565
306 591
306 618
306 949
306 975
306 1261
306 1291
306 1685
306 1943
306 2010
306 2089
306 2415
306 3318
306 3464
306 3815
306 3984
306 4447
306 4590
307 586
307 905
307 1758
307 2075
307 3347
307 3504
307 3834
307 4576
308 749
308 1759
308 2643
309 443
309 628
309 745
309 913
309 1154
309 1223
309 1347
309 1471
309 1651
309 1775
309 2092
309 2123
309 2158
309 2346
309 2556
309 2623
309 2707
309 2993
309 3085
309 3430
309 3442
309 3766
309 3921
309 4001
309 4101
309 4117
309 4140
309 4408
309 4534
309 4620
309 4671
310 945
310 1301
310 1581
310 1759
310 1834
310 2280
310 3680
310 4245
310 4410
310 4415
311 1436
312 337
312 350
312 572
312 650
312 689
312 867
312 912
312 915
312 940
312 973
312 998
312 1103
312 1186
312 1199
312 1213
312 1240
312 1570
312 1575
312 1606
312 1640
312 1671
312 1815
312 1818
312 2268
312 2277
312 2402
312 2451
312 2543
312 2623
312 2794
312 3085
312 3105
312 3175
312 3244
312 3288
312 3305
312 3347
312 3438
312 3480
312 3542
312 3557
312 3561
312 3626
312 3642
312 3726
312 3744
312 3785
312 3799
312 3808
312 3966
312 3969
312 4197
312 4270
312 4395
312 4418
312 4462
312 4620
312 4634
312 4705
312 4707
313 628
313 1182
313 1282
313 1733
314 639
314 759
314 797
314 1054
314 1151
314 1236
314 1267
314 1276
314 1902
314 1953
314 2114
314 2156
314 2199
314 2654
314 2693
314 2734
314 3155
314 3565
314 4178
314 4519
314 4564
315 820
315 1398
315 1563
315 1735
315 2877
315 4549
316 785
316 972
316 979
316 1175
316 1759
316 2350
316 2808
316 4294
316 4572
317 448
317 1478
317 2794
317 3591
317 4603
318 628
318 986
318 2061
318 2203
318 2430
318 3482
318 3697
318 3981
318 4527
319 1665
320 1784
320 1891
320 2141
320 2451
320 2569
320 2586
320 3155
320 3460
320 3599
321 723
321 1175
321 1881
321 2643
322 4652
323 342
323 1031
323 1091
323 1096
323 1114
323 1303
323 1490
323 1595
323 1626
323 2002
323 2224
323 2252
323 2300
323 2445
323 2887
323 3063
323 3085
323 3281
323 3320
323 3419
323 3500
323 3526
323 3590
323 3645
323 4001
323 4048
323 4171
323 4654
323 4677
324 4626
325 510
325 1004
325 1214
325 2178
325 2414
325 2596
326 3994
327 3076
328 1763
328 2620
328 4374
329 1222
329 2832
329 3945
330 477
330 516
330 618
330 949
330 975
330 1261
330 1291
330 1685
330 1943
330 2010
330 2089
330 3318
330 3464
330 3815
330 3984
330 4447
330 4590
331 382
331 440
331 681
331 706
331 741
331 779
331 856
331 1036
331 1082
331 1323
331 1524
331 1570
331 1601
331 1700
331 1749
331 1813
331 1866
331 1895
331 1902
331 2103
331 2379
331 2471
331 2623
331 2759
331 2846
331 3042
331 3399
331 3674
331 3744
331 3826
331 4151
331 4180
331 4270
331 4395
331 4462
331 4623
331 4705
332 3386
332 3856
333 4001
334 2896
335 409
335 545
335 579
335 615
335 776
335 811
335 877
335 929
335 1107
335 1324
335 1595
335 1717
335 1735
335 1998
335 2225
335 2280
335 2640
335 2643
335 2645
335 2674
335 2696
335 2826
335 3085
335 3130
335 3151
335 3244
335 3292
335 3418
335 3467
335 3708
335 3909
335 3953
335 3961
335 4001
335 4046
335 4173
335 4214
335 4248
335 4320
335 4356
335 4410
335 4415
335 4606
335 4674
336 729
336 909
336 1575
336 2645
336 4033
336 4045
337 489
337 572
337 574
337 608
337 672
337 701
337 709
337 776
337 856
337 1092
337 1103
337 1151
337 1186
337 1196
337 1221
337 1283
337 1323
337 1441
337 1442
337 1456
337 1477
337 1539
337 1570
337 1735
337 1843
337 1860
337 1901
337 1976
337 2065
337 2088
337 2093
337 2095
337 2151
337 2199
337 2217
337 2259
337 2304
337 2350
337 2377
337 2379
337 2400
337 2451
337 2543
337 2584
337 2598
337 2623
337 2696
337 2698
337 2740
337 2780
337 2859
337 2879
337 2887
337 2962
337 2987
337 3006
337 3042
337 3059
337 3072
337 3105
337 3175
337 3240
337 3244
337 3268
337 3347
337 3480
337 3509
337 3515
337 3599
337 3633
337 3694
337 3696
337 3744
337 3848
337 3888
337 4001
337 4017
337 4045
337 4296
337 4395
337 4462
337 4489
337 4518
337 4560
337 4613
337 4669
337 4671
337 4677
337 4685
337 4707
337 4711
338 444
338 733
338 979
338 1090
338 1441
338 1467
338 1524
338 1532
338 1545
338 2379
338 3042
338 3085
338 3339
338 3428
339 560
340 2643
341 528
341 710
341 1524
341 2155
341 2611
341 2612
341 3949
341 4180
341 4182
341 4615
341 4671
342 351
342 409
342 435
342 449
342 462
342 648
342 672
342 687
342 723
342 725
342 745
342 749
342 789
342 833
342 899
342 904
342 963
342 1031
342 1159
342 1161
342 1175
342 1182
342 1189
342 1210
342 1250
342 1255
342 1264
342 1287
342 1288
342 1320
342 1331
342 1334
342 1335
342 1392
342 1434
342 1455
342 1460
342 1490
342 1505
342 1540
342 1564
342 1567
342 1575
342 1595
342 1600
342 1623
342 1644
342 1650
342 1666
342 1677
342 1749
342 1759
342 1768
342 1785
342 1793
342 1796
342 1827
342 1886
342 1959
342 2002
342 2005
342 2068
342 2087
342 2101
342 2231
342 2252
342 2255
342 2386
342 2393
342 2421
342 2457
342 2501
342 2543
342 2567
342 2623
342 2624
342 2643
342 2644
342 2645
342 2661
342 2702
342 2710
342 2728
342 2732
342 2746
342 2777
342 2786
342 2796
342 2847
342 2889
342 2911
342 2978
342 3010
342 3036
342 3039
342 3085
342 3088
342 3093
342 3126
342 3137
342 3151
342 3160
342 3170
342 3203
342 3295
342 3326
342 3329
342 3341
342 3358
342 3387
342 3388
342 3403
342 3435
342 3488
342 3532
342 3552
342 3571
342 3579
342 3594
342 3673
342 3677
342 3680
342 3790
342 3825
342 3832
342 3913
342 3925
342 3940
342 4001
342 4011
342 4024
342 4068
342 4161
342 4213
342 4229
342 4276
342 4308
342 4320
342 4330
342 4339
342 4355
342 4382
342 4396
342 4410
342 4415
342 4431
342 4459
342 4463
342 4465
342 4467
342 4471
342 4476
342 4487
342 4493
342 4510
342 4513
342 4531
342 4551
342 4615
342 4626
342 4641
342 4671
342 4673
342 4682
343 444
343 576
343 1242
343 1254
343 1570
343 1775
343 2556
343 3365
343 3784
343 4117
344 358
344 446
344 466
344 679
344 973
344 1168
344 1818
344 1957
344 2470
344 2486
344 2589
344 2996
344 3416
344 3726
344 4063
344 4192
344 4237
345 2659
345 4176
346 476
346 524
346 528
346 639
346 711
346 825
346 856
346 940
346 1011
346 1066
346 1280
346 1296
346 1304
346 1544
346 1570
346 1693
346 1743
346 1815
346 1911
346 1976
346 2160
346 2188
346 2516
346 2698
346 2780
346 2882
346 2931
346 3042
346 3080
346 3244
346 3347
346 3418
346 3565
346 3705
346 3718
346 3726
346 3818
346 3873
346 3879
346 3933
346 3972
346 4001
346 4206
346 4258
346 4259
346 4280
346 4296
346 4367
346 4413
346 4520
346 4622
346 4669
346 4683
347 459
347 979
347 1480
347 3014
347 3369
347 3702
347 4420
347 4618
348 1215
349 507
349 1320
349 2040
349 2224
349 2986
349 3590
349 4449
350 458
350 508
350 628
350 663
350 689
350 733
350 790
350 813
350 940
350 986
350 989
350 1115
350 1199
350 1347
350 1467
350 1484
350 1532
350 1553
350 1554
350 1570
350 1646
350 1661
350 1883
350 1910
350 1936
350 2113
350 2121
350 2158
350 2313
350 2451
350 2454
350 2495
350 2556
350 2617
350 2734
350 2741
350 2861
350 2875
350 2983
350 3029
350 3060
350 3067
350 3155
350 3296
350 3305
350 3311
350 3322
350 3557
350 3626
350 3726
350 3746
350 3783
350 3799
350 3845
350 4143
350 4151
350 4201
350 4220
350 4243
350 4270
350 4313
350 4371
350 4418
350 4462
350 4573
350 4593
350 4622
350 4685
350 4686
350 4707
351 648
351 905
351 936
351 990
351 998
351 1367
351 1413
351 1421
351 1575
351 1595
351 1637
351 1780
351 1848
351 2035
351 2098
351 2252
351 2518
351 2644
351 2707
351 3028
351 3063
351 3085
351 3107
351 3247
351 3371
351 3726
351 3729
351 3756
351 3791
351 4001
351 4023
351 4234
351 4248
351 4431
351 4483
351 4571
352 521
352 3744
352 3808
352 3823
353 910
353 964
353 1005
353 1575
353 1580
353 2074
353 2098
353 2125
353 2300
353 2339
353 2477
353 2623
353 3032
353 3093
353 3249
353 3551
353 3582
353 3738
353 3807
353 3972
353 4180
353 4271
353 4395
353 4505
355 515
355 1005
355 1545
355 1575
355 1594
355 2190
355 2879
355 3542
355 3902
356 560
357 1962
357 2203
357 3274
357 4615
358 844
358 973
358 1590
358 1962
358 2077
358 2996
358 4023
358 4270
358 4603
359 3149
360 586
360 2379
360 2623
360 2761
360 3744
360 3808
361 636
361 986
361 2309
361 2500
362 604
362 618
362 3318
362 3464
362 3916
362 4590
363 817
363 1524
363 2543
363 2814
363 3766
363 3835
363 4045
363 4180
364 380
364 500
364 640
364 681
364 683
364 700
364 726
364 759
364 760
364 900
364 1042
364 1054
364 1100
364 1117
364 1119
364 1267
364 1363
364 1426
364 1527
364 1601
364 1656
364 1747
364 1770
364 1883
364 1891
364 1936
364 1955
364 2039
364 2080
364 2103
364 2114
364 2322
364 2377
364 2573
364 2586
364 2589
364 2607
364 2623
364 2648
364 2693
364 2708
364 2813
364 2817
364 2829
364 2998
364 3019
364 3127
364 3155
364 3293
364 3414
364 3429
364 3512
364 3588
364 3714
364 3726
364 3869
364 3907
364 3965
364 4045
364 4062
364 4067
364 4178
364 4251
364 4564
364 4588
364 4637
364 4653
364 4685
365 1318
366 818
366 1005
366 1083
366 1286
366 1611
366 1741
366 1768
366 1815
366 1833
366 1970
366 2093
366 2115
366 2173
366 2195
366 2343
366 2434
366 2451
366 2543
366 2934
366 3105
366 3126
366 3435
366 3465
366 3480
366 3563
366 3620
366 3755
366 3946
366 4198
366 4212
366 4406
366 4615
366 4671
366 4677
366 4685
366 4705
367 1103
367 2058
367 2880
367 3565
367 4560
368 1139
368 2476
369 1084
369 1255
369 1453
369 1613
369 4023
369 4078
369 4321
370 951
370 4280
371 424
371 544
371 605
371 948
371 986
371 1135
371 1177
371 1191
371 1273
371 1365
371 1387
371 1547
371 2002
371 2294
371 2686
371 2757
371 2894
371 3061
371 3645
371 3684
371 3906
371 4001
371 4146
371 4659
372 1186
372 1414
372 1610
372 2167
372 2239
372 2310
372 3155
372 4063
372 4272
372 4409
372 4418
372 4681
373 1005
373 1183
373 2082
373 3277
373 3542
374 672
374 1430
374 2709
374 3388
374 3394
374 3917
374 4483
375 4333
376 2662
377 1010
377 1092
377 1817
377 2266
377 3746
377 3783
377 4198
377 4201
377 4671
378 3546
379 380
379 401
379 681
379 839
379 1042
379 1054
379 1151
379 1236
379 1426
379 1450
379 1601
379 1656
379 1747
379 1770
379 1891
379 1955
379 1972
379 2039
379 2114
379 2150
379 2156
379 2210
379 2313
379 2451
379 2547
379 2573
379 2578
379 2586
379 2648
379 2664
379 2693
379 2817
379 2834
379 2997
379 3038
379 3043
379 3059
379 3127
379 3155
379 3183
379 3285
379 3363
379 3714
379 3805
379 3820
379 3823
379 3907
379 4178
379 4270
379 4519
379 4698
380 401
380 681
380 700
380 815
380 900
380 1150
380 1236
380 1267
380 1575
380 1813
380 1844
380 1891
380 1955
380 2039
380 2114
380 2150
380 2156
380 2516
380 2536
380 2543
380 2607
380 2648
380 2654
380 2664
380 2834
380 2855
380 3019
380 3059
380 3127
380 3155
380 3363
380 3616
380 3714
380 3805
380 3823
380 4062
380 4096
380 4653
380 4708
381 452
381 683
381 1503
381 4067
382 1601
383 3892
384 2366
384 3420
384 3501
385 498
385 540
385 550
385 570
385 1061
385 1096
385 1114
385 1186
385 1323
385 1445
385 1448
385 1477
385 1776
385 2591
385 3379
385 3451
385 3722
385 3766
385 3834
385 4001
385 4011
385 4069
385 4107
385 4157
385 4351
385 4627
385 4707
386 1690
386 2623
386 4702
387 2811
388 515
388 586
388 1209
388 1361
388 1442
388 1524
388 1708
388 2274
388 2379
388 2456
388 3012
388 3042
388 3254
388 3403
388 3704
388 3826
388 3835
388 3895
388 3923
388 4045
388 4056
388 4209
388 4238
388 4270
388 4559
389 2933
390 413
390 681
390 817
390 1299
390 1391
390 1426
390 1656
390 1868
390 1955
390 2013
390 2855
390 3065
390 3712
390 3875
390 3997
391 4115
391 4217
392 573
392 1240
392 1601
392 2229
392 2390
392 2516
392 2741
392 4063
392 4685
393 3736
394 1114
394 1421
394 2098
394 3085
394 3365
394 3766
395 2669
395 4575
395 4661
396 811
397 1883
398 1539
399 3263
400 2182
401 681
401 1333
401 1393
401 1448
401 1674
401 1762
401 1897
401 1955
401 1972
401 1976
401 2114
401 2150
401 2223
401 2246
401 2288
401 2305
401 2451
401 2503
401 2536
401 2578
401 2623
401 2648
401 2693
401 2722
401 2974
401 3127
401 3155
401 3183
401 3208
401 3285
401 3347
401 3363
401 3972
401 4178
401 4376
401 4519
402 3516
402 4018
403 583
404 672
404 856
404 986
404 2199
404 3780
404 4045
404 4367
404 4464
404 4468
405 1562
405 1585
405 2382
406 856
407 663
407 746
407 987
407 1053
407 1109
407 1553
407 1554
407 2067
407 2121
407 2800
407 2861
407 3746
407 3869
407 4143
407 4201
407 4418
407 4593
407 4622
408 1524
408 2942
408 3378
408 4677
409 598
409 763
409 784
409 904
409 979
409 1091
409 1096
409 1301
409 1334
409 1413
409 1985
409 2027
409 2063
409 2224
409 2252
409 2407
409 2550
409 2832
409 2846
409 3063
409 3085
409 3582
409 3625
409 3729
409 3791
409 4001
409 4054
409 4171
409 4234
409 4294
409 4404
409 4410
409 4483
409 4511
409 4615
409 4654
410 430
410 475
411 2002
412 476
412 818
412 1057
412 1517
412 2079
412 2104
412 2302
412 2434
412 2811
412 2862
412 2880
412 2931
412 3514
412 3532
412 3592
412 3657
412 3705
412 3715
412 3858
412 3933
412 4333
412 4367
412 4453
412 4615
413 817
413 3299
413 4490
414 501
414 628
414 730
414 1391
414 1674
414 1955
414 2340
414 3600
414 4171
414 4671
415 528
415 628
415 737
415 937
415 960
415 972
415 985
415 1010
415 1103
415 1186
415 1391
415 1453
415 1524
415 1570
415 1575
415 1628
415 1843
415 2093
415 2199
415 2244
415 2347
415 2350
415 2434
415 2453
415 2477
415 2543
415 2552
415 2962
415 3015
415 3042
415 3059
415 3152
415 3435
415 3726
415 3808
415 3856
415 3891
415 3971
415 4151
415 4249
415 4270
415 4361
415 4462
415 4615
415 4671
415 4685
415 4707
416 628
416 3347
417 1697
417 2000
417 2692
417 3180
417 3206
417 3829
417 3978
417 4045
417 4571
417 4666
418 586
418 631
418 880
418 1127
418 1186
418 1362
418 1462
418 1498
418 2040
418 2379
418 2698
418 3042
418 3268
418 3347
418 3435
418 3504
418 3834
418 3997
418 4210
418 4395
419 777
419 1940
419 2759
419 2760
419 3042
419 3166
419 3808
419 4010
420 489
420 572
420 940
420 1005
420 1092
420 1103
420 1196
420 1354
420 1442
420 1524
420 1601
420 1708
420 1744
420 1939
420 1946
420 2065
420 2093
420 2135
420 2139
420 2379
420 2451
420 2552
420 2601
420 2679
420 2696
420 2779
420 2859
420 3059
420 3210
420 3216
420 3288
420 3515
420 3522
420 3726
420 3787
420 3808
420 3902
420 4198
420 4206
420 4307
420 4540
420 4560
420 4625
420 4689
421 2313
422 903
422 1303
422 2887
422 4483
423 1114
423 1666
423 4140
423 4329
423 4673
424 544
424 605
424 948
424 981
424 1072
424 1177
424 1191
424 1365
424 1547
424 2002
424 2023
424 2294
424 2686
424 2757
424 2894
424 3061
424 3538
424 3645
424 3684
424 3906
424 3995
424 4146
424 4510
424 4659
424 4674
425 3031
425 3088
426 644
426 1379
426 1895
426 2063
426 2148
426 2830
426 3828
427 928
427 2417
428 4652
429 1023
429 1101
429 1102
429 1170
429 1522
429 1632
429 2208
429 2467
429 3123
429 3568
429 3665
429 3886
430 475
430 766
430 909
430 1031
430 1096
430 1167
430 1175
430 1323
430 1413
430 1421
430 1595
430 1638
430 1738
430 1937
430 1959
430 1977
430 1985
430 1994
430 2068
430 2098
430 2225
430 2252
430 2272
430 2300
430 2401
430 2941
430 2978
430 3039
430 3055
430 3063
430 3085
430 3263
430 3283
430 3333
430 3419
430 3729
430 3756
430 3834
430 3940
430 4023
430 4234
430 4294
430 4316
430 4318
430 4483
430 4493
430 4568
430 4571
430 4616
431 586
431 631
431 1005
431 1323
431 1335
431 1893
431 2075
431 3042
431 3584
431 3791
431 3848
431 3856
432 821
432 964
432 1167
432 1303
432 1381
432 2038
432 2079
432 2161
432 2300
432 3032
432 3036
432 3110
432 3222
433 1007
433 4571
434 2365
434 2503
434 4376
435 731
435 749
435 904
435 979
435 1091
435 1265
435 1301
435 1334
435 1413
435 1421
435 1459
435 1595
435 1759
435 1843
435 2016
435 2027
435 2035
435 2063
435 2252
435 2302
435 2344
435 2717
435 2777
435 2786
435 3016
435 3032
435 3042
435 3063
435 3263
435 3470
435 3475
435 3834
435 4068
435 4140
435 4142
435 4234
435 4410
435 4516
435 4571
436 481
436 825
436 939
436 979
436 1091
436 1096
436 1700
436 2747
436 3826
436 3923
436 3961
436 4001
436 4140
436 4238
436 4456
436 4462
436 4531
437 468
437 736
437 855
437 1524
437 1815
437 3165
437 3216
437 3496
437 4180
437 4557
437 4595
437 4707
438 937
439 2121
439 3042
439 3102
439 3155
439 3746
439 4417
439 4663
440 1442
440 1524
440 1565
440 1691
440 1797
440 2388
440 3034
440 3304
440 3432
440 3866
441 3593
442 571
442 892
442 1584
442 2304
442 2872
442 4367
443 1362
443 1421
443 1471
443 1608
443 1864
443 2556
443 2618
443 2714
443 3085
443 3315
443 3425
443 4001
443 4138
443 4620
444 515
444 532
444 553
444 586
444 639
444 776
444 825
444 856
444 901
444 979
444 1007
444 1019
444 1103
444 1151
444 1244
444 1308
444 1312
444 1323
444 1448
444 1570
444 1572
444 1681
444 1697
444 1857
444 2058
444 2065
444 2079
444 2088
444 2149
444 2188
444 2199
444 2254
444 2304
444 2350
444 2379
444 2471
444 2477
444 2516
444 2543
444 2560
444 2589
444 2623
444 2654
444 2679
444 2698
444 2759
444 2857
444 2944
444 2974
444 3042
444 3065
444 3075
444 3206
444 3268
444 3288
444 3347
444 3395
444 3405
444 3418
444 3504
444 3536
444 3565
444 3633
444 3642
444 3732
444 3744
444 3829
444 3960
444 3972
444 4270
444 4296
444 4365
444 4367
444 4395
444 4462
444 4520
444 4560
444 4677
445 553
446 460
446 575
446 592
446 679
446 790
446 886
446 973
446 1090
446 1155
446 1418
446 1452
446 1508
446 1656
446 1742
446 1957
446 2056
446 2160
446 2390
446 2516
446 2586
446 2794
446 2829
446 2983
446 2996
446 3038
446 3065
446 3188
446 3416
446 3557
446 3626
446 3726
446 3805
446 3843
446 3966
446 4063
446 4178
446 4206
446 4223
446 4237
446 4371
446 4418
446 4489
446 4543
446 4570
446 4573
446 4603
446 4658
447 1279
447 1467
447 1891
447 2708
447 4212
447 4336
448 940
448 1209
448 1280
448 1362
448 1399
448 1478
448 1638
448 1789
448 1840
448 2150
448 2199
448 2350
448 2364
448 2376
448 2607
448 2637
448 2712
448 2816
448 3042
448 3216
448 3246
448 3452
448 3479
448 3587
448 3639
448 3754
448 3895
448 3905
448 3937
448 3960
448 4001
448 4035
448 4047
448 4053
448 4393
448 4669
449 833
449 1260
449 2308
449 3571
449 3609
449 3825
449 3832
449 4487
450 2958
450 3068
451 790
451 1059
451 1531
451 2506
451 4165
451 4201
452 627
452 683
452 2360
452 2623
452 3369
452 3651
452 4520
453 1394
453 4541
454 4001
455 1175
456 2910
456 3688
457 2543
457 2829
457 3843
458 634
458 987
458 1053
458 1109
458 1280
458 1325
458 1415
458 1474
458 1572
458 2038
458 2121
458 2506
458 2606
458 2619
458 2623
458 2712
458 2800
458 2969
458 3155
458 3261
458 3499
458 3746
458 3972
458 4231
458 4418
458 4477
458 4485
458 4573
458 4622
459 510
459 776
459 952
459 1480
459 1546
459 1934
459 2280
459 2365
459 2933
459 3014
459 3059
459 3187
459 3702
459 3833
459 3891
459 4001
459 4420
459 4428
459 4537
459 4618
459 4671
460 620
460 973
460 1610
460 2070
460 2077
460 2160
460 2167
460 2313
460 3799
460 4418
460 4470
460 4539
460 4658
461 3003
462 1595
462 1785
462 2063
462 2231
462 2567
462 3035
463 3364
464 733
464 1399
464 1418
464 2823
464 3557
464 3591
464 4151
464 4371
465 2550
466 680
466 856
466 1053
466 1240
466 1423
466 1575
466 1601
466 1868
466 2185
466 2322
466 2390
466 2470
466 2486
466 2516
466 2543
466 2607
466 2712
466 2936
466 3149
466 3255
466 3416
466 3448
466 3616
466 3726
466 3869
466 3905
466 4045
466 4239
466 4251
466 4376
466 4637
466 4707
467 823
467 2854
467 3482
468 828
468 1240
468 1524
468 1718
468 1729
468 1936
468 1955
468 2185
468 2210
468 2322
468 2350
468 2379
468 2413
468 2470
468 2516
468 2712
468 2722
468 2936
468 3065
468 3149
468 3216
468 3462
468 3540
468 3616
468 3765
468 4117
468 4180
468 4251
468 4595
468 4621
468 4707
469 563
469 1575
470 540
470 1637
470 1761
470 1803
470 1858
470 2591
470 3276
470 3419
470 3668
470 4333
470 4441
470 4552
470 4662
471 866
471 889
471 894
471 1090
471 1496
471 3428
471 3528
471 4154
471 4300
471 4570
472 598
472 2344
472 3093
472 3172
472 3287
472 4001
472 4133
473 479
473 498
473 500
473 763
473 837
473 904
473 963
473 1091
473 1167
473 1301
473 1413
473 1421
473 1595
473 1850
473 2027
473 2063
473 2098
473 2252
473 2300
473 2541
473 2584
473 2589
473 2643
473 2659
473 2710
473 2981
473 3042
473 3063
473 3085
473 3117
473 3263
473 3419
473 3558
473 4001
473 4028
473 4140
473 4169
473 4252
473 4410
473 4450
473 4503
473 4537
473 4571
473 4633
473 4654
474 1449
475 1095
475 1391
475 1808
475 2402
475 2573
476 639
476 843
476 856
476 1011
476 1051
476 1086
476 1396
476 1595
476 1931
476 2058
476 2199
476 2267
476 2588
476 2599
476 3042
476 3868
476 3933
476 3976
476 4001
476 4333
476 4365
476 4367
476 4464
476 4483
477 949
477 1261
477 1685
477 1943
477 2010
477 3318
477 3464
477 3815
477 3984
478 554
478 1483
479 1234
479 4169
480 586
480 856
480 1445
480 1570
480 2199
480 2445
480 2769
480 4333
481 979
481 1539
481 1600
481 1700
481 1749
481 2224
481 2252
481 2946
481 3961
481 4140
481 4531
483 515
483 574
483 1523
483 1532
483 2113
483 2556
483 2601
483 2619
483 3083
483 3250
483 4439
484 1397
484 1748
484 3181
484 3608
484 4333
485 3546
486 681
486 1042
486 1148
486 2817
486 3805
486 4178
487 2438
488 1581
488 3532
489 572
489 759
489 810
489 1090
489 1103
489 1323
489 1379
489 1456
489 1524
489 1526
489 1570
489 1601
489 1704
489 2065
489 2204
489 2220
489 2263
489 2434
489 2451
489 2543
489 2611
489 2623
489 3042
489 3059
489 3105
489 3152
489 3175
489 3288
489 3315
489 3435
489 3509
489 3562
489 3708
489 3737
489 3744
489 3808
489 3971
489 4017
489 4151
489 4180
489 4341
489 4374
489 4615
489 4671
489 4685
489 4707
490 2310
491 532
491 843
491 856
491 919
491 964
491 979
491 1086
491 1114
491 1175
491 1269
491 1296
491 1304
491 1421
491 1485
491 1516
491 1562
491 1570
491 1831
491 1985
491 2106
491 2382
491 2588
491 2714
491 2747
491 2814
491 2862
491 3085
491 3148
491 3365
491 3418
491 3490
491 3495
491 3508
491 3553
491 3766
491 3824
491 3858
491 4138
491 4245
491 4271
491 4374
491 4644
492 1272
493 1872
494 1325
494 1755
494 2070
494 3478
494 3482
494 3499
494 4215
494 4534
494 4577
495 2263
495 3315
495 4361
496 1079
496 1722
496 3128
496 3244
496 4006
497 2543
497 4711
498 540
498 570
498 833
498 1061
498 1186
498 1259
498 1303
498 1421
498 1637
498 1693
498 2009
498 2063
498 2379
498 2591
498 2887
498 3012
498 3059
498 3419
498 3609
498 3779
498 3825
498 3832
498 3947
498 4069
498 4107
498 4189
498 4333
498 4487
498 4674
499 4400
499 4716
500 561
500 2584
500 2589
500 4176
500 4321
501 730
501 818
501 1323
501 1391
501 1448
501 1759
501 1936
501 1955
501 2463
501 2937
501 3059
501 3140
501 3347
501 3600
501 4068
501 4082
501 4528
501 4532
502 1468
502 1490
502 1855
502 2228
503 1580
504 979
504 2577
504 3388
505 740
505 4161
506 660
506 1051
506 1061
506 4333
508 689
508 940
508 1524
508 1570
508 1747
508 1865
508 1883
508 2190
508 2313
508 2451
508 2734
508 3059
508 3591
508 3726
508 4080
508 4180
508 4489
508 4688
509 4292
510 712
510 940
510 979
510 986
510 999
510 1004
510 1151
510 1198
510 1205
510 1214
510 1513
510 1530
510 1546
510 1694
510 1825
510 1891
510 1955
510 1990
510 2001
510 2178
510 2379
510 2399
510 2414
510 2483
510 2596
510 2628
510 2643
510 2833
510 2933
510 3038
510 3155
510 3347
510 3370
510 3412
510 4001
510 4023
510 4184
510 4247
510 4287
510 4321
510 4592
510 4618
510 4650
510 4671
510 4685
511 1220
511 1712
511 1757
511 2275
511 2304
511 2709
511 3059
511 3268
511 3460
511 3829
511 3958
511 4183
511 4190
511 4246
511 4408
511 4571
512 3068
513 1103
513 1611
513 2158
513 3445
514 924
515 550
515 574
515 577
515 856
515 1005
515 1090
515 1196
515 1323
515 1379
515 1391
515 1523
515 1570
515 1575
515 1601
515 1681
515 1704
515 1708
515 1776
515 1843
515 1860
515 2321
515 2379
515 2469
515 2477
515 2543
515 2554
515 2601
515 2623
515 2658
515 2756
515 2780
515 2859
515 2877
515 2929
515 3059
515 3060
515 3216
515 3250
515 3288
515 3347
515 3435
515 3607
515 3621
515 3696
515 3744
515 3787
515 3853
515 3888
515 3923
515 4151
515 4374
515 4398
515 4489
515 4560
515 4685
515 4705
516 3420
516 4208
517 562
517 1016
517 1412
517 1507
517 1937
517 2027
517 2884
517 3085
517 3553
517 3766
517 3961
517 4000
517 4076
517 4138
517 4364
518 2222
518 3065
519 3925
519 4245
520 1296
521 2379
521 3149
521 3744
521 3808
521 3823
521 3854
521 3945
521 3968
521 4702
522 528
522 3040
522 3221
522 3696
522 3950
522 4353
523 649
523 672
523 776
523 887
523 952
523 1205
523 1283
523 1309
523 1453
523 1774
523 1804
523 1978
523 2080
523 2097
523 2379
523 2498
523 2723
523 2868
523 3716
523 3786
523 3806
523 3849
523 3881
523 4001
523 4023
523 4171
523 4320
523 4356
523 4515
523 4537
523 4702
524 704
524 1011
524 1668
524 2199
524 2598
524 2698
524 2759
524 3042
524 3347
524 3469
524 3565
525 1831
526 825
527 3420
528 548
528 574
528 628
528 710
528 711
528 759
528 768
528 807
528 821
528 822
528 831
528 910
528 940
528 960
528 965
528 972
528 1090
528 1103
528 1151
528 1167
528 1186
528 1286
528 1391
528 1395
528 1524
528 1541
528 1570
528 1575
528 1661
528 1690
528 1691
528 1735
528 1741
528 1833
528 1866
528 2074
528 2075
528 2098
528 2121
528 2135
528 2139
528 2155
528 2173
528 2177
528 2199
528 2260
528 2347
528 2350
528 2377
528 2379
528 2413
528 2434
528 2451
528 2453
528 2471
528 2479
528 2506
528 2516
528 2530
528 2543
528 2556
528 2598
528 2623
528 2696
528 2710
528 2766
528 2948
528 3042
528 3059
528 3244
528 3249
528 3258
528 3261
528 3288
528 3304
528 3347
528 3411
528 3435
528 3473
528 3539
528 3551
528 3620
528 3726
528 3758
528 3772
528 3809
528 3835
528 3866
528 3949
528 3971
528 4045
528 4151
528 4165
528 4180
528 4231
528 4323
528 4413
528 4462
528 4615
528 4620
528 4669
528 4671
528 4677
529 1819
529 2552
530 2543
530 2855
532 919
532 979
532 1051
532 1396
532 1570
532 1595
532 1877
532 1985
532 2079
532 2106
532 2605
532 2811
532 2857
532 2974
532 3933
532 4001
532 4333
532 4483
532 4659
533 2936
533 3127
533 4114
534 2350
535 1921
535 2765
535 3788
536 929
536 1091
536 2027
536 2252
536 2502
536 2515
536 2928
536 3085
536 3281
536 3320
536 3444
536 3590
536 4140
536 4471
536 4571
537 737
537 756
537 1088
537 1103
537 1267
537 1286
537 1611
537 2093
537 3562
537 4319
538 1335
538 1575
538 2358
539 722
539 1513
539 1871
539 2047
539 2261
539 2783
539 3308
539 3449
539 3748
539 4001
539 4170
539 4286
540 570
540 590
540 631
540 701
540 741
540 880
540 904
540 979
540 984
540 1061
540 1096
540 1210
540 1323
540 1445
540 1477
540 1575
540 1650
540 1661
540 1693
540 1717
540 1834
540 1952
540 2063
540 2135
540 2295
540 2342
540 2379
540 2437
540 2543
540 2546
540 2579
540 2624
540 2696
540 2720
540 2887
540 2949
540 2980
540 3012
540 3036
540 3059
540 3063
540 3244
540 3364
540 3368
540 3379
540 3419
540 3426
540 3594
540 3668
540 3786
540 3834
540 3891
540 3935
540 4033
540 4078
540 4195
540 4200
540 4225
540 4292
540 4333
540 4359
540 4415
540 4478
540 4503
540 4523
540 4544
540 4576
540 4654
540 4662
540 4677
541 1755
541 2277
541 2586
541 3056
542 2199
542 2734
542 4341
543 1490
543 3981
544 605
544 948
544 1114
544 1177
544 1191
544 1203
544 1365
544 1547
544 2002
544 2023
544 2063
544 2294
544 2538
544 2686
544 2746
544 2757
544 2894
544 3061
544 3092
544 3496
544 3645
544 3684
544 3906
544 4011
544 4093
544 4146
544 4483
544 4659
545 597
545 733
545 745
545 836
545 979
545 1017
545 1070
545 1075
545 1142
545 1175
545 1532
545 1661
545 1850
545 1866
545 1877
545 1936
545 1996
545 2027
545 2075
545 2122
545 2434
545 2471
545 2556
545 2643
545 3042
545 3085
545 3093
545 3304
545 3311
545 3341
545 3347
545 3866
545 4063
545 4085
545 4195
545 4347
545 4415
545 4532
545 4606
545 4615
546 560
546 870
547 1025
547 1975
547 2408
548 553
548 586
548 631
548 1051
548 1061
548 1308
548 1391
548 1509
548 1716
548 1834
548 2075
548 2199
548 2387
548 2471
548 2687
548 2791
548 2830
548 2949
548 3042
548 3258
548 3504
548 3809
548 4085
548 4703
549 919
549 1005
549 1114
549 1175
549 1509
549 2189
549 2340
549 2643
549 2709
549 3544
549 3579
549 4363
549 4404
550 631
550 741
550 779
550 1565
550 1572
550 1622
550 1692
550 1776
550 1928
550 2075
550 2179
550 2197
550 2379
550 2564
550 2598
550 2698
550 2759
550 2779
550 2827
550 2846
550 3042
550 3367
550 3504
550 3834
550 3856
550 3935
550 4151
550 4167
550 4180
550 4520
551 3270
551 3509
551 4395
552 3786
553 586
553 608
553 704
553 856
553 881
553 1090
553 1296
553 1391
553 1605
553 2075
553 2199
553 2222
553 2280
553 2445
553 2471
553 2769
553 2830
553 2850
553 3042
553 3142
553 3347
553 3418
553 3497
553 3504
553 3533
553 3649
553 3732
553 3744
553 3866
553 3893
553 4413
553 4514
553 4615
554 3022
554 4328
554 4643
555 914
555 989
555 1474
555 1532
555 2113
555 2543
555 2556
555 2601
555 2619
555 3612
555 3746
555 4070
555 4155
555 4201
555 4593
556 986
557 559
557 586
557 631
557 1018
557 1449
557 2075
557 2379
557 3042
557 3382
557 3504
557 4270
558 940
558 1005
558 2059
558 2350
558 2543
558 3378
558 3435
558 3726
559 937
559 940
559 1005
559 1186
559 1323
559 1379
559 1391
559 1437
559 1611
559 1776
559 1843
559 1962
559 2059
559 2360
559 2451
559 2477
559 2479
559 2543
559 2552
559 2623
559 2632
559 2687
559 2710
559 2740
559 2797
559 3012
559 3035
559 3369
559 3388
559 3502
559 3579
559 3780
559 3848
559 3856
559 3891
559 4144
559 4374
559 4707
560 609
560 665
560 794
560 842
560 1022
560 1589
560 1707
560 1767
560 2048
560 2107
560 2159
560 2251
560 2270
560 2333
560 2420
560 2583
560 2751
560 3116
560 3349
560 3520
560 3819
560 3992
560 4131
560 4314
560 4362
560 4475
560 4565
560 4596
561 1053
561 1755
561 2733
561 4321
562 986
562 1387
562 3085
562 3428
562 3951
563 964
564 3789
565 719
565 879
565 974
565 1108
565 1249
565 1306
565 1497
565 1720
565 2774
565 2820
565 2958
565 3003
565 3068
565 3632
565 3739
565 3956
565 4130
565 4357
565 4423
565 4676
566 1095
566 1391
567 741
567 775
567 1468
567 1708
567 2139
567 2710
567 3304
567 3866
567 4151
568 1513
569 2419
570 598
570 1061
570 1295
570 1836
570 2139
570 2696
570 2887
570 3419
570 3626
570 3834
570 4646
571 926
571 979
571 1753
571 2213
571 2372
571 2546
571 2842
571 2872
571 3405
571 4001
571 4002
571 4711
572 627
572 741
572 779
572 831
572 940
572 1036
572 1103
572 1199
572 1323
572 1456
572 1524
572 1544
572 1570
572 1575
572 1693
572 1704
572 1735
572 1815
572 2059
572 2088
572 2131
572 2147
572 2304
572 2350
572 2374
572 2503
572 2543
572 2584
572 2598
572 2623
572 2679
572 2698
572 2779
572 2780
572 2793
572 2827
572 2843
572 2879
572 2962
572 3059
572 3060
572 3105
572 3175
572 3216
572 3240
572 3244
572 3268
572 3304
572 3347
572 3435
572 3438
572 3480
572 3484
572 3509
572 3565
572 3696
572 3726
572 3856
572 3866
572 3902
572 4017
572 4041
572 4151
572 4206
572 4258
572 4270
572 4291
572 4306
572 4374
572 4395
572 4518
572 4560
572 4671
572 4677
572 4694
572 4707
573 3156
574 586
574 598
574 628
574 631
574 667
574 831
574 884
574 902
574 905
574 940
574 944
574 964
574 986
574 1007
574 1026
574 1112
574 1151
574 1167
574 1283
574 1308
574 1323
574 1391
574 1408
574 1524
574 1570
574 1575
574 1578
574 1598
574 1601
574 1611
574 1625
574 1697
574 1734
574 1946
574 2075
574 2098
574 2304
574 2350
574 2379
574 2434
574 2451
574 2477
574 2479
574 2503
574 2506
574 2543
574 2552
574 2555
574 2556
574 2598
574 2623
574 2698
574 2703
574 2724
574 2759
574 2794
574 2919
574 2937
574 2974
574 3015
574 3042
574 3060
574 3105
574 3143
574 3244
574 3271
574 3303
574 3315
574 3347
574 3395
574 3435
574 3465
574 3504
574 3601
574 3626
574 3633
574 3642
574 3649
574 3696
574 3726
574 3732
574 3787
574 3808
574 3856
574 3895
574 3907
574 3960
574 4023
574 4038
574 4045
574 4063
574 4072
574 4144
574 4258
574 4270
574 4395
574 4404
574 4406
574 4412
574 4415
574 4520
574 4615
574 4671
574 4677
574 4705
574 4707
575 679
575 1011
575 1090
575 1418
575 1452
575 1508
575 1671
575 1883
575 1891
575 1936
575 2284
575 2350
575 2390
575 2516
575 2586
575 2648
575 2664
575 2719
575 2829
575 2869
575 2992
575 3038
575 3044
575 3311
575 3347
575 3760
575 3781
575 3805
575 4029
575 4082
575 4178
575 4264
575 4270
575 4532
575 4570
575 4573
576 979
576 1367
576 1453
576 1485
576 1562
576 1713
576 1759
576 1831
576 1870
576 2669
576 2839
576 2951
576 3085
576 3244
576 4023
576 4185
576 4310
576 4351
576 4415
577 1196
577 1524
577 1570
577 2115
577 2450
577 2552
577 3696
577 4180
578 3372
578 3900
578 4217
579 598
579 873
579 904
579 935
579 963
579 979
579 1026
579 1091
579 1114
579 1203
579 1413
579 1421
579 1581
579 1692
579 1788
579 1831
579 1985
579 2027
579 2224
579 2252
579 2267
579 2300
579 2360
579 2543
579 2555
579 2564
579 2643
579 2680
579 2747
579 2911
579 3085
579 3622
579 3729
579 3972
579 4001
579 4028
579 4082
579 4238
579 4322
579 4410
579 4571
579 4633
580 979
580 1205
580 1255
580 1453
580 2379
580 3306
580 3786
580 3881
580 4001
580 4023
580 4171
580 4702
581 4050
582 1103
582 1379
582 1477
582 1674
582 2859
582 3015
582 3268
582 3857
582 4161
583 2494
584 701
584 951
584 2589
584 2658
584 3127
584 3221
584 3554
584 4317
585 1325
586 627
586 628
586 631
586 856
586 909
586 937
586 939
586 940
586 1005
586 1036
586 1061
586 1186
586 1242
586 1301
586 1312
586 1321
586 1323
586 1379
586 1391
586 1462
586 1505
586 1524
586 1535
586 1575
586 1601
586 1611
586 1638
586 1681
586 1692
586 1708
586 1748
586 1776
586 1834
586 1843
586 1962
586 2059
586 2075
586 2119
586 2139
586 2199
586 2201
586 2222
586 2280
586 2299
586 2350
586 2360
586 2374
586 2450
586 2451
586 2471
586 2477
586 2479
586 2503
586 2543
586 2552
586 2589
586 2623
586 2649
586 2710
586 2740
586 2769
586 2779
586 2788
586 2843
586 2850
586 2872
586 2874
586 2877
586 2962
586 3012
586 3015
586 3035
586 3042
586 3059
586 3060
586 3142
586 3145
586 3166
586 3262
586 3269
586 3347
586 3368
586 3369
586 3435
586 3502
586 3504
586 3539
586 3607
586 3708
586 3726
586 3744
586 3787
586 3809
586 3848
586 3856
586 3891
586 3923
586 3946
586 3971
586 4043
586 4085
586 4151
586 4161
586 4309
586 4361
586 4374
586 4671
586 4677
586 4685
586 4707
587 3986
588 2694
589 643
589 1413
589 2252
589 3281
589 4351
590 631
590 745
590 838
590 1061
590 1425
590 2063
590 2546
590 2628
590 2720
590 3063
590 3066
590 3093
590 3218
590 3244
590 3368
590 3622
590 4001
590 4040
590 4483
590 4654
591 1464
591 2440
591 3464
591 4676
592 2829
592 2983
592 3037
592 3188
592 3758
592 3843
592 4206
593 1955
593 2793
594 597
594 672
594 1834
594 3467
594 3601
594 3826
594 3865
594 4415
594 4606
594 4646
595 986
595 4011
596 3496
597 881
597 940
597 1295
597 1532
597 1661
597 1936
597 2075
597 2287
597 2379
597 2451
597 2516
597 2794
597 3042
597 3216
597 3287
597 3311
597 3601
597 3960
597 4001
597 4063
597 4164
597 4347
597 4383
597 4415
597 4646
598 622
598 733
598 741
598 792
598 798
598 860
598 940
598 1061
598 1096
598 1114
598 1138
598 1186
598 1259
598 1271
598 1396
598 1449
598 1468
598 1549
598 1575
598 1578
598 1626
598 1666
598 1677
598 1681
598 1706
598 1708
598 1743
598 1759
598 1843
598 1901
598 1977
598 2044
598 2098
598 2127
598 2169
598 2252
598 2300
598 2338
598 2339
598 2344
598 2407
598 2512
598 2603
598 2623
598 2644
598 2652
598 2656
598 2674
598 2705
598 2723
598 2753
598 3013
598 3015
598 3016
598 3039
598 3093
598 3145
598 3146
598 3155
598 3172
598 3249
598 3435
598 3519
598 3590
598 3609
598 3680
598 3744
598 3790
598 3791
598 3866
598 3981
598 3982
598 4001
598 4133
598 4151
598 4164
598 4195
598 4248
598 4363
598 4374
598 4384
598 4500
598 4516
598 4534
599 4462
600 2090
600 2252
600 2643
600 4428
600 4592
601 4023
602 793
602 876
602 2239
602 2514
602 3296
602 3799
602 4063
602 4151
602 4243
602 4470
603 2380
603 4156
603 4258
604 1696
604 1895
604 3701
604 4208
605 948
605 986
605 1177
605 1191
605 1365
605 1547
605 2002
605 2023
605 2294
605 2308
605 2686
605 2757
605 2894
605 3061
605 3496
605 3645
605 3684
605 3832
605 3906
605 4001
605 4146
605 4487
605 4659
606 721
606 3971
607 1344
607 2104
607 2595
607 3290
607 3339
607 3598
607 4085
607 4216
607 4282
607 4294
608 639
608 704
608 1051
608 1268
608 1748
608 1834
608 2199
608 2222
608 2584
608 2649
608 2698
608 2811
608 3175
608 3347
608 3952
608 4001
608 4333
608 4544
608 4579
609 1852
610 1549
611 3330
612 1061
612 2451
612 3834
612 3935
612 4055
613 2560
614 903
614 979
614 1091
614 1167
614 1301
614 1303
614 1392
614 1524
614 1595
614 1626
614 1850
614 2027
614 2224
614 2252
614 3042
614 3085
614 3419
614 3590
614 3622
614 3680
614 3773
614 4001
614 4048
614 4054
614 4395
614 4483
614 4576
614 4707
615 1509
615 1514
615 1581
615 2265
615 2498
615 2523
615 2826
615 3214
615 3290
615 3467
615 3552
615 3622
615 4048
615 4438
616 947
616 1077
616 1611
616 2945
617 4001
617 4515
618 949
618 1685
618 1878
618 1943
618 2089
618 3984
619 1404
619 2097
619 2298
619 3880
620 1015
620 1213
620 2160
620 2167
620 2310
620 2451
620 3161
620 3634
620 4409
620 4418
620 4470
621 2750
621 2877
622 4175
623 671
623 1103
623 1391
623 1456
623 2766
623 4045
624 779
624 1374
624 1477
624 1691
624 1766
624 1797
624 1843
624 1962
624 2313
624 2503
624 3059
624 3274
624 3502
624 3971
624 4142
624 4151
624 4270
624 4671
625 653
625 3189
625 3858
627 631
627 683
627 1103
627 1442
627 1456
627 1785
627 2231
627 2377
627 2477
627 2623
627 2679
627 2696
627 2759
627 3042
627 3369
627 3562
627 3651
627 3742
627 3834
627 3891
627 4180
627 4361
627 4520
627 4559
627 4685
628 631
628 643
628 658
628 689
628 721
628 733
628 741
628 775
628 779
628 790
628 799
628 821
628 825
628 856
628 868
628 900
628 905
628 940
628 962
628 964
628 979
628 986
628 1007
628 1011
628 1061
628 1077
628 1103
628 1106
628 1112
628 1120
628 1151
628 1167
628 1186
628 1223
628 1254
628 1282
628 1302
628 1308
628 1323
628 1347
628 1362
628 1408
628 1421
628 1445
628 1448
628 1468
628 1524
628 1562
628 1570
628 1575
628 1578
628 1598
628 1601
628 1604
628 1608
628 1661
628 1733
628 1773
628 1775
628 1843
628 1866
628 1936
628 2044
628 2075
628 2080
628 2088
628 2092
628 2098
628 2113
628 2125
628 2139
628 2158
628 2260
628 2274
628 2300
628 2304
628 2350
628 2353
628 2377
628 2379
628 2434
628 2451
628 2471
628 2489
628 2543
628 2552
628 2556
628 2589
628 2623
628 2654
628 2679
628 2698
628 2814
628 2887
628 2963
628 2969
628 2993
628 3009
628 3015
628 3032
628 3042
628 3060
628 3083
628 3085
628 3087
628 3105
628 3244
628 3259
628 3268
628 3287
628 3288
628 3304
628 3315
628 3347
628 3364
628 3378
628 3382
628 3395
628 3419
628 3435
628 3451
628 3479
628 3504
628 3523
628 3551
628 3560
628 3615
628 3616
628 3626
628 3700
628 3726
628 3744
628 3746
628 3808
628 3829
628 3834
628 3856
628 3866
628 3907
628 3921
628 3922
628 3949
628 3971
628 4001
628 4026
628 4045
628 4082
628 4117
628 4144
628 4151
628 4157
628 4180
628 4209
628 4225
628 4266
628 4270
628 4361
628 4395
628 4406
628 4462
628 4515
628 4520
628 4559
628 4560
628 4615
628 4620
628 4622
628 4647
628 4663
628 4671
628 4677
628 4685
628 4707
628 4711
629 2397
630 4045
630 4462
631 701
631 737
631 829
631 937
631 940
631 988
631 1005
631 1036
631 1056
631 1061
631 1082
631 1120
631 1186
631 1246
631 1283
631 1323
631 1379
631 1391
631 1437
631 1462
631 1465
631 1524
631 1535
631 1570
631 1575
631 1611
631 1681
631 1692
631 1708
631 1776
631 1834
631 1843
631 1946
631 2072
631 2074
631 2075
631 2077
631 2119
631 2139
631 2298
631 2350
631 2374
631 2379
631 2408
631 2451
631 2471
631 2477
631 2479
631 2503
631 2543
631 2550
631 2552
631 2555
631 2584
631 2589
631 2623
631 2678
631 2687
631 2693
631 2703
631 2710
631 2740
631 2753
631 2779
631 2791
631 2830
631 2850
631 2874
631 2877
631 2949
631 2962
631 3015
631 3035
631 3042
631 3059
631 3060
631 3098
631 3145
631 3218
631 3246
631 3262
631 3369
631 3378
631 3435
631 3502
631 3539
631 3622
631 3708
631 3726
631 3746
631 3787
631 3808
631 3848
631 3856
631 3891
631 3923
631 3951
631 4001
631 4180
631 4210
631 4298
631 4309
631 4462
631 4560
631 4677
631 4685
631 4707
632 2538
632 3212
633 989
633 2485
633 3382
633 3746
633 3941
634 1280
634 2063
634 2598
634 2698
634 2762
634 3046
634 3270
634 3972
634 4175
634 4296
634 4395
634 4669
635 1595
635 2068
635 2917
637 733
637 1074
637 1467
637 2489
637 2823
637 2938
637 3600
638 681
638 768
638 940
638 969
638 1417
638 2483
638 2517
638 4321
638 4440
639 979
639 1011
639 1066
639 1296
639 1396
639 2063
639 2339
639 2698
639 2780
639 3242
639 3244
639 3347
639 3565
639 3607
639 3972
639 4206
639 4280
639 4294
639 4296
639 4333
639 4395
639 4453
640 1090
640 1224
640 3512
640 3533
640 3805
640 3810
640 4178
640 4570
640 4588
640 4653
641 3812
642 4115
643 666
643 672
643 701
643 733
643 745
643 979
643 1047
643 1302
643 1309
643 1391
643 1453
643 1598
643 1638
643 1648
643 1677
643 1825
643 1982
643 1996
643 2087
643 2122
643 2183
643 2269
643 2278
643 2350
643 2379
643 2382
643 2451
643 2543
643 2609
643 2643
643 2763
643 2795
643 2832
643 2877
643 2980
643 3085
643 3341
643 3383
643 3428
643 3430
643 3532
643 3630
643 3669
643 3682
643 3780
643 3786
643 3829
643 4001
643 4023
643 4157
643 4225
643 4238
643 4351
643 4402
643 4415
643 4572
643 4592
643 4615
643 4663
643 4671
643 4702
644 691
644 919
644 963
644 1331
644 1334
644 1379
644 1681
644 1875
644 2119
644 2451
644 2503
644 2779
644 3010
644 3039
644 3538
644 3545
644 3680
644 4171
644 4180
644 4245
644 4320
644 4410
645 1637
646 2400
647 1971
648 936
648 3085
648 3847
648 4140
649 672
649 702
649 2265
649 2300
649 2785
649 3172
649 3633
649 3655
649 3732
649 3780
649 3997
649 4308
649 4415
649 4438
649 4468
650 741
650 825
650 979
650 1036
650 1103
650 1323
650 1585
650 2304
650 2430
650 2598
650 2698
650 2845
650 2980
650 3012
650 3042
650 3268
650 3329
650 3458
650 3504
650 3704
650 3826
650 3961
650 4161
650 4478
650 4520
651 897
651 1131
651 1145
651 2091
651 4265
652 4309
654 1820
655 1759
656 1103
656 3208
656 3835
657 908
657 3796
658 1186
658 1498
658 1524
658 1575
658 1659
658 1815
658 2173
658 2477
658 2623
658 2843
658 2969
658 3059
658 3288
658 3726
658 3744
658 3808
658 3971
658 4374
658 4497
658 4560
659 812
659 1933
659 2848
660 4333
661 3042
661 4156
662 3520
663 819
663 987
663 1092
663 1325
663 2038
663 2969
663 3155
663 3261
663 3305
663 3452
663 3746
663 4165
663 4539
664 1703
664 2447
666 1302
666 1598
666 2763
666 4001
667 1167
667 1391
667 2724
667 2942
667 3378
667 4439
667 4677
667 4695
668 3036
669 1301
669 1834
669 3015
669 3042
669 3204
669 3617
669 3907
669 4365
670 1776
670 2324
671 818
671 1103
671 1153
671 1391
671 1448
671 1456
671 1477
671 1570
671 1575
671 1643
671 1656
671 1776
671 2347
671 2503
671 2543
671 2998
671 3015
671 3261
671 3347
671 3435
671 3462
671 3562
671 3620
671 3682
671 4045
671 4462
671 4671
671 4685
672 702
672 825
672 881
672 905
672 979
672 1070
672 1084
672 1103
672 1186
672 1255
672 1283
672 1293
672 1301
672 1334
672 1430
672 1453
672 1466
672 1505
672 1514
672 1524
672 1562
672 1598
672 1626
672 1638
672 1717
672 1735
672 1759
672 1834
672 1843
672 1903
672 1937
672 2122
672 2193
672 2228
672 2252
672 2265
672 2280
672 2289
672 2298
672 2379
672 2382
672 2434
672 2498
672 2522
672 2523
672 2674
672 2677
672 2785
672 2795
672 2832
672 2846
672 2850
672 2868
672 2885
672 2910
672 3085
672 3135
672 3172
672 3214
672 3281
672 3341
672 3347
672 3388
672 3394
672 3410
672 3467
672 3543
672 3545
672 3633
672 3655
672 3670
672 3732
672 3744
672 3780
672 3786
672 3804
672 3808
672 3829
672 3841
672 3871
672 3917
672 3922
672 3938
672 3997
672 4001
672 4023
672 4045
672 4151
672 4182
672 4245
672 4250
672 4308
672 4415
672 4438
672 4463
672 4483
672 4516
672 4544
672 4592
672 4602
672 4605
672 4615
672 4671
673 1230
673 1233
673 1673
673 2237
673 2238
673 2461
673 3398
673 3582
673 4187
673 4546
674 2826
675 869
675 1301
675 1793
675 2300
675 2623
675 3225
675 3326
675 4483
675 4674
676 3574
677 1031
677 1091
677 1195
677 1318
677 1331
677 1850
677 2027
677 4136
677 4685
678 1968
678 3085
679 973
679 1418
679 1742
679 1818
679 1891
679 1957
679 2996
679 3038
679 3042
679 3303
679 3311
679 3347
679 3781
679 3931
679 4063
679 4192
679 4532
679 4603
679 4665
680 746
680 793
680 819
680 1005
680 1053
680 1151
680 1368
680 1423
680 1538
680 1820
680 1868
680 2185
680 2210
680 2297
680 2322
680 2443
680 2470
680 2516
680 2607
680 2693
680 2712
680 2760
680 3149
680 3155
680 3217
680 3233
680 3448
680 3462
680 3599
680 3644
680 3783
680 3808
680 3823
680 3869
680 4063
680 4142
680 4251
680 4270
680 4519
680 4698
681 862
681 900
681 1042
681 1053
681 1241
681 1267
681 1601
681 1656
681 1844
681 1891
681 1902
681 1955
681 2013
681 2039
681 2103
681 2129
681 2150
681 2247
681 2451
681 2536
681 2586
681 2654
681 2693
681 2698
681 2817
681 2829
681 2936
681 2992
681 3155
681 3173
681 3208
681 3285
681 3363
681 3384
681 3414
681 3429
681 3573
681 3686
681 3714
681 3805
681 3823
681 3931
681 4178
681 4186
681 4251
681 4387
681 4519
681 4564
681 4637
681 4688
681 4707
682 688
682 1467
682 2489
683 2093
683 3155
683 3244
683 3369
683 3651
683 4045
683 4462
683 4512
683 4520
683 4560
684 2363
684 2565
684 4631
685 1827
686 1209
686 3286
687 966
687 1091
687 1537
687 1623
687 2027
687 2224
687 2539
687 2864
687 2989
687 3526
687 3622
687 4048
687 4140
687 4234
687 4467
687 4483
687 4571
688 1418
688 1467
688 2121
688 2489
688 2823
688 3250
688 3557
688 3746
688 4001
689 733
689 910
689 1063
689 1258
689 1280
689 1323
689 1478
689 1523
689 1640
689 1883
689 2113
689 2160
689 2268
689 2486
689 2543
689 2794
689 2829
689 2983
689 3042
689 3246
689 3435
689 3587
689 3591
689 3639
689 3642
689 3738
689 3744
689 4023
689 4035
689 4047
689 4053
689 4371
689 4405
689 4462
689 4528
689 4603
689 4669
689 4685
690 4700
691 1073
691 1114
691 1334
691 1623
691 2989
691 3085
691 3538
691 4023
691 4415
691 4467
692 867
692 868
692 940
692 964
692 1001
692 1775
692 2402
692 2556
692 4117
693 979
693 1462
693 1509
693 1941
693 2372
693 2543
693 2721
693 2756
693 3022
693 3268
693 3291
693 3435
693 4711
694 1367
695 2159
696 810
696 2225
696 2654
696 2874
696 3042
697 812
697 985
697 1014
697 1791
698 2182
699 3798
699 4472
700 1243
700 1267
700 1656
700 1891
700 1955
700 2275
700 2550
700 2598
700 2654
700 3263
700 3625
700 3726
700 3948
700 4455
700 4520
701 733
701 741
701 779
701 979
701 1061
701 1096
701 1153
701 1301
701 1356
701 1391
701 1442
701 1477
701 1524
701 1712
701 2063
701 2095
701 2135
701 2342
701 2347
701 2379
701 2434
701 2507
701 2543
701 2546
701 2612
701 2624
701 2759
701 2827
701 2887
701 3042
701 3059
701 3066
701 3100
701 3175
701 3472
701 3532
701 3555
701 3620
701 3682
701 3843
701 3864
701 3902
701 3971
701 4045
701 4151
701 4182
701 4190
701 4610
701 4615
701 4649
701 4654
701 4671
702 1430
702 2123
702 2479
702 3545
702 3804
702 3917
702 4055
702 4250
702 4415
703 2412
704 1097
704 2199
704 2350
704 2377
704 2975
704 3303
704 3347
704 3395
704 3413
704 3807
704 3808
704 3972
704 4395
704 4560
705 970
705 1033
705 2573
706 1601
706 1700
706 3704
706 3826
706 4531
707 1592
707 2916
708 3286
709 1524
709 1588
709 1843
709 2623
709 2654
709 4381
709 4560
710 1478
710 2155
710 2217
710 2453
710 2789
710 2816
710 3001
710 3177
710 3246
710 3258
710 3261
710 3639
710 3808
710 4035
710 4469
710 4525
710 4669
711 856
711 1038
711 1066
711 1090
711 1452
711 1570
711 2320
711 2377
711 2829
711 2931
711 3758
711 3981
711 4045
711 4206
712 1198
712 1214
712 2883
712 3155
712 4023
714 4694
715 1302
716 986
716 1365
716 1944
716 2854
716 3005
716 3115
716 3930
716 4097
716 4650
717 3281
718 1413
718 2224
718 3622
719 1720
719 2366
719 4208
720 1749
720 2294
721 868
721 1053
721 1575
721 1601
721 1773
721 1775
721 2185
721 2322
721 2516
721 2760
721 3149
721 3435
721 3446
721 3700
721 3869
721 4117
721 4418
721 4520
721 4620
721 4685
722 1871
722 2047
722 2261
722 2783
722 3308
722 3449
722 4286
723 727
723 745
723 785
723 830
723 872
723 934
723 963
723 1075
723 1103
723 1114
723 1153
723 1175
723 1219
723 1232
723 1255
723 1318
723 1344
723 1412
723 1430
723 1434
723 1439
723 1444
723 1581
723 1595
723 1642
723 1677
723 1695
723 1759
723 1825
723 1875
723 1877
723 1996
723 2027
723 2122
723 2123
723 2200
723 2212
723 2228
723 2275
723 2278
723 2302
723 2318
723 2382
723 2466
723 2523
723 2568
723 2624
723 2643
723 2660
723 2717
723 2785
723 2808
723 2831
723 2876
723 2882
723 3002
723 3039
723 3085
723 3093
723 3131
723 3162
723 3214
723 3244
723 3341
723 3358
723 3368
723 3388
723 3442
723 3467
723 3474
723 3488
723 3526
723 3532
723 3552
723 3579
723 3680
723 3766
723 4086
723 4171
723 4177
723 4404
723 4415
723 4431
723 4448
723 4463
723 4465
723 4468
723 4481
723 4537
723 4551
723 4559
723 4572
723 4613
724 1561
724 2118
725 731
725 749
725 789
725 905
725 945
725 964
725 1031
725 1091
725 1175
725 1265
725 1271
725 1301
725 1413
725 1509
725 1595
725 1759
725 1855
725 2020
725 2063
725 2224
725 2344
725 2645
725 2717
725 2889
725 3629
725 3790
725 4001
725 4011
725 4140
725 4213
725 4288
725 4483
725 4516
725 4571
725 4626
725 4654
726 1267
726 2141
726 2202
726 3946
727 745
727 1581
727 2122
727 2123
727 3085
727 3341
727 3430
727 3532
727 3622
727 3661
728 731
728 1274
728 1759
728 2889
728 4213
728 4288
730 751
730 856
730 940
730 964
730 1362
730 1421
730 1448
730 1471
730 1524
730 1541
730 1661
730 1773
730 1951
730 1955
730 2217
730 2434
730 2556
730 2623
730 3042
730 3085
730 3140
730 3600
730 4180
730 4615
730 4663
730 4671
730 4703
731 745
731 749
731 789
731 1265
731 1274
731 1650
731 1759
731 1801
731 1886
731 2005
731 2068
731 2122
731 2252
731 2344
731 2643
731 2702
731 2717
731 2728
731 2777
731 2935
731 3016
731 3137
731 3160
731 3170
731 3292
731 3367
731 3470
731 3594
731 3673
731 3680
731 3697
731 3790
731 4068
731 4213
731 4288
731 4311
731 4339
731 4410
731 4558
731 4626
731 4715
732 3059
732 3085
732 3697
732 3836
732 4140
732 4583
733 774
733 821
733 856
733 931
733 940
733 964
733 968
733 979
733 1061
733 1090
733 1279
733 1323
733 1342
733 1391
733 1441
733 1467
733 1524
733 1532
733 1544
733 1545
733 1559
733 1570
733 1575
733 1601
733 1648
733 1661
733 1712
733 1843
733 1855
733 1938
733 1941
733 2060
733 2074
733 2075
733 2115
733 2152
733 2153
733 2191
733 2276
733 2313
733 2350
733 2372
733 2379
733 2451
733 2489
733 2503
733 2516
733 2543
733 2556
733 2619
733 2623
733 2722
733 2793
733 2807
733 2814
733 2823
733 2872
733 2980
733 3022
733 3043
733 3059
733 3149
733 3244
733 3249
733 3291
733 3311
733 3347
733 3356
733 3428
733 3435
733 3448
733 3502
733 3612
733 3688
733 3726
733 3744
733 3787
733 3822
733 3845
733 3971
733 3972
733 4001
733 4023
733 4035
733 4045
733 4063
733 4118
733 4180
733 4195
733 4212
733 4215
733 4239
733 4336
733 4347
733 4376
733 4406
733 4415
733 4462
733 4466
733 4521
733 4615
733 4668
733 4671
733 4677
733 4679
733 4695
733 4707
734 1546
734 2064
734 2628
734 2737
734 3919
734 4351
734 4458
735 1391
735 2445
736 998
736 1151
736 1524
736 1673
736 1688
736 2037
736 2430
736 2439
736 2552
736 2814
736 2937
736 3263
736 3496
736 3981
736 4001
736 4011
736 4180
736 4520
737 756
737 912
737 1103
737 1354
737 1611
737 1958
737 2752
737 2891
737 3042
737 3141
737 3972
737 4198
737 4303
737 4319
738 2363
738 2787
738 2890
738 2958
738 2973
738 3597
738 3613
738 3664
738 3776
738 3994
738 4208
738 4423
739 1277
739 2430
739 3312
740 979
740 1362
740 2556
740 2929
740 3784
740 4161
740 4642
741 753
741 761
741 775
741 829
741 937
741 940
741 979
741 986
741 1005
741 1092
741 1186
741 1321
741 1323
741 1379
741 1391
741 1437
741 1468
741 1524
741 1570
741 1575
741 1578
741 1601
741 1681
741 1692
741 1708
741 1739
741 1743
741 1776
741 1843
741 1855
741 1919
741 1946
741 1955
741 1962
741 2088
741 2139
741 2192
741 2350
741 2379
741 2430
741 2433
741 2451
741 2477
741 2503
741 2550
741 2552
741 2559
741 2584
741 2589
741 2623
741 2703
741 2740
741 2769
741 2779
741 2858
741 2877
741 2887
741 3059
741 3060
741 3093
741 3172
741 3221
741 3288
741 3369
741 3502
741 3595
741 3607
741 3668
741 3708
741 3787
741 3789
741 3808
741 3848
741 3849
741 3856
741 3971
741 4001
741 4023
741 4042
741 4133
741 4151
741 4195
741 4273
741 4285
741 4309
741 4333
741 4374
741 4406
741 4462
741 4515
741 4671
741 4677
741 4685
741 4695
741 4709
742 1946
742 2101
742 3943
743 1372
743 1448
743 1776
743 1843
743 1928
743 2075
743 2324
743 2598
743 2698
743 2779
743 2960
743 3042
743 3152
743 3808
743 4559
744 2344
745 979
745 1047
745 1075
745 1175
745 1434
745 1466
745 1759
745 1834
745 1996
745 2027
745 2087
745 2122
745 2252
745 2318
745 2382
745 2546
745 2624
745 2643
745 2832
745 2847
745 2882
745 2887
745 3085
745 3093
745 3114
745 3341
745 3430
745 3526
745 3579
745 3641
745 3786
745 3890
745 4001
745 4213
745 4276
745 4282
745 4415
745 4572
746 1601
746 2150
746 2210
746 2451
746 2516
746 2712
746 3149
746 3869
747 759
747 1397
747 2059
747 2944
747 3181
747 4202
747 4448
748 979
748 1159
748 1175
748 1357
748 1413
748 1509
748 1708
748 1913
748 2063
748 2451
748 2457
748 2508
748 3039
748 3252
748 3388
748 3419
748 3729
748 3766
748 4055
748 4234
748 4410
748 4513
748 4639
749 789
749 945
749 1096
749 1175
749 1265
749 1274
749 1413
749 1444
749 1581
749 1650
749 1759
749 1834
749 1886
749 1928
749 2005
749 2068
749 2252
749 2344
749 2482
749 2541
749 2643
749 2717
749 2728
749 2777
749 2786
749 2889
749 2935
749 3016
749 3093
749 3137
749 3367
749 3470
749 3590
749 3594
749 3697
749 3790
749 4048
749 4068
749 4182
749 4234
749 4288
749 4311
749 4339
749 4396
749 4410
749 4516
749 4544
749 4558
749 4626
749 4654
749 4671
750 2089
750 3318
750 4447
750 4590
751 793
751 964
751 1032
751 1671
751 2359
751 2379
751 2556
751 3042
751 3296
751 3600
751 4151
751 4270
752 1059
752 2451
753 3610
753 3789
753 4001
754 2264
755 3526
755 4011
756 1611
757 3963
758 3263
758 3524
758 3610
759 856
759 900
759 901
759 1042
759 1103
759 1227
759 1267
759 1323
759 1359
759 1426
759 1527
759 1570
759 1704
759 1742
759 1802
759 2299
759 2623
759 2654
759 2658
759 2664
759 2859
759 2887
759 2944
759 3015
759 3060
759 3072
759 3142
759 3184
759 3294
759 3362
759 3435
759 3565
759 3848
759 4202
759 4332
759 4381
759 4519
759 4653
760 1929
760 2623
760 2943
760 3502
760 3586
760 4043
760 4307
761 832
761 940
761 2919
761 4307
761 4377
762 4208
763 904
763 963
763 980
763 1114
763 1121
763 1271
763 1331
763 1353
763 1421
763 1626
763 1759
763 1968
763 1977
763 2340
763 2382
763 2508
763 2643
763 2674
763 2924
763 3039
763 3579
763 3669
763 3680
763 3742
763 4396
763 4415
763 4516
765 3286
766 909
766 1200
766 1391
766 1595
766 1638
766 2573
766 3703
767 3295
768 940
768 1092
768 1120
768 1202
768 1318
768 1524
768 1631
768 1844
768 1947
768 1955
768 2135
768 2210
768 2607
768 2623
768 2974
768 3015
768 3155
768 3171
768 3351
768 3414
768 3542
768 3600
768 3744
768 3783
768 4178
768 4179
768 4341
768 4615
768 4677
768 4685
768 4707
769 793
769 1213
769 2556
769 2623
769 3667
769 4063
769 4222
770 1028
770 2476
771 2473
771 2663
772 2616
772 2623
772 4063
772 4520
773 2269
773 4402
774 940
774 2489
774 2881
774 2938
774 3059
774 3523
774 3682
775 1167
775 1575
775 1578
775 2139
775 2339
775 2471
775 2780
775 3042
775 3175
775 3244
775 3304
775 3347
775 3551
775 3650
775 3848
775 3866
775 4151
775 4156
775 4395
775 4518
775 4685
776 830
776 856
776 934
776 953
776 979
776 1005
776 1070
776 1142
776 1263
776 1272
776 1323
776 1334
776 1391
776 1394
776 1397
776 1546
776 1575
776 1717
776 1735
776 1776
776 1815
776 1875
776 1934
776 1937
776 2047
776 2075
776 2122
776 2205
776 2257
776 2365
776 2477
776 2608
776 2623
776 2698
776 2717
776 2740
776 2781
776 2816
776 2876
776 3041
776 3042
776 3093
776 3129
776 3130
776 3187
776 3205
776 3226
776 3288
776 3341
776 3449
776 3474
776 3480
776 3517
776 3552
776 3614
776 3726
776 3775
776 3851
776 4023
776 4045
776 4051
776 4056
776 4086
776 4087
776 4105
776 4129
776 4214
776 4238
776 4356
776 4415
776 4428
776 4537
776 4559
776 4602
776 4605
776 4609
776 4675
776 4677
777 1601
777 1940
777 2199
777 2477
777 2788
777 2962
777 3708
777 3856
778 2746
779 849
779 856
779 937
779 940
779 1066
779 1081
779 1167
779 1186
779 1321
779 1323
779 1379
779 1391
779 1399
779 1524
779 1565
779 1570
779 1572
779 1604
779 1691
779 1692
779 1693
779 1708
779 1741
779 1797
779 1817
779 1843
779 1855
779 1962
779 1963
779 1989
779 2098
779 2121
779 2131
779 2161
779 2298
779 2300
779 2377
779 2451
779 2543
779 2564
779 2589
779 2598
779 2623
779 2703
779 2717
779 2740
779 2779
779 2780
779 2788
779 2806
779 2827
779 3032
779 3059
779 3060
779 3244
779 3258
779 3347
779 3369
779 3378
779 3411
779 3432
779 3435
779 3502
779 3548
779 3555
779 3569
779 3726
779 3787
779 3808
779 3856
779 3971
779 4151
779 4180
779 4258
779 4270
779 4406
779 4669
779 4671
779 4685
779 4689
780 1720
781 1160
782 1488
782 2874
783 4308
784 1524
784 3812
784 4001
785 979
785 1255
785 1466
785 1759
785 2224
785 2643
785 2808
785 3093
785 3532
785 3579
785 3729
785 4615
786 2872
787 1016
787 1562
787 2382
787 3085
787 3766
788 2999
788 3383
788 4367
789 904
789 945
789 972
789 979
789 1031
789 1061
789 1091
789 1175
789 1265
789 1413
789 1468
789 1568
789 1595
789 1759
789 1850
789 1979
789 2027
789 2035
789 2252
789 2289
789 2300
789 2302
789 2344
789 2374
789 2643
789 2645
789 2702
789 2717
789 2747
789 2917
789 2962
789 2974
789 3032
789 3042
789 3059
789 3170
789 3244
789 3248
789 3276
789 3287
789 3386
789 3526
789 3578
789 3590
789 3790
789 3829
789 4001
789 4140
789 4151
789 4172
789 4213
789 4238
789 4288
789 4410
789 4483
789 4516
789 4568
789 4626
789 4654
790 867
790 868
790 964
790 1032
790 1478
790 1553
790 1554
790 1661
790 1910
790 1942
790 2085
790 2121
790 2370
790 2402
790 2556
790 2619
790 2623
790 2861
790 3038
790 3067
790 3155
790 3305
790 3746
790 3761
790 3784
790 3966
790 4004
790 4157
790 4165
790 4270
790 4418
790 4573
791 4045
791 4462
792 940
792 2602
793 962
793 1213
793 1661
793 1955
793 2160
793 2239
793 2589
793 2623
793 2738
793 2865
793 3038
793 3267
793 3311
793 3634
793 3667
793 4063
793 4270
793 4418
795 2360
795 2555
796 2313
796 2794
796 3267
797 940
797 1391
797 2059
797 2123
797 2664
797 3155
797 3174
797 3823
797 3891
798 963
798 1073
798 1091
798 1138
798 1167
798 1203
798 1547
798 1595
798 1621
798 1629
798 1850
798 1855
798 1985
798 2027
798 2252
798 2300
798 2505
798 2659
798 3042
798 3085
798 3526
798 3729
798 4140
798 4238
798 4410
798 4571
798 4654
798 4712
799 1347
799 1562
799 2277
799 2382
799 3085
799 4620
800 1396
800 3418
800 4645
801 1736
801 1792
801 3453
803 3748
804 3895
805 1968
805 2123
805 2252
805 2541
805 2643
805 3031
805 3053
805 3085
805 3960
805 4415
806 2560
807 3244
807 3249
807 3807
807 3971
808 4603
809 1133
809 2199
809 2936
809 3601
809 4566
810 1196
810 1323
810 1605
810 1704
810 1708
810 2147
810 2477
810 2552
810 2623
810 2703
810 2740
810 2769
810 2962
810 3142
810 3175
810 3288
810 3347
810 3435
810 3447
810 3515
810 3533
810 3848
810 3923
810 4151
810 4359
810 4374
810 4560
810 4685
811 825
811 979
811 1091
811 1528
811 1850
811 2027
811 3580
811 4001
811 4065
811 4140
811 4204
811 4672
812 1014
812 1081
812 1247
812 1487
812 1515
812 1752
812 1791
812 1933
812 2444
812 2582
812 2627
812 2717
812 2867
812 3033
812 3244
812 3577
812 3657
812 3705
812 3852
812 4071
812 4172
812 4176
812 4561
812 4664
813 1649
813 1661
813 2150
813 2276
813 2619
813 3183
813 3540
813 4637
814 1401
814 4415
816 1267
816 2688
816 3315
816 3857
816 4202
817 2075
817 3042
817 3299
817 3875
817 3972
817 4490
818 1103
818 1286
818 1295
818 1448
818 1456
818 1524
818 1643
818 1833
818 2093
818 2222
818 2343
818 2347
818 2350
818 2434
818 2451
818 2453
818 2503
818 2543
818 2623
818 2766
818 2780
818 2963
818 3105
818 3347
818 3435
818 3465
818 3480
818 3484
818 3532
818 3620
818 3682
818 3715
818 3722
818 3723
818 3726
818 3808
818 3946
818 4045
818 4082
818 4118
818 4180
818 4206
818 4270
818 4462
818 4615
818 4635
818 4671
818 4685
818 4705
819 1109
819 1554
819 1910
819 2067
819 2154
819 2454
819 2485
819 2664
819 3305
819 3452
819 3510
819 3601
819 3746
819 4201
819 4622
820 932
820 1398
820 2877
820 3176
820 4249
820 4331
820 4549
821 964
821 1408
821 1544
821 1578
821 1661
821 1674
821 1855
821 2300
821 2313
821 2794
821 3015
821 3093
821 3873
821 4001
821 4351
821 4466
821 4668
821 4671
822 960
822 1478
822 2217
822 2816
822 3001
822 3059
822 3177
822 3246
822 4035
822 4047
822 4560
822 4602
822 4669
823 998
823 1031
823 2262
823 2309
823 2657
823 3223
823 3243
823 3424
824 3502
825 964
825 979
825 1321
825 1524
825 1573
825 1601
825 1693
825 1700
825 1743
825 1749
825 1776
825 1895
825 2161
825 2300
825 2438
825 2477
825 2503
825 2543
825 2545
825 2623
825 2641
825 2710
825 2946
825 3025
825 3244
825 3254
825 3347
825 3369
825 3403
825 3435
825 3657
825 3694
825 3725
825 3726
825 3961
825 4001
825 4045
825 4161
825 4280
825 4296
825 4456
825 4462
825 4520
825 4531
825 4669
825 4672
826 1541
826 2623
826 4277
827 898
827 974
827 1139
827 1262
827 1687
827 2363
827 2476
827 2565
827 2958
827 4357
827 4506
827 4562
827 4676
828 901
828 986
828 1053
828 1151
828 1240
828 1601
828 1868
828 1898
828 2210
828 2355
828 2516
828 2936
828 3065
828 3149
828 3535
828 3869
828 4045
828 4063
828 4251
828 4637
828 4677
829 881
829 1103
829 1479
829 1638
829 2075
829 2298
829 2477
829 2521
829 2532
829 2543
829 2845
829 2880
829 3042
829 3288
829 3338
829 3562
829 3685
829 3787
829 3972
829 4238
829 4270
829 4369
829 4560
830 1237
830 1581
830 3085
830 3579
830 3917
831 1167
831 1373
831 1431
831 1625
831 1976
831 2098
831 2377
831 2479
831 2530
831 2543
831 2545
831 2556
831 2623
831 2780
831 2937
831 3304
831 3347
831 3551
831 3807
831 3866
831 4395
832 940
832 2919
832 3479
833 1091
833 2224
833 2252
833 2917
833 3526
833 3609
834 2643
834 4415
835 3263
836 1412
836 1850
836 3085
836 3766
836 4246
837 904
837 905
837 963
837 986
837 1114
837 1301
837 1487
837 1629
837 1788
837 1841
837 1985
837 2224
837 2252
837 2300
837 2589
837 2643
837 2659
837 2747
837 2887
837 3060
837 3085
837 3146
837 3281
837 3729
837 4001
837 4023
837 4028
837 4140
837 4234
837 4238
837 4322
837 4410
837 4483
837 4571
837 4626
837 4633
838 927
838 1509
838 1803
838 2591
838 2887
838 4001
838 4069
838 4333
839 1972
840 4667
841 2374
842 3433
843 856
843 919
843 1051
843 1570
843 1595
843 2079
843 2224
843 2811
843 3933
843 4367
843 4483
845 2364
845 3479
845 4228
846 2722
847 1400
847 1648
847 2000
847 2275
847 2546
847 2623
847 3022
847 3633
847 3808
847 3829
847 3894
847 4001
847 4025
848 3085
849 1565
849 1672
849 1691
849 1766
849 1797
849 2131
849 2266
849 2827
849 3059
849 3244
849 3555
849 3835
849 4151
849 4671
850 1444
850 1585
850 1595
850 1707
850 1717
850 1850
850 1875
850 2027
850 2252
850 2950
850 3287
850 3552
850 4415
850 4438
850 4544
850 4575
851 898
851 911
851 961
851 983
851 1139
851 3086
851 4315
852 4610
853 1386
853 1985
853 2925
853 3418
853 3627
853 3779
853 4259
854 1005
854 1594
854 1936
854 2388
854 3902
854 3921
854 4045
854 4615
855 1524
855 4180
856 877
856 905
856 940
856 968
856 979
856 986
856 1007
856 1011
856 1051
856 1066
856 1086
856 1090
856 1103
856 1151
856 1220
856 1242
856 1244
856 1296
856 1312
856 1314
856 1323
856 1354
856 1391
856 1396
856 1467
856 1524
856 1570
856 1575
856 1605
856 1638
856 1648
856 1661
856 1768
856 1776
856 1840
856 1843
856 1850
856 1855
856 1857
856 1860
856 1866
856 1941
856 1955
856 1983
856 2027
856 2058
856 2063
856 2088
856 2188
856 2199
856 2222
856 2227
856 2267
856 2277
856 2298
856 2299
856 2300
856 2304
856 2350
856 2372
856 2379
856 2471
856 2477
856 2516
856 2543
856 2554
856 2556
856 2576
856 2589
856 2598
856 2601
856 2607
856 2623
856 2654
856 2687
856 2698
856 2740
856 2759
856 2769
856 2794
856 2880
856 2974
856 3009
856 3015
856 3042
856 3053
856 3059
856 3070
856 3142
856 3233
856 3244
856 3268
856 3347
856 3395
856 3405
856 3435
856 3504
856 3523
856 3526
856 3536
856 3565
856 3578
856 3642
856 3646
856 3726
856 3732
856 3744
856 3808
856 3818
856 3829
856 3848
856 3856
856 3879
856 3893
856 3895
856 3907
856 3933
856 3960
856 4045
856 4151
856 4180
856 4202
856 4238
856 4259
856 4270
856 4333
856 4341
856 4359
856 4367
856 4373
856 4395
856 4413
856 4415
856 4424
856 4514
856 4520
856 4559
856 4560
856 4610
856 4613
856 4679
856 4685
856 4703
856 4707
856 4714
857 901
857 1575
857 2199
857 2516
857 2712
857 3149
857 3540
857 3905
858 1005
858 2388
858 3895
859 1976
859 2350
859 3105
859 3244
859 3347
859 4258
859 4395
859 4711
860 940
860 986
860 1435
860 1962
860 2192
860 2512
860 2543
860 2804
860 2818
860 3015
860 3059
860 3244
860 3435
860 4001
860 4011
860 4462
860 4522
860 4678
861 965
861 1109
861 1840
861 2038
861 2969
861 3155
861 3261
861 3452
861 3499
861 3746
861 4165
861 4201
861 4269
861 4588
862 900
862 1747
862 1891
862 1962
862 2114
862 2150
862 2322
862 2536
862 2693
862 2834
862 3042
862 3155
862 3274
862 3726
862 3884
862 4178
862 4698
863 4001
864 2793
864 4251
864 4270
865 4246
865 4408
866 889
866 1090
866 1155
866 1452
866 1481
866 1496
866 2173
866 2244
866 2284
866 2320
866 2829
866 3000
866 3044
866 4323
866 4543
866 4570
867 940
867 964
867 1063
867 1186
867 1478
867 1570
867 1671
867 1846
867 2150
867 2402
867 2805
867 2966
867 3587
867 3937
867 4035
867 4157
868 940
868 1223
868 1254
868 1362
868 1575
868 1773
868 1775
868 2346
868 2370
868 2556
868 2963
868 2993
868 3784
868 4117
868 4157
869 981
869 1540
869 1623
869 1681
869 2225
869 2302
869 2350
869 2505
869 2591
869 2771
869 3326
869 3622
869 4459
869 4503
869 4571
869 4654
869 4670
870 3158
871 2017
872 1707
872 4415
873 2360
873 2555
873 3404
874 964
875 933
876 1962
876 2615
876 3274
877 1016
877 1323
877 1413
877 1623
877 1831
877 2205
877 2382
877 3053
877 3085
877 3178
877 3495
877 4271
877 4415
877 4464
877 4670
878 1877
879 1696
879 2890
880 1114
880 1127
880 1167
880 1175
880 1301
880 1353
880 1460
880 1595
880 1623
880 1834
880 1985
880 2148
880 2231
880 2252
880 2267
880 2543
880 2567
880 2747
880 3085
880 3146
880 3590
880 4001
880 4036
880 4054
880 4238
880 4483
880 4568
880 4571
881 895
881 1570
881 1708
881 2075
881 2382
881 2503
881 2556
881 2717
881 3085
881 3786
881 3856
881 4001
881 4033
881 4185
881 4238
881 4462
882 1267
882 3315
882 4063
883 1546
883 3244
884 2479
884 4560
885 1581
885 2897
885 3622
885 4048
886 889
886 894
886 1090
886 1155
886 1452
886 1496
886 2160
886 2274
886 2376
886 2682
886 2829
886 2869
886 2983
886 3142
886 3188
886 3805
886 4154
886 4178
886 4206
886 4570
886 4653
887 2379
887 2846
887 2962
887 4023
888 3726
889 894
889 1090
889 1316
889 1496
889 2163
889 2173
889 2829
889 2850
889 2869
889 2983
889 3709
889 3843
889 4052
889 4206
889 4361
889 4468
889 4570
890 1708
891 2573
892 903
892 931
892 1220
892 1524
892 1712
892 2543
892 3022
892 3848
892 4001
892 4180
892 4571
892 4711
893 1304
893 1688
893 2999
893 4172
894 1090
894 1481
894 1496
894 2679
894 2829
894 3843
894 4206
894 4560
895 979
895 1509
895 1734
895 2213
895 3526
895 4537
896 3609
896 4011
897 1145
897 2091
897 4265
898 1256
898 2890
898 3501
899 1581
899 2122
899 2255
899 2643
899 3571
899 3579
900 962
900 993
900 1241
900 1426
900 1696
900 1776
900 1891
900 1902
900 1955
900 2039
900 2114
900 2259
900 2537
900 2654
900 2693
900 2834
900 2855
900 2992
900 2997
900 3127
900 3155
900 3207
900 3362
900 3414
900 3468
900 3502
900 3505
900 3595
900 3714
900 3726
900 4178
901 1005
901 1227
901 1240
901 1295
901 1323
901 1601
901 1868
901 1980
901 2390
901 2504
901 2516
901 2543
901 2549
901 2698
901 2760
901 2936
901 3233
901 3448
901 3466
901 3522
901 3540
901 3565
901 3616
901 3682
901 3744
901 3856
901 4251
901 4637
901 4640
902 927
902 1151
902 2430
902 3496
903 979
903 1091
903 1392
903 1524
903 1908
903 2267
903 2807
903 2913
903 3157
903 4001
903 4576
903 4650
904 945
904 963
904 978
904 1026
904 1114
904 1175
904 1182
904 1210
904 1271
904 1331
904 1334
904 1413
904 1449
904 1490
904 1581
904 1650
904 1759
904 2231
904 2252
904 2255
904 2367
904 2382
904 2407
904 2508
904 2515
904 2624
904 2643
904 2659
904 2702
904 2728
904 2777
904 2811
904 2847
904 3016
904 3036
904 3039
904 3085
904 3093
904 3126
904 3137
904 3151
904 3358
904 3532
904 3579
904 3673
904 3680
904 3697
904 3791
904 4028
904 4055
904 4276
904 4311
904 4320
904 4410
904 4415
904 4441
904 4516
904 4544
905 909
905 924
905 939
905 940
905 950
905 986
905 994
905 1062
905 1090
905 1169
905 1175
905 1186
905 1219
905 1323
905 1436
905 1437
905 1462
905 1524
905 1570
905 1575
905 1578
905 1611
905 1629
905 1681
905 1708
905 1719
905 1776
905 1781
905 1788
905 1962
905 2059
905 2086
905 2199
905 2243
905 2299
905 2313
905 2344
905 2350
905 2360
905 2393
905 2477
905 2503
905 2543
905 2552
905 2572
905 2623
905 2650
905 2680
905 2710
905 2717
905 2769
905 2814
905 2831
905 2915
905 2962
905 3015
905 3059
905 3060
905 3079
905 3146
905 3435
905 3470
905 3502
905 3530
905 3539
905 3563
905 3594
905 3607
905 3673
905 3708
905 3726
905 3744
905 3787
905 3848
905 3856
905 3913
905 3923
905 3951
905 3971
905 3976
905 4001
905 4161
905 4213
905 4215
905 4259
905 4374
905 4389
905 4462
905 4571
905 4671
905 4677
905 4685
905 4707
906 1209
906 2248
906 2691
906 3286
907 3085
908 1283
908 3633
908 3796
909 979
909 2298
909 2379
909 3042
909 3504
909 4520
909 4559
909 4685
910 1167
910 1280
910 1352
910 1378
910 1468
910 1478
910 1601
910 1743
910 1760
910 1855
910 2177
910 2300
910 2663
910 2937
910 3244
910 3249
910 3258
910 3587
910 3726
910 3738
910 3866
910 4001
910 4035
910 4083
910 4395
910 4405
910 4669
911 3501
912 947
912 1077
912 1465
912 1572
912 1611
912 1815
912 2700
912 2752
912 2759
912 2891
912 3244
912 3263
912 4560
912 4711
913 1421
913 1478
913 1485
913 1759
913 1775
913 1936
913 2439
913 2674
913 3085
913 3162
913 3766
913 4214
913 4266
913 4620
913 4663
914 1032
914 1362
914 2618
914 3315
914 3534
914 4155
915 1213
915 1414
915 1610
915 1923
915 2239
915 2801
915 3581
915 3634
915 3799
915 3899
915 4063
915 4374
915 4418
915 4470
915 4677
916 1720
917 3751
918 2201
919 979
919 1269
919 1296
919 1334
919 1396
919 1509
919 1517
919 1669
919 2053
919 2079
919 2199
919 2588
919 2811
919 2826
919 2862
919 3418
919 3467
919 3711
919 3757
919 3780
919 3858
919 3952
919 4245
919 4271
919 4333
919 4367
919 4464
919 4468
919 4671
920 1090
920 1724
920 2829
920 3835
920 3843
920 3883
920 4591
921 1638
921 2914
922 2227
923 1487
924 1091
924 1096
924 1391
924 1595
924 1681
924 1985
924 2063
924 2757
924 2917
924 3063
924 3085
924 3093
924 3419
924 3442
924 3903
924 4001
924 4355
924 4503
924 4571
924 4654
925 1383
925 4120
926 2372
926 3009
926 3578
926 4118
926 4299
926 4367
927 1209
927 1601
927 1666
927 1683
927 1707
927 1873
927 2350
927 2745
927 2887
927 3259
928 983
928 1080
928 1876
929 979
929 1091
929 2027
929 2252
929 2502
929 2515
929 2630
929 2928
929 3085
929 3281
929 3320
929 3766
929 4048
929 4234
929 4471
929 4571
930 1191
931 1524
931 2065
931 4180
932 1773
932 2362
932 2877
932 3042
932 3339
932 4331
933 1091
933 1167
933 1177
933 1595
933 2101
933 2148
933 2706
933 2740
933 2747
933 3421
933 3756
933 4140
933 4335
933 4682
934 2880
934 3341
935 1388
935 1890
935 2964
935 3786
935 3862
935 4001
936 1091
936 1413
936 2252
936 3085
936 3247
936 3860
936 4140
936 4248
936 4571
937 1007
937 1017
937 1103
937 1301
937 1335
937 1354
937 1570
937 1575
937 1591
937 1708
937 1866
937 2075
937 2093
937 2127
937 2139
937 2259
937 2274
937 2304
937 2338
937 2379
937 2471
937 2543
937 2550
937 2589
937 2598
937 2623
937 2679
937 2698
937 2759
937 2803
937 3012
937 3042
937 3175
937 3268
937 3435
937 3504
937 3562
937 3582
937 3633
937 3726
937 3791
937 3834
937 3895
937 3960
937 4026
937 4238
937 4270
937 4395
937 4410
937 4520
937 4541
937 4559
937 4560
937 4707
937 4711
938 2464
939 979
939 1036
939 1039
939 1585
939 2379
939 3042
939 3254
939 3403
939 3504
939 3704
939 3834
939 4005
939 4531
940 964
940 969
940 972
940 979
940 986
940 1001
940 1005
940 1031
940 1103
940 1112
940 1135
940 1149
940 1151
940 1167
940 1175
940 1186
940 1202
940 1221
940 1295
940 1323
940 1362
940 1378
940 1391
940 1421
940 1442
940 1448
940 1456
940 1498
940 1524
940 1531
940 1532
940 1570
940 1575
940 1601
940 1638
940 1648
940 1656
940 1660
940 1670
940 1689
940 1747
940 1771
940 1775
940 1815
940 1843
940 1855
940 1866
940 1883
940 1891
940 1936
940 1962
940 1977
940 1983
940 1993
940 2044
940 2059
940 2062
940 2075
940 2088
940 2166
940 2173
940 2199
940 2204
940 2236
940 2277
940 2304
940 2319
940 2350
940 2353
940 2377
940 2379
940 2396
940 2402
940 2430
940 2434
940 2451
940 2471
940 2512
940 2516
940 2530
940 2543
940 2555
940 2556
940 2589
940 2598
940 2607
940 2623
940 2678
940 2679
940 2696
940 2698
940 2732
940 2759
940 2788
940 2794
940 2881
940 2887
940 2919
940 2974
940 2983
940 3009
940 3038
940 3042
940 3059
940 3060
940 3065
940 3105
940 3107
940 3125
940 3244
940 3261
940 3263
940 3268
940 3288
940 3312
940 3347
940 3395
940 3411
940 3435
940 3437
940 3474
940 3480
940 3504
940 3509
940 3523
940 3526
940 3542
940 3551
940 3565
940 3601
940 3626
940 3630
940 3633
940 3634
940 3682
940 3708
940 3726
940 3732
940 3744
940 3794
940 3800
940 3808
940 3829
940 3834
940 3835
940 3843
940 3856
940 3873
940 3888
940 3891
940 3895
940 3902
940 3922
940 3934
940 3960
940 3971
940 3981
940 4001
940 4029
940 4034
940 4040
940 4045
940 4046
940 4061
940 4063
940 4108
940 4151
940 4161
940 4180
940 4214
940 4225
940 4236
940 4238
940 4241
940 4258
940 4270
940 4280
940 4307
940 4361
940 4377
940 4381
940 4395
940 4462
940 4497
940 4520
940 4559
940 4598
940 4602
940 4613
940 4615
940 4663
940 4669
940 4671
940 4677
940 4687
940 4694
940 4707
940 4711
941 2840
942 1354
942 1478
942 1846
943 2122
944 1417
944 1795
944 2269
944 2430
944 2631
944 2686
944 2795
944 2843
944 2894
944 2951
944 3496
944 4001
945 1175
945 1265
945 1759
945 1834
945 1886
945 1928
945 1979
945 1987
945 2005
945 2068
945 2098
945 2280
945 2344
945 2643
945 2728
945 2889
945 3016
945 3085
945 3093
945 3170
945 3579
945 3594
945 3697
945 3790
945 4068
945 4213
945 4311
945 4320
945 4410
945 4415
945 4516
945 4715
946 1102
946 1772
946 2096
946 2208
946 2467
946 2622
946 3665
946 3886
946 3945
946 4454
947 1611
947 1666
947 3515
947 4001
947 4329
948 1167
948 1177
948 1191
948 1365
948 1547
948 2002
948 2023
948 2294
948 2686
948 2757
948 2894
948 3061
948 3645
948 3684
948 3906
948 4146
948 4659
949 1261
949 1291
949 1685
949 1943
949 2010
949 3318
949 3464
949 3815
949 3984
949 4447
949 4590
950 1759
950 1781
950 4538
951 1523
951 1671
951 1692
951 2185
951 2658
951 2936
951 2975
951 3034
951 3127
951 3221
951 3250
951 3348
951 3554
951 3605
951 3699
951 3950
951 4021
951 4082
951 4242
951 4412
951 4634
952 1799
952 2282
952 2523
954 979
954 1273
954 1827
954 2264
954 2520
954 2749
954 3031
954 3088
954 3958
954 4571
955 1843
957 1067
958 4386
959 2379
960 1478
960 2093
960 2453
960 2543
960 3001
960 3246
960 3258
960 3562
960 3587
960 3620
960 4035
960 4270
960 4469
960 4685
961 3501
962 995
962 1661
962 1747
962 1936
962 1955
962 2156
962 2180
962 2514
962 3155
962 3744
962 4332
963 1026
963 1047
963 1114
963 1175
963 1203
963 1301
963 1324
963 1413
963 1562
963 1584
963 1629
963 1677
963 1788
963 1959
963 1987
963 2075
963 2255
963 2280
963 2541
963 2543
963 2555
963 2589
963 2643
963 2659
963 2746
963 2911
963 3039
963 3085
963 3087
963 3093
963 3238
963 3320
963 3358
963 3579
963 4048
963 4245
963 4320
963 4322
963 4360
963 4410
963 4415
963 4463
963 4708
964 979
964 986
964 1005
964 1027
964 1167
964 1304
964 1323
964 1362
964 1367
964 1381
964 1391
964 1421
964 1467
964 1532
964 1541
964 1544
964 1545
964 1562
964 1570
964 1575
964 1661
964 1671
964 1681
964 1743
964 1775
964 1776
964 1831
964 1855
964 1891
964 1985
964 2074
964 2098
964 2126
964 2146
964 2187
964 2203
964 2313
964 2402
964 2430
964 2439
964 2479
964 2489
964 2543
964 2552
964 2556
964 2607
964 2619
964 2623
964 2698
964 2714
964 2747
964 2814
964 3085
964 3089
964 3093
964 3222
964 3240
964 3244
964 3249
964 3288
964 3784
964 3824
964 3888
964 3920
964 3959
964 4001
964 4063
964 4080
964 4142
964 4157
964 4180
964 4617
964 4677
964 4685
965 1010
965 1092
965 1109
965 2067
965 2074
965 2260
965 2506
965 3042
965 3726
965 3746
965 3924
965 3971
965 4201
965 4593
966 1413
966 1623
966 2224
966 2539
966 2864
966 2989
966 4001
967 4490
968 1383
968 1941
968 2300
968 3244
968 3565
968 3718
969 1570
969 1575
969 1675
969 1747
969 2358
969 2607
969 2974
969 3791
969 3981
969 4016
969 4225
969 4239
969 4607
970 1033
971 3508
972 986
972 1103
972 1120
972 1189
972 1274
972 1453
972 1490
972 1498
972 1517
972 1570
972 1572
972 1628
972 1629
972 1666
972 1693
972 1880
972 2079
972 2080
972 2199
972 2225
972 2350
972 2438
972 2451
972 2496
972 2505
972 2543
972 2639
972 2698
972 3060
972 3244
972 3370
972 3435
972 3511
972 3616
972 3742
972 3971
972 4011
972 4023
972 4112
972 4626
972 4677
972 4685
972 4702
973 1005
973 1590
973 1742
973 1818
973 1957
973 2077
973 2336
973 2543
973 2738
973 2996
973 3038
973 3311
973 3343
973 3345
973 3416
973 3438
973 3726
973 3781
973 4001
973 4063
973 4192
973 4237
973 4414
973 4603
974 1256
974 1663
974 1720
974 2565
974 2890
974 2958
974 3068
974 3464
974 3994
974 4003
974 4293
974 4357
974 4423
974 4676
975 1261
975 1454
975 1685
975 1696
975 1878
975 2089
975 2099
975 2415
975 3318
975 3464
975 4208
975 4590
976 2595
977 2942
977 3378
977 4062
977 4439
977 4677
977 4695
979 986
979 1047
979 1061
979 1075
979 1081
979 1090
979 1127
979 1159
979 1175
979 1182
979 1189
979 1259
979 1269
979 1274
979 1283
979 1290
979 1296
979 1301
979 1302
979 1318
979 1323
979 1334
979 1344
979 1391
979 1409
979 1436
979 1453
979 1458
979 1462
979 1466
979 1478
979 1490
979 1509
979 1514
979 1524
979 1532
979 1549
979 1559
979 1562
979 1570
979 1575
979 1598
979 1613
979 1623
979 1629
979 1638
979 1650
979 1666
979 1688
979 1692
979 1693
979 1700
979 1708
979 1712
979 1717
979 1719
979 1746
979 1749
979 1757
979 1759
979 1775
979 1776
979 1793
979 1804
979 1815
979 1825
979 1826
979 1831
979 1843
979 1870
979 1880
979 1886
979 1917
979 1937
979 1941
979 1982
979 1985
979 2000
979 2005
979 2042
979 2053
979 2063
979 2068
979 2079
979 2080
979 2087
979 2106
979 2113
979 2117
979 2148
979 2154
979 2162
979 2183
979 2188
979 2197
979 2199
979 2201
979 2225
979 2227
979 2231
979 2265
979 2269
979 2280
979 2299
979 2313
979 2349
979 2350
979 2360
979 2365
979 2370
979 2372
979 2379
979 2388
979 2393
979 2407
979 2430
979 2434
979 2457
979 2465
979 2466
979 2477
979 2489
979 2498
979 2503
979 2505
979 2518
979 2523
979 2539
979 2543
979 2556
979 2612
979 2619
979 2623
979 2628
979 2659
979 2661
979 2669
979 2693
979 2696
979 2702
979 2717
979 2728
979 2745
979 2763
979 2777
979 2808
979 2830
979 2847
979 2850
979 2864
979 2882
979 2883
979 2910
979 2911
979 2924
979 2933
979 2946
979 2951
979 2962
979 2980
979 2986
979 3015
979 3016
979 3022
979 3031
979 3032
979 3036
979 3042
979 3050
979 3059
979 3085
979 3127
979 3137
979 3146
979 3151
979 3162
979 3167
979 3187
979 3244
979 3249
979 3263
979 3281
979 3291
979 3295
979 3308
979 3314
979 3315
979 3320
979 3341
979 3347
979 3361
979 3367
979 3369
979 3375
979 3378
979 3383
979 3388
979 3410
979 3418
979 3419
979 3435
979 3472
979 3479
979 3487
979 3496
979 3508
979 3523
979 3526
979 3582
979 3594
979 3609
979 3673
979 3682
979 3697
979 3725
979 3732
979 3744
979 3780
979 3787
979 3790
979 3791
979 3804
979 3808
979 3825
979 3829
979 3832
979 3834
979 3848
979 3918
979 3945
979 3946
979 3961
979 4001
979 4023
979 4024
979 4028
979 4033
979 4040
979 4045
979 4056
979 4068
979 4087
979 4145
979 4151
979 4157
979 4161
979 4164
979 4169
979 4180
979 4213
979 4225
979 4246
979 4262
979 4287
979 4309
979 4322
979 4329
979 4333
979 4335
979 4351
979 4367
979 4374
979 4382
979 4402
979 4404
979 4408
979 4415
979 4441
979 4462
979 4503
979 4534
979 4537
979 4551
979 4558
979 4572
979 4578
979 4592
979 4597
979 4602
979 4616
979 4620
979 4626
979 4639
979 4670
979 4671
979 4677
979 4702
979 4707
980 1048
980 1061
980 1114
980 1153
980 1950
980 2188
980 2546
980 3244
980 3341
980 3368
980 3430
980 3532
980 4182
980 4246
980 4276
981 1072
981 1793
981 2623
981 3326
981 3360
981 4445
981 4510
981 4674
983 1715
983 1954
983 2345
983 2798
983 2825
983 3091
983 4232
983 4315
983 4517
984 1061
984 1096
984 1621
984 1834
984 2949
984 3276
984 3762
985 1374
985 1379
985 1468
985 1550
985 1762
985 1891
985 1955
985 2068
985 2114
985 2246
985 2543
985 2693
985 3502
985 4172
986 997
986 998
986 1135
986 1151
986 1167
986 1236
986 1319
986 1339
986 1367
986 1391
986 1510
986 1511
986 1601
986 1623
986 1648
986 1670
986 1688
986 1743
986 1747
986 1759
986 1815
986 1891
986 1962
986 1974
986 1985
986 2038
986 2105
986 2133
986 2135
986 2207
986 2228
986 2281
986 2323
986 2353
986 2406
986 2430
986 2483
986 2552
986 2623
986 2641
986 2681
986 2698
986 2747
986 2814
986 2854
986 2867
986 2937
986 2962
986 3015
986 3079
986 3212
986 3243
986 3244
986 3310
986 3352
986 3354
986 3367
986 3418
986 3431
986 3479
986 3496
986 3526
986 3582
986 3610
986 3744
986 3937
986 3981
986 4001
986 4023
986 4045
986 4051
986 4528
986 4626
986 4628
986 4633
987 989
987 1109
987 1554
987 2379
987 2454
987 2606
987 2617
987 2800
987 2875
987 2969
987 3120
987 3322
987 3452
987 3510
987 3746
987 3799
987 4201
987 4443
987 4593
987 4622
987 4684
987 4686
988 2703
989 1010
989 1115
989 1342
989 1415
989 1416
989 1441
989 1467
989 1554
989 2074
989 2109
989 2489
989 2543
989 2548
989 2619
989 2623
989 3067
989 3083
989 3154
989 3184
989 3322
989 3612
989 3746
989 3822
989 3845
989 4070
989 4201
989 4270
989 4442
989 4520
989 4521
989 4622
990 1091
990 1595
990 2224
990 3729
990 3860
991 1840
991 3305
991 3452
991 4034
991 4201
991 4418
991 4595
992 1090
992 2244
993 1130
993 1323
993 2259
993 2664
993 3512
993 4270
993 4474
993 4588
994 1062
994 1570
994 1681
994 2086
994 4001
994 4707
995 1267
995 1955
996 1397
996 1570
996 2451
996 3181
996 3304
996 3758
996 3866
996 4374
997 1041
997 2698
997 3435
997 3582
997 3619
997 4011
997 4522
997 4633
998 1309
998 1510
998 2126
998 2379
998 2430
998 2475
998 2584
998 2829
998 3244
998 3779
998 3981
998 4520
999 1248
999 3945
999 4702
1000 2925
1001 2350
1001 2514
1001 2543
1001 2794
1001 3042
1001 4658
1002 2558
1002 3477
1002 4011
1003 1286
1003 1740
1003 1741
1003 1815
1003 1833
1003 1970
1003 2168
1003 2303
1003 3870
1003 3946
1003 3969
1003 4198
1003 4406
1003 4706
1004 2178
1004 2596
1005 1007
1005 1042
1005 1064
1005 1103
1005 1130
1005 1151
1005 1167
1005 1183
1005 1240
1005 1280
1005 1295
1005 1321
1005 1323
1005 1391
1005 1395
1005 1442
1005 1524
1005 1545
1005 1565
1005 1570
1005 1594
1005 1598
1005 1601
1005 1608
1005 1725
1005 1843
1005 1855
1005 1962
1005 1977
1005 2038
1005 2075
1005 2082
1005 2092
1005 2098
1005 2135
1005 2190
1005 2199
1005 2300
1005 2379
1005 2388
1005 2400
1005 2451
1005 2477
1005 2516
1005 2543
1005 2552
1005 2556
1005 2601
1005 2607
1005 2623
1005 2698
1005 2703
1005 2745
1005 2779
1005 2780
1005 2859
1005 2866
1005 2919
1005 2937
1005 2974
1005 3015
1005 3042
1005 3065
1005 3085
1005 3155
1005 3244
1005 3274
1005 3288
1005 3304
1005 3305
1005 3369
1005 3387
1005 3392
1005 3395
1005 3425
1005 3487
1005 3504
1005 3527
1005 3542
1005 3551
1005 3565
1005 3620
1005 3668
1005 3744
1005 3866
1005 3869
1005 3902
1005 3921
1005 3971
1005 4001
1005 4045
1005 4063
1005 4173
1005 4270
1005 4363
1005 4374
1005 4395
1005 4406
1005 4462
1005 4515
1005 4520
1005 4560
1005 4671
1005 4677
1005 4685
1005 4707
1006 1575
1006 1868
1006 2756
1007 1112
1007 1219
1007 1220
1007 1283
1007 1295
1007 1323
1007 1333
1007 1379
1007 1391
1007 1437
1007 1524
1007 1570
1007 1611
1007 1681
1007 1708
1007 1776
1007 1826
1007 1941
1007 2072
1007 2119
1007 2201
1007 2299
1007 2350
1007 2372
1007 2451
1007 2477
1007 2479
1007 2503
1007 2543
1007 2589
1007 2623
1007 2703
1007 2749
1007 2788
1007 3009
1007 3059
1007 3060
1007 3180
1007 3218
1007 3369
1007 3435
1007 3539
1007 3633
1007 3726
1007 3787
1007 3818
1007 3835
1007 3848
1007 3856
1007 3857
1007 3891
1007 3923
1007 3958
1007 3973
1007 4180
1007 4367
1007 4462
1007 4463
1007 4571
1007 4677
1007 4685
1007 4707
1008 1359
1008 4332
1009 1090
1009 1712
1009 4052
1010 1103
1010 1109
1010 1660
1010 1817
1010 2067
1010 2074
1010 2093
1010 2121
1010 2260
1010 2548
1010 2562
1010 3042
1010 3261
1010 3562
1010 3620
1010 3623
1010 3746
1010 3835
1010 4165
1010 4231
1010 4622
1010 4671
1010 4685
1011 1090
1011 1397
1011 1448
1011 1570
1011 1625
1011 2160
1011 2199
1011 2222
1011 2299
1011 2556
1011 2586
1011 2607
1011 2623
1011 2780
1011 2829
1011 3044
1011 3188
1011 3418
1011 3469
1011 3484
1011 3939
1011 4001
1011 4023
1011 4082
1011 4209
1011 4598
1012 3188
1013 1090
1013 1496
1013 2829
1013 3528
1013 4154
1013 4206
1013 4300
1014 2732
1014 2867
1014 3295
1014 4172
1014 4546
1015 2451
1015 4237
1016 1107
1016 1323
1016 1412
1016 1601
1016 1623
1016 1638
1016 1759
1016 1843
1016 1977
1016 2205
1016 2645
1016 2714
1016 2954
1016 3039
1016 3053
1016 3085
1016 3252
1016 3418
1016 3495
1016 3669
1016 3680
1016 3766
1016 4214
1016 4410
1016 4415
1017 1186
1017 1323
1017 2259
1017 2280
1017 2350
1017 2543
1017 2623
1017 2698
1017 2710
1017 2759
1017 2788
1017 3059
1017 3060
1017 3288
1017 3435
1017 3607
1017 3694
1017 3708
1017 3798
1017 3848
1017 4151
1017 4462
1017 4472
1017 4497
1017 4532
1017 4560
1017 4646
1017 4707
1019 1054
1019 2254
1020 1054
1020 1570
1021 1693
1021 2591
1021 3276
1023 1102
1023 1170
1023 1522
1023 2096
1023 2208
1023 2467
1023 3122
1023 3275
1023 3568
1023 3886
1023 3945
1023 4454
1024 2942
1024 2972
1024 3378
1024 3463
1024 4151
1024 4270
1024 4677
1024 4695
1025 1975
1025 2408
1025 2923
1025 3561
1025 4009
1025 4395
1026 1091
1026 1114
1026 1788
1026 2252
1026 2267
1026 2302
1026 2479
1026 2911
1026 3085
1026 3622
1026 4140
1026 4294
1026 4410
1026 4568
1026 4571
1028 3286
1028 4270
1029 2207
1029 3159
1030 2122
1030 3160
1030 4213
1031 1086
1031 1158
1031 1179
1031 1203
1031 1264
1031 1274
1031 1318
1031 1357
1031 1455
1031 1490
1031 1549
1031 1595
1031 1629
1031 1788
1031 1827
1031 1867
1031 1918
1031 1928
1031 1983
1031 2053
1031 2068
1031 2079
1031 2101
1031 2106
1031 2225
1031 2252
1031 2349
1031 2391
1031 2393
1031 2401
1031 2501
1031 2539
1031 2567
1031 2602
1031 2623
1031 2639
1031 2659
1031 2862
1031 2911
1031 2924
1031 2967
1031 2986
1031 3146
1031 3170
1031 3367
1031 3387
1031 3482
1031 3493
1031 3553
1031 3594
1031 3609
1031 3653
1031 3790
1031 3791
1031 3832
1031 3858
1031 3940
1031 3961
1031 4055
1031 4068
1031 4234
1031 4271
1031 4329
1031 4367
1031 4395
1031 4616
1031 4626
1032 1154
1032 1240
1032 1267
1032 1671
1032 1882
1032 2402
1032 2549
1032 2556
1032 2618
1032 2843
1032 3315
1032 3534
1032 4155
1032 4266
1034 3420
1034 3501
1035 1216
1036 1163
1036 1321
1036 1601
1036 2438
1036 2471
1036 2488
1036 3042
1036 3114
1036 3149
1036 3155
1036 3206
1036 3260
1036 3395
1036 3458
1036 3504
1036 3693
1036 3907
1036 3923
1036 4030
1036 4045
1036 4161
1036 4293
1036 4462
1036 4489
1036 4517
1036 4520
1036 4636
1036 4683
1036 4709
1037 1656
1037 2451
1037 3285
1037 4008
1037 4387
1038 1090
1038 1244
1038 1304
1038 1396
1038 3504
1040 2362
1041 1511
1041 1673
1041 1755
1041 2148
1041 2462
1041 2899
1041 3085
1041 3088
1041 3281
1041 3326
1041 3476
1041 4415
1042 1054
1042 1151
1042 1227
1042 1426
1042 1503
1042 1601
1042 1844
1042 1891
1042 2114
1042 2254
1042 2259
1042 2516
1042 2536
1042 2654
1042 2664
1042 2693
1042 2829
1042 2992
1042 2997
1042 3019
1042 3027
1042 3038
1042 3077
1042 3155
1042 3303
1042 3363
1042 3440
1042 3714
1042 3805
1042 3907
1042 4060
1042 4062
1042 4178
1042 4413
1042 4553
1042 4707
1043 3971
1044 1553
1044 2221
1044 2454
1044 2617
1044 2623
1044 3155
1044 3452
1044 3856
1044 4201
1045 2105
1045 3744
1046 2910
1046 4144
1046 4448
1047 1271
1047 1413
1047 1562
1047 1626
1047 1750
1047 2382
1047 2643
1047 2674
1047 3085
1047 3579
1047 4214
1047 4415
1048 1950
1048 2811
1048 3368
1049 3869
1050 1843
1050 2234
1051 1242
1051 1269
1051 1296
1051 1304
1051 1391
1051 1516
1051 1517
1051 1570
1051 2053
1051 2079
1051 2106
1051 2222
1051 2275
1051 2280
1051 2299
1051 2588
1051 2599
1051 2811
1051 2830
1051 2862
1051 3418
1051 3533
1051 3711
1051 3757
1051 3858
1051 3893
1051 3952
1051 4001
1051 4271
1051 4367
1051 4438
1051 4453
1051 4464
1052 1645
1052 2026
1053 1109
1053 1240
1053 1478
1053 1980
1053 2067
1053 2121
1053 2150
1053 2210
1053 2297
1053 2322
1053 2390
1053 2443
1053 2470
1053 2504
1053 2516
1053 2598
1053 2615
1053 2693
1053 2712
1053 2936
1053 3149
1053 3155
1053 3234
1053 3283
1053 3540
1053 3616
1053 3644
1053 3746
1053 3869
1053 4045
1053 4178
1053 4251
1053 4321
1053 4376
1053 4418
1053 4462
1053 4593
1053 4637
1053 4686
1053 4707
1054 1100
1054 1224
1054 1267
1054 1503
1054 1532
1054 1570
1054 1643
1054 1891
1054 1955
1054 2259
1054 2297
1054 2573
1054 2578
1054 2664
1054 2997
1054 3038
1054 3155
1054 3293
1054 3362
1054 3414
1054 3595
1054 3714
1054 3805
1054 4062
1054 4178
1054 4520
1054 4564
1054 4653
1054 4694
1055 1230
1055 1322
1055 2238
1055 2272
1055 2497
1055 3409
1055 3582
1056 1498
1056 2409
1056 2812
1056 2943
1056 3586
1056 4043
1056 4119
1057 1091
1057 3341
1057 3365
1057 3553
1057 4415
1058 3061
1059 1357
1059 1421
1059 2451
1059 3161
1059 4055
1060 1467
1060 2370
1060 2489
1060 3154
1060 3972
1061 1065
1061 1096
1061 1301
1061 1323
1061 1377
1061 1406
1061 1409
1061 1445
1061 1509
1061 1591
1061 1661
1061 1692
1061 1693
1061 1735
1061 1834
1061 1858
1061 2027
1061 2063
1061 2075
1061 2161
1061 2280
1061 2379
1061 2437
1061 2522
1061 2546
1061 2696
1061 2720
1061 2763
1061 2887
1061 2949
1061 2980
1061 3012
1061 3042
1061 3050
1061 3059
1061 3063
1061 3085
1061 3093
1061 3126
1061 3218
1061 3249
1061 3269
1061 3347
1061 3368
1061 3379
1061 3419
1061 3446
1061 3472
1061 3532
1061 3579
1061 3598
1061 3744
1061 3770
1061 3826
1061 3834
1061 3935
1061 4001
1061 4055
1061 4063
1061 4085
1061 4145
1061 4190
1061 4195
1061 4333
1061 4363
1061 4402
1061 4415
1061 4436
1061 4544
1061 4627
1061 4646
1061 4654
1063 1151
1063 1478
1063 2032
1063 2150
1063 3754
1063 4004
1063 4035
1063 4351
1063 4635
1063 4707
1064 1391
1064 2445
1064 2556
1064 4614
1065 1834
1065 2075
1065 2650
1065 3218
1065 3368
1065 4482
1066 1095
1066 1124
1066 1151
1066 1167
1066 1354
1066 1442
1066 1570
1066 1575
1066 1601
1066 2115
1066 2135
1066 2199
1066 2377
1066 2543
1066 2607
1066 2623
1066 2698
1066 2814
1066 2937
1066 3059
1066 3551
1066 3565
1066 3718
1066 3726
1066 3971
1066 4045
1066 4333
1066 4677
1066 4685
1066 4706
1067 1409
1067 1693
1067 4495
1068 2933
1068 4124
1069 1256
1069 3501
1070 1114
1070 1175
1070 1401
1070 1430
1070 1562
1070 1595
1070 1707
1070 1717
1070 2145
1070 2623
1070 3552
1070 3579
1070 4177
1070 4347
1070 4415
1070 4463
1070 4572
1070 4708
1071 4074
1072 2623
1072 3326
1072 3360
1072 4134
1072 4445
1072 4510
1072 4674
1073 1421
1073 1733
1073 1977
1073 2747
1073 3085
1073 3262
1073 3353
1073 3495
1073 3553
1073 3766
1073 4001
1074 1467
1074 1566
1074 2489
1075 1581
1075 1598
1075 2087
1075 2122
1075 2278
1075 2289
1075 2302
1075 2643
1075 2882
1075 3085
1075 3093
1075 3579
1075 4276
1075 4415
1075 4572
1076 3237
1077 1463
1077 1611
1077 1965
1077 2788
1077 4707
1078 1467
1078 2489
1081 1259
1081 1381
1081 1578
1081 1591
1081 1843
1081 1855
1081 2285
1081 2388
1081 2669
1081 2707
1081 2717
1081 2915
1081 3093
1081 3244
1081 3369
1081 3427
1081 3657
1081 4001
1081 4172
1081 4556
1082 1168
1082 1601
1082 1700
1082 2387
1082 2517
1082 3042
1082 3674
1083 2543
1083 2612
1083 3261
1083 3600
1083 3792
1083 3949
1083 4602
1084 2951
1085 3496
1086 1323
1086 1448
1086 1744
1086 2199
1086 2340
1086 4514
1087 3084
1088 1611
1089 3121
1090 1097
1090 1103
1090 1124
1090 1155
1090 1193
1090 1268
1090 1269
1090 1296
1090 1304
1090 1314
1090 1316
1090 1323
1090 1362
1090 1396
1090 1452
1090 1481
1090 1496
1090 1508
1090 1516
1090 1559
1090 1570
1090 1625
1090 1724
1090 1926
1090 1932
1090 2160
1090 2163
1090 2173
1090 2188
1090 2222
1090 2244
1090 2284
1090 2320
1090 2376
1090 2379
1090 2390
1090 2434
1090 2516
1090 2517
1090 2586
1090 2682
1090 2687
1090 2688
1090 2697
1090 2817
1090 2829
1090 2830
1090 2869
1090 2983
1090 3000
1090 3037
1090 3038
1090 3042
1090 3044
1090 3059
1090 3188
1090 3205
1090 3325
1090 3347
1090 3428
1090 3528
1090 3533
1090 3592
1090 3646
1090 3709
1090 3731
1090 3758
1090 3805
1090 3818
1090 3843
1090 3883
1090 3980
1090 4052
1090 4154
1090 4157
1090 4178
1090 4206
1090 4300
1090 4323
1090 4367
1090 4413
1090 4462
1090 4532
1090 4543
1090 4570
1090 4615
1090 4653
1090 4679
1090 4692
1091 1121
1091 1127
1091 1138
1091 1144
1091 1158
1091 1161
1091 1182
1091 1189
1091 1210
1091 1250
1091 1260
1091 1264
1091 1273
1091 1274
1091 1288
1091 1319
1091 1320
1091 1324
1091 1440
1091 1449
1091 1455
1091 1460
1091 1488
1091 1490
1091 1549
1091 1564
1091 1567
1091 1623
1091 1629
1091 1644
1091 1650
1091 1651
1091 1653
1091 1700
1091 1749
1091 1785
1091 1788
1091 1796
1091 1827
1091 1867
1091 1872
1091 1886
1091 1913
1091 1918
1091 1928
1091 1992
1091 1998
1091 2005
1091 2068
1091 2094
1091 2101
1091 2117
1091 2127
1091 2226
1091 2231
1091 2245
1091 2264
1091 2308
1091 2312
1091 2349
1091 2367
1091 2386
1091 2391
1091 2393
1091 2401
1091 2407
1091 2418
1091 2421
1091 2429
1091 2457
1091 2465
1091 2501
1091 2502
1091 2508
1091 2515
1091 2539
1091 2567
1091 2579
1091 2602
1091 2639
1091 2643
1091 2644
1091 2659
1091 2661
1091 2702
1091 2717
1091 2728
1091 2732
1091 2735
1091 2745
1091 2746
1091 2777
1091 2778
1091 2796
1091 2864
1091 2911
1091 2918
1091 2924
1091 2928
1091 2935
1091 2941
1091 2946
1091 2978
1091 3016
1091 3028
1091 3036
1091 3055
1091 3126
1091 3137
1091 3146
1091 3151
1091 3190
1091 3203
1091 3251
1091 3254
1091 3295
1091 3326
1091 3357
1091 3367
1091 3380
1091 3387
1091 3398
1091 3403
1091 3421
1091 3470
1091 3478
1091 3493
1091 3499
1091 3546
1091 3579
1091 3594
1091 3653
1091 3673
1091 3697
1091 3742
1091 3790
1091 3791
1091 3825
1091 3832
1091 3897
1091 3913
1091 3940
1091 3961
1091 4000
1091 4028
1091 4055
1091 4068
1091 4116
1091 4173
1091 4248
1091 4288
1091 4316
1091 4318
1091 4329
1091 4330
1091 4355
1091 4441
1091 4449
1091 4459
1091 4467
1091 4471
1091 4484
1091 4487
1091 4513
1091 4531
1091 4547
1091 4558
1091 4576
1091 4577
1091 4616
1091 4626
1091 4639
1091 4641
1091 4673
1091 4682
1091 4708
1091 4712
1091 4715
1092 1109
1092 1346
1092 1442
1092 1553
1092 1554
1092 1601
1092 1817
1092 1962
1092 2038
1092 2135
1092 2260
1092 2454
1092 2488
1092 2800
1092 3155
1092 3184
1092 3452
1092 3746
1092 3772
1092 3783
1092 4143
1092 4198
1092 4201
1092 4231
1092 4485
1092 4593
1092 4685
1092 4686
1093 2670
1093 2691
1093 2902
1093 4630
1094 1452
1094 2489
1094 2556
1094 2682
1094 2721
1094 2829
1094 3843
1094 4206
1095 1174
1095 1310
1095 1323
1095 1391
1095 1477
1095 1656
1095 1684
1095 2075
1095 2095
1095 2445
1095 2530
1095 2543
1095 2573
1095 2623
1095 2654
1095 2780
1095 2837
1095 2887
1095 2975
1095 3042
1095 3347
1095 3435
1095 3608
1095 4022
1096 1103
1096 1153
1096 1413
1096 1445
1096 1623
1096 1834
1096 2063
1096 2225
1096 2252
1096 2379
1096 2401
1096 2421
1096 2451
1096 2522
1096 2567
1096 2885
1096 2887
1096 3036
1096 3042
1096 3050
1096 3063
1096 3126
1096 3151
1096 3175
1096 3244
1096 3303
1096 3419
1096 3472
1096 3579
1096 3598
1096 3653
1096 3704
1096 3780
1096 3834
1096 4028
1096 4046
1096 4055
1096 4161
1096 4195
1096 4298
1096 4333
1096 4359
1096 4464
1096 4615
1096 4649
1096 4654
1096 4671
1096 4674
1096 4707
1097 1544
1097 2173
1097 2347
1097 2377
1097 2379
1097 2780
1097 2817
1097 3038
1097 3244
1097 3303
1097 3347
1097 3484
1097 3551
1097 3805
1097 3808
1097 4178
1097 4206
1097 4280
1097 4395
1097 4532
1097 4548
1097 4707
1098 3526
1098 4556
1099 2476
1099 4018
1100 1503
1100 3293
1100 4067
1101 1102
1101 1170
1101 1522
1101 2208
1101 2467
1101 3123
1101 3568
1101 3886
1101 4454
1102 1170
1102 1522
1102 1632
1102 1772
1102 2096
1102 2208
1102 2467
1102 2622
1102 3122
1102 3123
1102 3568
1102 3665
1102 3886
1102 4454
1103 1151
1103 1186
1103 1286
1103 1301
1103 1321
1103 1323
1103 1374
1103 1379
1103 1391
1103 1442
1103 1448
1103 1456
1103 1462
1103 1524
1103 1531
1103 1562
1103 1570
1103 1575
1103 1584
1103 1601
1103 1638
1103 1643
1103 1659
1103 1674
1103 1681
1103 1692
1103 1708
1103 1718
1103 1735
1103 1758
1103 1776
1103 1797
1103 1833
1103 1843
1103 1940
1103 1947
1103 1962
1103 1976
1103 1993
1103 2059
1103 2065
1103 2071
1103 2093
1103 2139
1103 2173
1103 2199
1103 2204
1103 2220
1103 2222
1103 2347
1103 2350
1103 2360
1103 2365
1103 2379
1103 2400
1103 2434
1103 2451
1103 2477
1103 2503
1103 2543
1103 2548
1103 2552
1103 2555
1103 2623
1103 2654
1103 2679
1103 2688
1103 2698
1103 2703
1103 2740
1103 2779
1103 2780
1103 2859
1103 2959
1103 2962
1103 2969
1103 3035
1103 3042
1103 3059
1103 3060
1103 3105
1103 3145
1103 3244
1103 3255
1103 3261
1103 3288
1103 3307
1103 3347
1103 3435
1103 3437
1103 3449
1103 3465
1103 3484
1103 3502
1103 3509
1103 3533
1103 3560
1103 3562
1103 3607
1103 3620
1103 3682
1103 3688
1103 3694
1103 3708
1103 3715
1103 3726
1103 3744
1103 3753
1103 3808
1103 3835
1103 3848
1103 3856
1103 3857
1103 3891
1103 3918
1103 3923
1103 3971
1103 4017
1103 4021
1103 4045
1103 4082
1103 4144
1103 4151
1103 4161
1103 4171
1103 4180
1103 4182
1103 4359
1103 4374
1103 4376
1103 4395
1103 4462
1103 4497
1103 4544
1103 4559
1103 4560
1103 4567
1103 4613
1103 4615
1103 4671
1103 4677
1103 4685
1103 4689
1103 4707
1103 4714
1104 2982
1105 1804
1106 1601
1107 1158
1107 1626
1107 1644
1107 1834
1107 1937
1107 1977
1107 2059
1107 2226
1107 2602
1107 2645
1107 2735
1107 3546
1107 3708
1107 3773
1107 3848
1107 4173
1108 1696
1108 2890
1108 2958
1109 1554
1109 2154
1109 2454
1109 2488
1109 2606
1109 2617
1109 2800
1109 2875
1109 3120
1109 3155
1109 3305
1109 3322
1109 3746
1109 3749
1109 3799
1109 4361
1109 4418
1109 4443
1109 4593
1109 4622
1109 4686
1110 1714
1111 1397
1111 3181
1112 1283
1112 1312
1112 1570
1112 1893
1112 2304
1112 2477
1112 2503
1112 2555
1112 2788
1112 2910
1112 3059
1112 3060
1112 3268
1112 3435
1112 3848
1112 3856
1112 4367
1112 4374
1113 2543
1114 1175
1114 1203
1114 1318
1114 1323
1114 1324
1114 1331
1114 1334
1114 1353
1114 1367
1114 1413
1114 1421
1114 1439
1114 1465
1114 1485
1114 1490
1114 1575
1114 1618
1114 1623
1114 1626
1114 1629
1114 1653
1114 1666
1114 1734
1114 1743
1114 1788
1114 1831
1114 1847
1114 1850
1114 1875
1114 1977
1114 1985
1114 1998
1114 2027
1114 2098
1114 2101
1114 2105
1114 2122
1114 2148
1114 2225
1114 2252
1114 2340
1114 2367
1114 2505
1114 2643
1114 2645
1114 2659
1114 2740
1114 2747
1114 2796
1114 2824
1114 2911
1114 2925
1114 3022
1114 3039
1114 3085
1114 3093
1114 3218
1114 3238
1114 3281
1114 3326
1114 3327
1114 3333
1114 3341
1114 3353
1114 3365
1114 3450
1114 3519
1114 3529
1114 3532
1114 3538
1114 3590
1114 3609
1114 3669
1114 3680
1114 3756
1114 3766
1114 4001
1114 4028
1114 4136
1114 4138
1114 4182
1114 4320
1114 4352
1114 4396
1114 4415
1114 4503
1114 4534
1114 4576
1114 4615
1114 4670
1114 4674
1114 4677
1114 4708
1115 1418
1115 2617
1115 2823
1115 3591
1115 3785
1115 3845
1115 4492
1115 4647
1116 1971
1116 2566
1117 1240
1117 1840
1117 2121
1117 2246
1117 2549
1117 3155
1117 3322
1117 3448
1117 3452
1117 3512
1117 3616
1117 4201
1117 4272
1117 4418
1117 4477
1117 4539
1117 4588
1118 1205
1118 1895
1118 2829
1118 3354
1118 3881
1120 1318
1120 1421
1120 1448
1120 1575
1120 1598
1120 1797
1120 1843
1120 1947
1120 2075
1120 2113
1120 2543
1120 2880
1120 2969
1120 3042
1120 3218
1120 3244
1120 3342
1120 3382
1120 3414
1120 3620
1120 4298
1120 4497
1120 4559
1120 4671
1120 4685
1121 1175
1121 1331
1121 1421
1121 1539
1121 1985
1121 2224
1121 2225
1121 2302
1121 2505
1121 2846
1121 2981
1121 3085
1121 3196
1121 3266
1121 3361
1121 3499
1121 4001
1121 4136
1121 4215
1121 4534
1121 4568
1121 4571
1122 2090
1123 2689
1124 1155
1124 1452
1124 1570
1124 2320
1124 2829
1124 4323
1125 2338
1126 2669
1127 1460
1127 2224
1127 4571
1128 2710
1129 3960
1130 2388
1130 3277
1130 3542
1131 1145
1131 2091
1132 1262
1132 1696
1132 4152
1133 2350
1133 2936
1135 1194
1135 2395
1135 2641
1135 2709
1135 3157
1135 3550
1135 3582
1135 3619
1135 3799
1135 4011
1135 4101
1135 4524
1136 2457
1137 4171
1138 1629
1138 2252
1138 2505
1138 2894
1138 3590
1138 3831
1138 4140
1138 4352
1138 4484
1138 4571
1138 4712
1139 1375
1139 1696
1139 3771
1139 4208
1140 3560
1141 1843
1141 4520
1142 1344
1142 1707
1142 1937
1142 2104
1142 2714
1142 2876
1142 3339
1142 4056
1142 4085
1142 4157
1142 4282
1142 4320
1142 4415
1143 4208
1144 1175
1144 1413
1144 1992
1144 2252
1144 2643
1144 3085
1144 3341
1144 3532
1144 3579
1144 4045
1144 4238
1145 2091
1146 2003
1146 2348
1146 2419
1146 3926
1146 4018
1147 2335
1149 2678
1149 2881
1150 1770
1150 2974
1150 3065
1151 1186
1151 1214
1151 1230
1151 1267
1151 1274
1151 1358
1151 1448
1151 1524
1151 1551
1151 1570
1151 1595
1151 1601
1151 1670
1151 1673
1151 1693
1151 1708
1151 1735
1151 1755
1151 1776
1151 1891
1151 1930
1151 2021
1151 2068
1151 2148
1151 2167
1151 2190
1151 2199
1151 2205
1151 2375
1151 2376
1151 2452
1151 2477
1151 2479
1151 2482
1151 2543
1151 2550
1151 2586
1151 2598
1151 2607
1151 2609
1151 2623
1151 2639
1151 2647
1151 2664
1151 2698
1151 2731
1151 2739
1151 2760
1151 2829
1151 2877
1151 2887
1151 2972
1151 2974
1151 2992
1151 3005
1151 3059
1151 3155
1151 3190
1151 3221
1151 3244
1151 3283
1151 3418
1151 3435
1151 3511
1151 3602
1151 3615
1151 3712
1151 3726
1151 3753
1151 3799
1151 3881
1151 3981
1151 4089
1151 4172
1151 4174
1151 4180
1151 4287
1151 4298
1151 4341
1151 4367
1151 4395
1151 4520
1151 4531
1151 4539
1151 4626
1151 4674
1151 4677
1151 4707
1152 1792
1153 1581
1153 2188
1153 2199
1153 2347
1153 2451
1153 2543
1153 2643
1153 3532
1153 3744
1153 4182
1153 4276
1153 4367
1153 4415
1153 4468
1153 4602
1153 4615
1153 4671
1153 4685
1154 1254
1154 1323
1154 1362
1154 1448
1154 2556
1154 3085
1154 4045
1154 4082
1154 4157
1154 4620
1155 1452
1155 1496
1155 2173
1155 2320
1156 2829
1157 1779
1158 1439
1158 1651
1158 1841
1158 2036
1158 2184
1158 2224
1158 2252
1158 2643
1158 2645
1158 2732
1158 3085
1158 3729
1158 4046
1159 1357
1159 1564
1159 1708
1159 1913
1159 2418
1159 2457
1159 2508
1159 2967
1159 3571
1159 4055
1159 4213
1159 4330
1159 4513
1159 4639
1159 4641
1160 1828
1161 1600
1161 2252
1161 4140
1161 4571
1162 2599
1162 4333
1163 1561
1163 2024
1163 2118
1163 2820
1163 3003
1163 3237
1163 3263
1165 3068
1166 2217
1166 3639
1167 1309
1167 1321
1167 1324
1167 1344
1167 1381
1167 1394
1167 1399
1167 1439
1167 1485
1167 1490
1167 1524
1167 1564
1167 1570
1167 1601
1167 1623
1167 1625
1167 1629
1167 1690
1167 1725
1167 1743
1167 1746
1167 1760
1167 1942
1167 2050
1167 2079
1167 2098
1167 2148
1167 2231
1167 2300
1167 2339
1167 2353
1167 2377
1167 2506
1167 2543
1167 2545
1167 2556
1167 2589
1167 2607
1167 2623
1167 2669
1167 2698
1167 2714
1167 2724
1167 2732
1167 2814
1167 2862
1167 2919
1167 2937
1167 3015
1167 3032
1167 3042
1167 3085
1167 3093
1167 3146
1167 3249
1167 3281
1167 3303
1167 3329
1167 3347
1167 3435
1167 3582
1167 3726
1167 3744
1167 3786
1167 3791
1167 3848
1167 3859
1167 4001
1167 4011
1167 4045
1167 4058
1167 4161
1167 4180
1167 4255
1167 4395
1167 4406
1167 4534
1167 4541
1167 4576
1167 4683
1167 4690
1167 4708
1168 4418
1169 2203
1169 2300
1169 3054
1169 4011
1169 4513
1170 1522
1170 1632
1170 2208
1170 2467
1170 3122
1170 3123
1170 3568
1170 3886
1172 3084
1173 2659
1174 1310
1174 1391
1174 1462
1174 2445
1174 2759
1174 2827
1174 2952
1174 3830
1174 3972
1174 4342
1174 4671
1175 1179
1175 1296
1175 1331
1175 1341
1175 1421
1175 1488
1175 1549
1175 1562
1175 1581
1175 1584
1175 1626
1175 1666
1175 1669
1175 1677
1175 1707
1175 1732
1175 1738
1175 1759
1175 1788
1175 1874
1175 1908
1175 1959
1175 1979
1175 1996
1175 2087
1175 2122
1175 2123
1175 2127
1175 2145
1175 2189
1175 2193
1175 2222
1175 2225
1175 2252
1175 2265
1175 2308
1175 2344
1175 2350
1175 2382
1175 2556
1175 2595
1175 2624
1175 2643
1175 2650
1175 2661
1175 2674
1175 2680
1175 2717
1175 2732
1175 2824
1175 2826
1175 2831
1175 2847
1175 2882
1175 2962
1175 3016
1175 3031
1175 3039
1175 3057
1175 3069
1175 3085
1175 3093
1175 3111
1175 3129
1175 3135
1175 3146
1175 3160
1175 3162
1175 3281
1175 3333
1175 3341
1175 3390
1175 3402
1175 3442
1175 3486
1175 3495
1175 3508
1175 3532
1175 3543
1175 3544
1175 3579
1175 3622
1175 3653
1175 3661
1175 3680
1175 3699
1175 3708
1175 3766
1175 3791
1175 3829
1175 3960
1175 3970
1175 4002
1175 4045
1175 4046
1175 4055
1175 4088
1175 4136
1175 4213
1175 4218
1175 4347
1175 4408
1175 4410
1175 4415
1175 4504
1175 4544
1175 4615
1175 4708
1176 4576
1177 1191
1177 1365
1177 1547
1177 2002
1177 2023
1177 2148
1177 2275
1177 2294
1177 2686
1177 2757
1177 2894
1177 3061
1177 3421
1177 3645
1177 3684
1177 3906
1177 3908
1177 4011
1177 4146
1177 4659
1177 4682
1178 3746
1178 3941
1179 2122
1179 2346
1179 3085
1179 3093
1179 3614
1179 4088
1179 4464
1180 2933
1180 3379
1180 3412
1180 3518
1181 4520
1182 1331
1182 1421
1182 1733
1182 1847
1182 2643
1182 3729
1182 4001
1182 4136
1182 4140
1183 2388
1183 3277
1183 3542
1184 1389
1184 4043
1185 4502
1186 1227
1186 1301
1186 1308
1186 1323
1186 1391
1186 1448
1186 1453
1186 1462
1186 1575
1186 1585
1186 1693
1186 1708
1186 1735
1186 1939
1186 1985
1186 2065
1186 2075
1186 2088
1186 2304
1186 2308
1186 2350
1186 2379
1186 2471
1186 2525
1186 2552
1186 2598
1186 2623
1186 2698
1186 2759
1186 2859
1186 2975
1186 2986
1186 2997
1186 3012
1186 3042
1186 3059
1186 3166
1186 3175
1186 3264
1186 3268
1186 3288
1186 3347
1186 3395
1186 3413
1186 3435
1186 3504
1186 3562
1186 3601
1186 3609
1186 3669
1186 3744
1186 3753
1186 3825
1186 3832
1186 3835
1186 3856
1186 3907
1186 4045
1186 4183
1186 4189
1186 4298
1186 4395
1186 4406
1186 4462
1186 4487
1186 4520
1186 4559
1186 4560
1186 4668
1186 4711
1187 1313
1187 3797
1187 3986
1188 1584
1188 3378
1188 3506
1188 3829
1188 4677
1189 1370
1189 1621
1189 1985
1189 2224
1189 2300
1189 2367
1189 3036
1189 3085
1189 3126
1189 3151
1189 3435
1189 3526
1189 3669
1189 3729
1189 4140
1189 4430
1189 4568
1189 4571
1190 3071
1191 1365
1191 1490
1191 1547
1191 2002
1191 2023
1191 2294
1191 2686
1191 2757
1191 2894
1191 3061
1191 3645
1191 3684
1191 3906
1191 4146
1191 4659
1192 1613
1192 2228
1192 3488
1195 1318
1195 1488
1195 2501
1195 4187
1196 1323
1196 1442
1196 1448
1196 1681
1196 1704
1196 1776
1196 2116
1196 2601
1196 2623
1196 2740
1196 2780
1196 3216
1196 3347
1196 3515
1196 4017
1196 4082
1196 4151
1197 1524
1197 1638
1197 1951
1197 2370
1197 2396
1197 2402
1197 2556
1197 3188
1197 3616
1197 4180
1198 1214
1198 1934
1198 2883
1198 3370
1201 1333
1201 1826
1201 2000
1201 2372
1201 2692
1201 2749
1201 3958
1202 2379
1202 2974
1202 3146
1202 3496
1202 3586
1202 3744
1202 4043
1202 4119
1203 1301
1203 1413
1203 1421
1203 1581
1203 1595
1203 1629
1203 1985
1203 2252
1203 2300
1203 2543
1203 2659
1203 2746
1203 3042
1203 3085
1203 3756
1203 4483
1203 4568
1203 4571
1203 4654
1203 4708
1204 1795
1205 1214
1205 1453
1205 1774
1205 1804
1205 1978
1205 2379
1205 2552
1205 2868
1205 3164
1205 3786
1205 3849
1205 3881
1205 3945
1205 4023
1205 4037
1205 4171
1205 4287
1205 4425
1205 4515
1205 4671
1205 4702
1205 4711
1206 1572
1206 1962
1206 2942
1206 3378
1206 4677
1206 4695
1207 1498
1207 4043
1208 2299
1208 3648
1208 3893
1208 4579
1209 1439
1209 2017
1209 2090
1209 2199
1209 2541
1209 2552
1209 2637
1209 2643
1209 2695
1209 3035
1209 3053
1209 3106
1209 3223
1209 3607
1209 3766
1209 3787
1209 3960
1209 4026
1209 4396
1209 4415
1209 4537
1210 1595
1210 2367
1210 2541
1210 3036
1210 3042
1210 3085
1210 3126
1210 3435
1210 4410
1210 4430
1210 4571
1211 3565
1212 1843
1213 1414
1213 1616
1213 1923
1213 2167
1213 2239
1213 2310
1213 2543
1213 2623
1213 3038
1213 3059
1213 3634
1213 3799
1213 4063
1213 4222
1213 4409
1213 4418
1214 1934
1214 2883
1214 3155
1214 3518
1214 4023
1214 4671
1215 1698
1216 1759
1216 3492
1217 3243
1217 4259
1218 2862
1218 3779
1218 4259
1218 4645
1219 1570
1219 2123
1219 2910
1219 3579
1219 4276
1219 4431
1219 4465
1220 1584
1220 1712
1220 1941
1220 2372
1220 2623
1220 3405
1220 3578
1220 3646
1220 3796
1220 4367
1220 4707
1220 4711
1221 1524
1221 1860
1221 1938
1221 2304
1221 2321
1221 2601
1221 2879
1221 3240
1221 3268
1221 3347
1221 3428
1221 3888
1221 4168
1221 4180
1221 4183
1221 4191
1221 4413
1222 2407
1223 1421
1223 1850
1223 2214
1223 2451
1223 2556
1223 2623
1223 2714
1223 3085
1223 3365
1223 3766
1223 3784
1223 4117
1223 4161
1223 4408
1224 1503
1224 2150
1224 2489
1224 2586
1224 2817
1224 3038
1224 3347
1224 3588
1224 3805
1224 4178
1224 4591
1224 4653
1226 3341
1227 1431
1227 2623
1227 3347
1227 3438
1227 4332
1227 4395
1228 4135
1229 3018
1229 3420
1229 4208
1230 1255
1230 1322
1230 1776
1230 2238
1230 2272
1230 2552
1230 3052
1230 3409
1230 3582
1230 3594
1230 4187
1230 4660
1231 3092
1232 1334
1232 1413
1232 1875
1232 2175
1232 2255
1232 2826
1232 3093
1232 3571
1232 4001
1232 4276
1232 4476
1232 4592
1233 2237
1233 2238
1233 2391
1233 2461
1233 3582
1234 4169
1235 1781
1235 2529
1235 2956
1236 1575
1236 1891
1236 1955
1236 2550
1236 2586
1236 2615
1236 2664
1236 2693
1236 3038
1236 3155
1236 3298
1236 3675
1236 3820
1236 4016
1236 4163
1236 4239
1236 4519
1236 4607
1238 4217
1239 1688
1239 2225
1239 2312
1239 2918
1239 2924
1240 1423
1240 1524
1240 1601
1240 1671
1240 1776
1240 1811
1240 1868
1240 1883
1240 1920
1240 1980
1240 2015
1240 2077
1240 2185
1240 2210
1240 2279
1240 2297
1240 2322
1240 2390
1240 2400
1240 2402
1240 2470
1240 2516
1240 2536
1240 2556
1240 2607
1240 2712
1240 2936
1240 3149
1240 3234
1240 3435
1240 3448
1240 3535
1240 3540
1240 3616
1240 3699
1240 3869
1240 3905
1240 3932
1240 4045
1240 4180
1240 4251
1240 4418
1240 4637
1240 4707
1241 1902
1241 2013
1241 2834
1241 3155
1241 3263
1241 3363
1241 3539
1241 3744
1241 4564
1241 4635
1241 4685
1242 1391
1242 1570
1242 2199
1242 2222
1242 2299
1242 2698
1242 2850
1242 2862
1242 2995
1242 3042
1242 3347
1242 3418
1242 3504
1242 4644
1242 4645
1243 2550
1243 3263
1243 3625
1243 4455
1244 2451
1244 2769
1244 4161
1246 4685
1247 3657
1249 2366
1250 3526
1250 4140
1250 4571
1251 3900
1253 1542
1254 1362
1254 1490
1254 1575
1254 1626
1254 1775
1254 2556
1254 2721
1254 3188
1254 4117
1254 4157
1254 4368
1255 1301
1255 1434
1255 1453
1255 1623
1255 1759
1255 1804
1255 2379
1255 2702
1255 2850
1255 2887
1255 2889
1255 3306
1255 3780
1255 3786
1255 3849
1255 3856
1255 4001
1255 4023
1255 4078
1255 4321
1255 4415
1255 4515
1255 4544
1256 1262
1256 1720
1256 2363
1256 2565
1256 2774
1256 2890
1256 3068
1256 3086
1256 3393
1256 4208
1256 4357
1256 4423
1256 4676
1257 2229
1257 2362
1257 2877
1257 3176
1257 4050
1258 1478
1259 1296
1259 1575
1259 1759
1259 1815
1259 1840
1259 2063
1259 2717
1259 3107
1259 3146
1259 3244
1259 3281
1259 3313
1259 3472
1259 3880
1259 4001
1259 4011
1259 4175
1259 4384
1259 4467
1259 4515
1260 2224
1260 2252
1260 3609
1260 4001
1260 4048
1260 4571
1261 1291
1261 1685
1261 1943
1261 2010
1261 2034
1261 2089
1261 2415
1261 3318
1261 3464
1261 3815
1261 3984
1261 4447
1261 4590
1262 2666
1262 2787
1262 3263
1262 3501
1262 4423
1263 3017
1264 1644
1264 1977
1264 2059
1264 2143
1264 2224
1264 2252
1264 2602
1264 2645
1264 2732
1264 2735
1264 2974
1264 3085
1264 3546
1264 3729
1264 3913
1264 4001
1264 4046
1264 4571
1265 1274
1265 1650
1265 1759
1265 1796
1265 1886
1265 1928
1265 1979
1265 2005
1265 2068
1265 2236
1265 2252
1265 2300
1265 2518
1265 2702
1265 2717
1265 2728
1265 2777
1265 2935
1265 3016
1265 3137
1265 3170
1265 3367
1265 3470
1265 3594
1265 3673
1265 3697
1265 3790
1265 4068
1265 4213
1265 4288
1265 4311
1265 4516
1265 4558
1265 4715
1266 1692
1266 2471
1266 3375
1266 4461
1267 1462
1267 1503
1267 1557
1267 1575
1267 1891
1267 1955
1267 2039
1267 2156
1267 2247
1267 2263
1267 2350
1267 2543
1267 2573
1267 2586
1267 2654
1267 2834
1267 2835
1267 2843
1267 2845
1267 2866
1267 2906
1267 2997
1267 3038
1267 3060
1267 3127
1267 3155
1267 3171
1267 3293
1267 3315
1267 3345
1267 3384
1267 3429
1267 3436
1267 3457
1267 3534
1267 3551
1267 3588
1267 3686
1267 3805
1267 3817
1267 4096
1267 4178
1267 4186
1267 4482
1267 4519
1267 4520
1267 4564
1267 4566
1268 1496
1268 1625
1268 2299
1268 2376
1268 2543
1268 2697
1268 3528
1268 4052
1268 4154
1269 1396
1269 1985
1269 2079
1269 2199
1269 2222
1269 2224
1269 2299
1269 2649
1269 2747
1269 2811
1269 3933
1269 4001
1269 4140
1269 4367
1269 4483
1270 2691
1270 2902
1270 3185
1270 4218
1271 1413
1271 2098
1271 2123
1271 2505
1271 2643
1271 2728
1271 2732
1271 3031
1271 3093
1271 4068
1271 4171
1271 4396
1271 4667
1273 2027
1273 2252
1273 2264
1273 2332
1273 2935
1273 3031
1273 3088
1273 3493
1273 3622
1273 4571
1274 1413
1274 1421
1274 1595
1274 1759
1274 1841
1274 2252
1274 2300
1274 2344
1274 2526
1274 2717
1274 2935
1274 3063
1274 4410
1274 4516
1274 4568
1275 2466
1278 4514
1279 4212
1279 4336
1280 1323
1280 1399
1280 1478
1280 1572
1280 1846
1280 1904
1280 2150
1280 2276
1280 2453
1280 2598
1280 2712
1280 2793
1280 3001
1280 3244
1280 3258
1280 3347
1280 3587
1280 3738
1280 3873
1280 3972
1280 4035
1280 4047
1280 4180
1280 4258
1280 4395
1280 4469
1280 4485
1280 4669
1281 1377
1281 1573
1281 1693
1281 1749
1281 1839
1281 1858
1281 2027
1281 2545
1281 2591
1281 2887
1281 2946
1281 3025
1281 3101
1281 3403
1281 3630
1281 3704
1281 3826
1281 3961
1281 4531
1281 4552
1281 4654
1282 1733
1282 4001
1283 1312
1283 1544
1283 1584
1283 1652
1283 1712
1283 1759
1283 1941
1283 2000
1283 2188
1283 2304
1283 2307
1283 2372
1283 2543
1283 2552
1283 2860
1283 2955
1283 2987
1283 3009
1283 3059
1283 3244
1283 3268
1283 3341
1283 3405
1283 3526
1283 3679
1283 3796
1283 3808
1283 3829
1283 4001
1283 4246
1283 4299
1283 4367
1283 4408
1283 4462
1283 4657
1283 4711
1284 1575
1285 3644
1286 1643
1286 1741
1286 1833
1286 1970
1286 2343
1286 2352
1286 3234
1286 3465
1286 3563
1286 3722
1286 3726
1286 3884
1286 3946
1286 4198
1286 4406
1286 4671
1287 3532
1287 4276
1288 1549
1288 2224
1288 2252
1288 3491
1288 4140
1288 4670
1289 3378
1289 4062
1289 4677
1290 1570
1290 2449
1290 3710
1290 4367
1290 4408
1291 1685
1291 1878
1291 1943
1291 2415
1291 3984
1292 2829
1293 2080
1294 3489
1294 3736
1295 1333
1295 1399
1295 1582
1295 1601
1295 1661
1295 1815
1295 2379
1295 2390
1295 2470
1295 2516
1295 2760
1295 3042
1295 3065
1295 3205
1295 3234
1295 3446
1295 3448
1295 3466
1295 3532
1295 3616
1295 3644
1295 3682
1295 3808
1295 3869
1295 4408
1295 4646
1295 4671
1296 1396
1296 1518
1296 1595
1296 1911
1296 1931
1296 1985
1296 2173
1296 2215
1296 2222
1296 2430
1296 2516
1296 2517
1296 2561
1296 2588
1296 2645
1296 2680
1296 2747
1296 2811
1296 2869
1296 3042
1296 3533
1296 3631
1296 3858
1296 3933
1296 4001
1296 4120
1296 4140
1296 4206
1296 4333
1296 4367
1296 4413
1296 4453
1297 2112
1297 2725
1297 2784
1297 4279
1298 1744
1298 2088
1298 2340
1298 3216
1298 3607
1298 3787
1298 4045
1300 4233
1301 1318
1301 1323
1301 1334
1301 1374
1301 1391
1301 1490
1301 1514
1301 1524
1301 1601
1301 1613
1301 1626
1301 1653
1301 1666
1301 1788
1301 1834
1301 1855
1301 1928
1301 1987
1301 2005
1301 2063
1301 2075
1301 2119
1301 2231
1301 2252
1301 2280
1301 2360
1301 2367
1301 2379
1301 2445
1301 2451
1301 2471
1301 2479
1301 2498
1301 2523
1301 2598
1301 2623
1301 2624
1301 2659
1301 2661
1301 2696
1301 2732
1301 2745
1301 2796
1301 2830
1301 2850
1301 2887
1301 2910
1301 2935
1301 2941
1301 3036
1301 3039
1301 3042
1301 3093
1301 3126
1301 3137
1301 3146
1301 3244
1301 3286
1301 3341
1301 3347
1301 3367
1301 3369
1301 3403
1301 3467
1301 3472
1301 3502
1301 3538
1301 3579
1301 3594
1301 3607
1301 3609
1301 3653
1301 3670
1301 3680
1301 3681
1301 3697
1301 3708
1301 3742
1301 3762
1301 3790
1301 3791
1301 3848
1301 3871
1301 3923
1301 3972
1301 3997
1301 4001
1301 4036
1301 4045
1301 4055
1301 4173
1301 4180
1301 4182
1301 4195
1301 4291
1301 4316
1301 4322
1301 4333
1301 4347
1301 4382
1301 4410
1301 4467
1301 4524
1301 4531
1301 4534
1301 4544
1301 4626
1301 4654
1301 4674
1301 4707
1302 1504
1302 1524
1302 1598
1302 1601
1302 1712
1302 1782
1302 1814
1302 2269
1302 2350
1302 2451
1302 2763
1302 3682
1302 3722
1302 4270
1302 4351
1302 4402
1302 4671
1303 1761
1303 2887
1303 3093
1303 3281
1304 1421
1304 1471
1304 1516
1304 1562
1304 2222
1304 2439
1304 2747
1304 2814
1304 3244
1304 3490
1304 3824
1305 2993
1306 2890
1306 2958
1307 1584
1307 2227
1307 2635
1307 3698
1307 3829
1307 4001
1307 4190
1307 4360
1308 1379
1308 1524
1308 1601
1308 1638
1308 1681
1308 1708
1308 1737
1308 1776
1308 2059
1308 2075
1308 2274
1308 2303
1308 2379
1308 2471
1308 2477
1308 2503
1308 2552
1308 2623
1308 2703
1308 2874
1308 2962
1308 3035
1308 3042
1308 3288
1308 3536
1308 3787
1308 3923
1308 4026
1308 4038
1308 4180
1308 4270
1308 4489
1308 4671
1309 1383
1309 1453
1309 1774
1309 1921
1309 2379
1309 2868
1309 2965
1309 3146
1309 3306
1309 3786
1309 3788
1309 3849
1309 4001
1309 4023
1309 4171
1309 4515
1309 4702
1311 1855
1311 2550
1311 3244
1311 3455
1311 3923
1312 1570
1312 1697
1312 2188
1312 2222
1312 2299
1312 2503
1312 2755
1312 2769
1312 3009
1312 3268
1312 3405
1312 3533
1312 3780
1312 3818
1312 3829
1312 3835
1312 3893
1312 4052
1312 4206
1312 4367
1312 4587
1313 2107
1313 2311
1313 2531
1313 3489
1313 3797
1313 3986
1313 4207
1313 4399
1314 1532
1314 3085
1315 4105
1317 2317
1317 4582
1317 4658
1318 1331
1318 1437
1318 1439
1318 1488
1318 1595
1318 1801
1318 1985
1318 2027
1318 2224
1318 2252
1318 2302
1318 2501
1318 2623
1318 3063
1318 3085
1318 3419
1318 3729
1318 3852
1318 3972
1318 4001
1318 4136
1318 4187
1318 4534
1318 4571
1318 4654
1320 2040
1320 2224
1320 2252
1320 2986
1320 3622
1320 4140
1320 4234
1320 4415
1320 4449
1320 4571
1320 4619
1321 1391
1321 1442
1321 1601
1321 1700
1321 1895
1321 2038
1321 2098
1321 2353
1321 2471
1321 2545
1321 2623
1321 2698
1321 2759
1321 2974
1321 3042
1321 3244
1321 3254
1321 3270
1321 3399
1321 3403
1321 3504
1321 3560
1321 3562
1321 3696
1321 3704
1321 3726
1321 3732
1321 3808
1321 3873
1321 3971
1321 4023
1321 4045
1321 4161
1321 4258
1321 4293
1321 4406
1321 4520
1321 4622
1321 4709
1322 2238
1322 2272
1322 3409
1322 3582
1323 1354
1323 1374
1323 1379
1323 1391
1323 1421
1323 1442
1323 1448
1323 1456
1323 1524
1323 1532
1323 1562
1323 1570
1323 1575
1323 1591
1323 1601
1323 1605
1323 1648
1323 1671
1323 1704
1323 1708
1323 1790
1323 1815
1323 1843
1323 1869
1323 1934
1323 1977
1323 2065
1323 2075
1323 2088
1323 2093
1323 2145
1323 2147
1323 2150
1323 2192
1323 2203
1323 2217
1323 2228
1323 2263
1323 2276
1323 2304
1323 2313
1323 2340
1323 2350
1323 2359
1323 2360
1323 2365
1323 2379
1323 2434
1323 2451
1323 2471
1323 2472
1323 2477
1323 2503
1323 2517
1323 2543
1323 2552
1323 2555
1323 2556
1323 2598
1323 2623
1323 2654
1323 2658
1323 2679
1323 2696
1323 2698
1323 2703
1323 2717
1323 2740
1323 2756
1323 2759
1323 2877
1323 2887
1323 2910
1323 2949
1323 2962
1323 2974
1323 2975
1323 3012
1323 3042
1323 3052
1323 3089
1323 3166
1323 3216
1323 3263
1323 3268
1323 3288
1323 3338
1323 3347
1323 3357
1323 3435
1323 3496
1323 3504
1323 3515
1323 3533
1323 3601
1323 3633
1323 3696
1323 3708
1323 3726
1323 3744
1323 3780
1323 3787
1323 3800
1323 3808
1323 3821
1323 3829
1323 3830
1323 3834
1323 3848
1323 3853
1323 3888
1323 3902
1323 3907
1323 3923
1323 3937
1323 3972
1323 4001
1323 4010
1323 4035
1323 4045
1323 4056
1323 4083
1323 4151
1323 4161
1323 4162
1323 4171
1323 4180
1323 4214
1323 4235
1323 4238
1323 4270
1323 4284
1323 4374
1323 4381
1323 4395
1323 4415
1323 4422
1323 4474
1323 4495
1323 4520
1323 4559
1323 4560
1323 4615
1323 4677
1323 4685
1323 4695
1323 4707
1323 4711
1324 2252
1324 3085
1324 3238
1324 4140
1325 1688
1325 2800
1325 2875
1325 3155
1325 3482
1325 3499
1325 3799
1325 4004
1325 4534
1325 4577
1325 4622
1325 4686
1326 1492
1326 4167
1327 2389
1328 1475
1328 2691
1328 3690
1329 1895
1329 2900
1329 3420
1329 4208
1331 1413
1331 1439
1331 1449
1331 1488
1331 1562
1331 1834
1331 2075
1331 2280
1331 2501
1331 2541
1331 2643
1331 3085
1331 3087
1331 3093
1331 3358
1331 3380
1331 3442
1331 3478
1331 3499
1331 3579
1331 3615
1331 4116
1331 4136
1331 4218
1331 4245
1331 4276
1331 4320
1331 4415
1331 4534
1331 4616
1332 2220
1332 4151
1332 4602
1333 1584
1333 1826
1333 2304
1333 2357
1333 2477
1333 2503
1333 2543
1333 2749
1333 2922
1333 2962
1333 3532
1333 3958
1333 3972
1333 4169
1333 4367
1333 4701
1333 4711
1334 1413
1334 1509
1334 1549
1334 1562
1334 1600
1334 1618
1334 1717
1334 1825
1334 1875
1334 1979
1334 1985
1334 2042
1334 2054
1334 2063
1334 2122
1334 2123
1334 2228
1334 2252
1334 2267
1334 2379
1334 2434
1334 2498
1334 2501
1334 2541
1334 2643
1334 2757
1334 2925
1334 3015
1334 3085
1334 3146
1334 3226
1334 3281
1334 3333
1334 3388
1334 3488
1334 3538
1334 3579
1334 3590
1334 3780
1334 3981
1334 4001
1334 4024
1334 4056
1334 4087
1334 4171
1334 4182
1334 4245
1334 4320
1334 4347
1334 4351
1334 4410
1334 4415
1334 4468
1334 4483
1334 4524
1334 4544
1334 4615
1334 4671
1335 1575
1335 1893
1335 2300
1335 2304
1335 2309
1335 2550
1335 2598
1335 2698
1335 2780
1335 3268
1335 3347
1335 3972
1335 4023
1335 4560
1335 4711
1336 4113
1337 2589
1337 3244
1337 3972
1337 4280
1337 4296
1339 2600
1339 2966
1339 3874
1339 4011
1340 2589
1340 4082
1341 1344
1341 2595
1341 4141
1341 4229
1342 1416
1342 1553
1342 2109
1342 2548
1342 2619
1342 3612
1342 3746
1342 4201
1342 4251
1343 1671
1343 2158
1343 4634
1344 1419
1344 1677
1344 2104
1344 2595
1344 2643
1344 2987
1344 3085
1344 3093
1344 3130
1344 3290
1344 3341
1344 3598
1344 4001
1344 4085
1344 4141
1344 4216
1344 4229
1344 4253
1344 4282
1344 4294
1344 4415
1345 4618
1346 3261
1346 3746
1347 2092
1347 2158
1347 2202
1347 2370
1347 2556
1347 2794
1347 2993
1347 3479
1347 3626
1347 3746
1347 4201
1347 4418
1348 4468
1349 4580
1350 2933
1350 3273
1351 2829
1352 1508
1352 1564
1352 2098
1352 2451
1352 4044
1353 1421
1353 1549
1353 1626
1353 1759
1353 1985
1353 2148
1353 2344
1353 2771
1353 3085
1353 3398
1353 3766
1353 4001
1353 4355
1353 4670
1353 4682
1353 4712
1354 1442
1354 1708
1354 1741
1354 1939
1354 1962
1354 2377
1354 2623
1354 2710
1354 3059
1354 3274
1354 3288
1354 3347
1354 3551
1354 3744
1354 3951
1354 4151
1354 4175
1354 4567
1355 1777
1356 1708
1356 1748
1356 2942
1356 3378
1356 3463
1356 4677
1356 4695
1357 1595
1357 1834
1357 1913
1357 1985
1357 2252
1357 2457
1357 2508
1357 3031
1357 3063
1357 3085
1357 3252
1357 3756
1357 4055
1357 4238
1357 4639
1357 4654
1358 1803
1358 1858
1358 4552
1359 2221
1359 4332
1359 4548
1360 3726
1362 1367
1362 1391
1362 1421
1362 1471
1362 1570
1362 1831
1362 2158
1362 2346
1362 2479
1362 2543
1362 2556
1362 2589
1362 2618
1362 2740
1362 2747
1362 2993
1362 3085
1362 3188
1362 3365
1362 3425
1362 3626
1362 3726
1362 3808
1362 3824
1362 3843
1362 3888
1362 3937
1362 4001
1362 4045
1362 4157
1362 4462
1362 4532
1362 4567
1362 4677
1362 4685
1363 2573
1363 2997
1363 3019
1363 4067
1364 1839
1364 3704
1365 1547
1365 2002
1365 2023
1365 2294
1365 2686
1365 2757
1365 2894
1365 3061
1365 3645
1365 3684
1365 3906
1365 4011
1365 4146
1365 4404
1365 4659
1366 1883
1367 1421
1367 1485
1367 1549
1367 1570
1367 1688
1367 1700
1367 1743
1367 1787
1367 1831
1367 1985
1367 1998
1367 2098
1367 2125
1367 2146
1367 2231
1367 2386
1367 2421
1367 2439
1367 2509
1367 2567
1367 2661
1367 2714
1367 2747
1367 2778
1367 2814
1367 2839
1367 2846
1367 3036
1367 3085
1367 3190
1367 3365
1367 3669
1367 3888
1367 4001
1367 4011
1367 4051
1367 4138
1367 4456
1367 4547
1368 2059
1368 4418
1369 4001
1370 2237
1370 2497
1370 3607
1370 4059
1370 4181
1371 3519
1372 1776
1373 2098
1373 2430
1373 2543
1373 2623
1373 2937
1373 4505
1374 1672
1374 2179
1374 2203
1374 2552
1374 2779
1374 2887
1374 3042
1374 3137
1374 3502
1374 3732
1374 3981
1374 4298
1374 4395
1374 4520
1374 4671
1375 2240
1376 1850
1376 2027
1376 2546
1376 3085
1377 3012
1377 4627
1378 2543
1378 2623
1378 2698
1378 2944
1378 3587
1378 3726
1378 4406
1379 1391
1379 1431
1379 1442
1379 1468
1379 1562
1379 1650
1379 1672
1379 1708
1379 1776
1379 1843
1379 1866
1379 1885
1379 1955
1379 2005
1379 2075
1379 2080
1379 2088
1379 2093
1379 2139
1379 2222
1379 2259
1379 2274
1379 2374
1379 2379
1379 2451
1379 2471
1379 2543
1379 2552
1379 2564
1379 2598
1379 2623
1379 2632
1379 2654
1379 2698
1379 2759
1379 2777
1379 2779
1379 2827
1379 2887
1379 2962
1379 2974
1379 2998
1379 3042
1379 3059
1379 3244
1379 3268
1379 3504
1379 3526
1379 3562
1379 3633
1379 3649
1379 3834
1379 3891
1379 3907
1379 3960
1379 3997
1379 4001
1379 4026
1379 4068
1379 4180
1379 4238
1379 4270
1379 4292
1379 4394
1379 4395
1379 4462
1379 4520
1379 4524
1379 4559
1379 4560
1379 4610
1379 4671
1380 3360
1380 3677
1380 4445
1381 1468
1381 1601
1381 1855
1381 2300
1381 2421
1381 2450
1381 2521
1381 2807
1381 2937
1381 3093
1381 3222
1381 3249
1381 3329
1381 3526
1381 4001
1381 4292
1382 3734
1383 1865
1383 2221
1383 4453
1383 4548
1384 1549
1384 1826
1384 1985
1384 2545
1384 2780
1384 3579
1384 4001
1384 4138
1385 2640
1386 4011
1387 3496
1387 4011
1389 2409
1389 4043
1390 2059
1391 1395
1391 1396
1391 1399
1391 1445
1391 1456
1391 1468
1391 1477
1391 1509
1391 1524
1391 1562
1391 1565
1391 1570
1391 1575
1391 1601
1391 1608
1391 1684
1391 1688
1391 1748
1391 1779
1391 1843
1391 1891
1391 1926
1391 1976
1391 1987
1391 2038
1391 2075
1391 2085
1391 2093
1391 2116
1391 2228
1391 2310
1391 2313
1391 2350
1391 2434
1391 2445
1391 2451
1391 2471
1391 2479
1391 2498
1391 2503
1391 2510
1391 2543
1391 2550
1391 2556
1391 2573
1391 2574
1391 2601
1391 2623
1391 2698
1391 2707
1391 2710
1391 2740
1391 2759
1391 2779
1391 2827
1391 2830
1391 2887
1391 2937
1391 2946
1391 2952
1391 3015
1391 3042
1391 3059
1391 3175
1391 3216
1391 3303
1391 3342
1391 3347
1391 3382
1391 3413
1391 3431
1391 3435
1391 3502
1391 3504
1391 3526
1391 3598
1391 3620
1391 3681
1391 3696
1391 3726
1391 3780
1391 3800
1391 3808
1391 3821
1391 3830
1391 3834
1391 3848
1391 3891
1391 3946
1391 3960
1391 3969
1391 3971
1391 3972
1391 4001
1391 4023
1391 4062
1391 4151
1391 4157
1391 4161
1391 4171
1391 4180
1391 4238
1391 4298
1391 4353
1391 4415
1391 4438
1391 4462
1391 4463
1391 4520
1391 4559
1391 4560
1391 4615
1391 4671
1391 4674
1391 4677
1391 4685
1391 4707
1391 4714
1392 1595
1392 2117
1392 3320
1392 4213
1392 4229
1392 4493
1392 4576
1394 1575
1394 2073
1394 3042
1394 3726
1394 3791
1394 4415
1394 4538
1394 4541
1395 1478
1395 1601
1395 2038
1395 2177
1395 3042
1395 3246
1395 3258
1395 3800
1395 4035
1395 4406
1395 4669
1396 1517
1396 1570
1396 1716
1396 2079
1396 2169
1396 2199
1396 2811
1396 2862
1396 3093
1396 3244
1396 3287
1396 3304
1396 3533
1396 3757
1396 3858
1396 3866
1396 3981
1396 4001
1396 4195
1396 4333
1396 4370
1396 4453
1396 4464
1396 4644
1396 4645
1396 4650
1397 1570
1397 2018
1397 2066
1397 2199
1397 2543
1397 3181
1397 3194
1397 3435
1397 3608
1397 3879
1397 4238
1397 4270
1397 4367
1397 4564
1398 1563
1398 2362
1398 2877
1398 4549
1399 1478
1399 1648
1399 1712
1399 1846
1399 2150
1399 2353
1399 2543
1399 2712
1399 3042
1399 3246
1399 3258
1399 3376
1399 3448
1399 3587
1399 4035
1399 4047
1399 4083
1399 4669
1400 4025
1401 2865
1401 4086
1401 4347
1401 4415
1402 3429
1402 4258
1403 1467
1403 2722
1404 2298
1404 3880
1405 2836
1405 4260
1406 1591
1406 1595
1406 2228
1406 2255
1406 2546
1406 2910
1406 3022
1406 3066
1406 3085
1406 3218
1406 3770
1406 4001
1406 4605
1407 3387
1408 1578
1408 4677
1409 1708
1409 2451
1409 2584
1409 2623
1409 2807
1409 2887
1409 3101
1409 3369
1409 3708
1409 3856
1409 4001
1410 2326
1411 2225
1412 1421
1412 1444
1412 1595
1412 1677
1412 1678
1412 1707
1412 1717
1412 2382
1412 2645
1412 2713
1412 3085
1412 3766
1412 4138
1412 4415
1413 1598
1413 1623
1413 1629
1413 1918
1413 1984
1413 1992
1413 2040
1413 2045
1413 2094
1413 2123
1413 2148
1413 2226
1413 2231
1413 2252
1413 2264
1413 2338
1413 2349
1413 2367
1413 2382
1413 2393
1413 2401
1413 2546
1413 2570
1413 2624
1413 2639
1413 2643
1413 2659
1413 2661
1413 2832
1413 2847
1413 2962
1413 2967
1413 3036
1413 3085
1413 3093
1413 3137
1413 3238
1413 3251
1413 3364
1413 3367
1413 3421
1413 3538
1413 3579
1413 3594
1413 3609
1413 3653
1413 3680
1413 3697
1413 3791
1413 3808
1413 3831
1413 3839
1413 3972
1413 4015
1413 4028
1413 4055
1413 4136
1413 4144
1413 4171
1413 4173
1413 4189
1413 4234
1413 4248
1413 4255
1413 4311
1413 4316
1413 4320
1413 4410
1413 4450
1413 4459
1413 4534
1413 4576
1413 4626
1413 4670
1413 4671
1413 4708
1414 2160
1414 2167
1414 2239
1414 2738
1414 3799
1414 4063
1414 4222
1414 4409
1414 4681
1415 1910
1415 2548
1415 2617
1415 3268
1415 3746
1415 4270
1415 4521
1415 4686
1416 1438
1416 1633
1416 3067
1416 3746
1416 3845
1416 4477
1417 2269
1417 2379
1417 3410
1417 3786
1417 4023
1417 4321
1418 1467
1418 1640
1418 1835
1418 1865
1418 1883
1418 1936
1418 1942
1418 2041
1418 2113
1418 2195
1418 2341
1418 2543
1418 2552
1418 2754
1418 2823
1418 3015
1418 3059
1418 3272
1418 3311
1418 3343
1418 3345
1418 3438
1418 3557
1418 3591
1418 3761
1418 3781
1418 3785
1418 3794
1418 4283
1418 4528
1419 1709
1419 2543
1419 3085
1420 2639
1421 1439
1421 1485
1421 1549
1421 1562
1421 1570
1421 1618
1421 1743
1421 1759
1421 1787
1421 1788
1421 1831
1421 1847
1421 1985
1421 2098
1421 2252
1421 2313
1421 2344
1421 2382
1421 2393
1421 2439
1421 2508
1421 2509
1421 2543
1421 2556
1421 2567
1421 2643
1421 2714
1421 2717
1421 2747
1421 2814
1421 2911
1421 3053
1421 3085
1421 3146
1421 3148
1421 3151
1421 3203
1421 3251
1421 3281
1421 3365
1421 3387
1421 3430
1421 3442
1421 3553
1421 3579
1421 3609
1421 3726
1421 3742
1421 3756
1421 3766
1421 3787
1421 3824
1421 4001
1421 4055
1421 4138
1421 4157
1421 4189
1421 4311
1421 4347
1421 4467
1421 4513
1421 4523
1421 4534
1421 4545
1421 4670
1421 4674
1421 4677
1421 4715
1422 1946
1422 2075
1422 2304
1422 3268
1423 1718
1423 1815
1423 1820
1423 1891
1423 1898
1423 1980
1423 2150
1423 2185
1423 2202
1423 2450
1423 2470
1423 2516
1423 2936
1423 3065
1423 3127
1423 3149
1423 3233
1423 3234
1423 3462
1423 3723
1423 3726
1423 3869
1423 3905
1423 3969
1423 4251
1423 4383
1423 4418
1423 4705
1424 1781
1424 3084
1424 3286
1424 4115
1426 1601
1426 1643
1426 1891
1426 2103
1426 2156
1426 2259
1426 2664
1426 2693
1426 2712
1426 3065
1426 3127
1426 3155
1426 3255
1426 3363
1426 3436
1426 3468
1426 3540
1426 3712
1426 3714
1426 3759
1426 3931
1426 4178
1426 4270
1426 4395
1426 4455
1426 4519
1426 4623
1426 4707
1427 3435
1430 1539
1430 1581
1430 1669
1430 2275
1430 2785
1430 2850
1430 3131
1430 3214
1430 3218
1430 3245
1430 3467
1430 3532
1430 3543
1430 3579
1430 3649
1430 3804
1430 3838
1430 3917
1430 3997
1430 4094
1430 4182
1430 4276
1430 4308
1430 4415
1430 4438
1430 4463
1430 4468
1430 4544
1430 4613
1430 4646
1431 1708
1431 1771
1431 1976
1431 2139
1431 2374
1431 2377
1431 2530
1431 2550
1431 2937
1431 3304
1431 3347
1431 3381
1431 3502
1431 3551
1431 3807
1431 3866
1431 3902
1431 3923
1431 4395
1431 4496
1431 4669
1432 1770
1432 2586
1432 2648
1432 3059
1432 3805
1432 4178
1432 4455
1432 4564
1433 4497
1434 1600
1434 1613
1434 2382
1434 2466
1434 3341
1434 3388
1434 4078
1434 4213
1434 4276
1434 4431
1434 4465
1434 4468
1434 4503
1434 4544
1434 4551
1434 4559
1435 1912
1436 1781
1436 2669
1436 3518
1436 3593
1436 3666
1436 4037
1436 4247
1436 4287
1437 1755
1437 2075
1437 2379
1437 2632
1437 2698
1437 2775
1437 3382
1437 3499
1437 3800
1437 3834
1437 4270
1437 4567
1437 4685
1438 1661
1438 2495
1438 3067
1438 4201
1439 1485
1439 1488
1439 1509
1439 1677
1439 1759
1439 1985
1439 2252
1439 2340
1439 2501
1439 2643
1439 2732
1439 3085
1439 3093
1439 3341
1439 3442
1439 3579
1439 3897
1439 4134
1439 4177
1439 4200
1440 2224
1440 2505
1440 3058
1440 3085
1440 3590
1440 3729
1440 4140
1440 4238
1440 4509
1440 4712
1441 2489
1441 2619
1441 3085
1441 3428
1441 3746
1441 3783
1441 4191
1441 4201
1441 4270
1442 1462
1442 1524
1442 1570
1442 1601
1442 1704
1442 1708
1442 1939
1442 2135
1442 2139
1442 2199
1442 2350
1442 2360
1442 2377
1442 2379
1442 2388
1442 2451
1442 2477
1442 2555
1442 2623
1442 2679
1442 2696
1442 2859
1442 2866
1442 2887
1442 2923
1442 3015
1442 3059
1442 3060
1442 3210
1442 3288
1442 3435
1442 3509
1442 3551
1442 3726
1442 3744
1442 4151
1442 4206
1442 4236
1442 4270
1442 4307
1442 4406
1442 4489
1442 4540
1442 4625
1442 4677
1442 4685
1442 4707
1443 2793
1443 4395
1443 4671
1444 1595
1444 1707
1444 2568
1444 3085
1444 3214
1444 3292
1444 3403
1444 3552
1444 4001
1444 4094
1444 4415
1444 4438
1444 4559
1445 1613
1445 1759
1445 1834
1445 2063
1445 2379
1445 2696
1445 2885
1445 2887
1445 2945
1445 3050
1445 3244
1445 3368
1445 3419
1445 3834
1445 4649
1446 4161
1447 2717
1448 1456
1448 1541
1448 1570
1448 1951
1448 1976
1448 2075
1448 2092
1448 2277
1448 2350
1448 2402
1448 2543
1448 2556
1448 2598
1448 2623
1448 2698
1448 3042
1448 3484
1448 3562
1448 3715
1448 3726
1448 3808
1448 3921
1448 4045
1448 4082
1448 4108
1448 4157
1448 4165
1448 4374
1448 4395
1448 4615
1448 4677
1448 4685
1449 1959
1449 2252
1449 3085
1449 4001
1449 4116
1449 4136
1449 4616
1450 3183
1451 3084
1451 4115
1452 1481
1452 1496
1452 2173
1452 2320
1452 2376
1452 2383
1452 2390
1452 2829
1452 2869
1452 2983
1452 3188
1452 3428
1452 3805
1452 4052
1452 4154
1452 4206
1453 1524
1453 1601
1453 1613
1453 1774
1453 1804
1453 1880
1453 1917
1453 1978
1453 2379
1453 2543
1453 2612
1453 2624
1453 2868
1453 3146
1453 3162
1453 3435
1453 3545
1453 3786
1453 3787
1453 3806
1453 3829
1453 3849
1453 3945
1453 3971
1453 4023
1453 4045
1453 4078
1453 4151
1453 4171
1453 4262
1453 4321
1453 4351
1453 4515
1453 4592
1453 4646
1453 4671
1453 4702
1453 4707
1455 1793
1455 1907
1455 3526
1455 4352
1455 4459
1455 4674
1456 1524
1456 1570
1456 1601
1456 1681
1456 1758
1456 1797
1456 1993
1456 2199
1456 2350
1456 2377
1456 2503
1456 2543
1456 2552
1456 2598
1456 2623
1456 2698
1456 2859
1456 3059
1456 3060
1456 3244
1456 3268
1456 3435
1456 3509
1456 3560
1456 3726
1456 3744
1456 3808
1456 3856
1456 3912
1456 4017
1456 4045
1456 4082
1456 4161
1456 4374
1456 4395
1456 4649
1456 4671
1456 4685
1456 4707
1457 2829
1458 4551
1460 3729
1460 4140
1461 1562
1461 1831
1461 2824
1461 3660
1462 1498
1462 1521
1462 1541
1462 2075
1462 2119
1462 2350
1462 2379
1462 2471
1462 2503
1462 2543
1462 2598
1462 2623
1462 2696
1462 2698
1462 2759
1462 2766
1462 2813
1462 2949
1462 3042
1462 3146
1462 3207
1462 3244
1462 3268
1462 3347
1462 3369
1462 3435
1462 3744
1462 3808
1462 3835
1462 4040
1462 4045
1462 4127
1462 4215
1462 4270
1462 4306
1462 4395
1462 4520
1462 4536
1462 4685
1462 4714
1463 1611
1463 1965
1464 2890
1465 1611
1465 2206
1465 3042
1465 3347
1465 3621
1465 4056
1465 4087
1466 1562
1466 1688
1466 1931
1466 2252
1466 2494
1466 2669
1466 2808
1466 3786
1466 3922
1466 4001
1466 4023
1466 4185
1466 4592
1466 4602
1466 4615
1466 4671
1467 1532
1467 1559
1467 1570
1467 1575
1467 1601
1467 1806
1467 1891
1467 2041
1467 2201
1467 2489
1467 2543
1467 2619
1467 2708
1467 2754
1467 2823
1467 3591
1467 3785
1467 4045
1467 4070
1467 4080
1467 4212
1467 4220
1467 4304
1467 4338
1467 4477
1467 4647
1468 1693
1468 1743
1468 1855
1468 1962
1468 2125
1468 2339
1468 2344
1468 2374
1468 2379
1468 2421
1468 2439
1468 2543
1468 2550
1468 2717
1468 2858
1468 3016
1468 3093
1468 3222
1468 3244
1468 3249
1468 4001
1468 4023
1468 4133
1468 4151
1468 4292
1468 4496
1469 4367
1470 2651
1471 2556
1471 3085
1472 3808
1473 3671
1474 1554
1474 1755
1474 2852
1474 3184
1474 3261
1474 3482
1474 3695
1474 3745
1474 3799
1474 4004
1474 4418
1476 3628
1476 4081
1477 1605
1477 1693
1477 1866
1477 2063
1477 2275
1477 2342
1477 2350
1477 2379
1477 2472
1477 2507
1477 2543
1477 2759
1477 2827
1477 2887
1477 2962
1477 3059
1477 3175
1477 3244
1477 3347
1477 3728
1477 3744
1477 3809
1477 3848
1477 3864
1477 4045
1477 4495
1477 4615
1477 4649
1477 4654
1477 4668
1477 4671
1477 4674
1478 1648
1478 1789
1478 1846
1478 1904
1478 1977
1478 2075
1478 2121
1478 2150
1478 2177
1478 2217
1478 2276
1478 2364
1478 2379
1478 2453
1478 2471
1478 2486
1478 2637
1478 2663
1478 2712
1478 2789
1478 2800
1478 2816
1478 2861
1478 2976
1478 3001
1478 3020
1478 3042
1478 3155
1478 3177
1478 3197
1478 3244
1478 3246
1478 3258
1478 3272
1478 3376
1478 3439
1478 3448
1478 3452
1478 3479
1478 3503
1478 3587
1478 3603
1478 3639
1478 3642
1478 3738
1478 3746
1478 3749
1478 3754
1478 3799
1478 3853
1478 3937
1478 4004
1478 4035
1478 4047
1478 4053
1478 4083
1478 4270
1478 4284
1478 4393
1478 4395
1478 4405
1478 4469
1478 4470
1478 4555
1478 4603
1478 4669
1479 3288
1480 1546
1480 1934
1480 2451
1480 2477
1480 2503
1480 2818
1480 2962
1480 3014
1480 3630
1480 3848
1480 3854
1480 3856
1480 3945
1480 4321
1480 4702
1481 1524
1481 1669
1481 2160
1481 2188
1481 2199
1481 2649
1481 2829
1481 2887
1481 3325
1481 3630
1481 3843
1481 3980
1481 4045
1481 4206
1481 4333
1481 4359
1481 4615
1482 2941
1484 1606
1484 1936
1484 2113
1485 1562
1485 1627
1485 1743
1485 1787
1485 1831
1485 1847
1485 1885
1485 1985
1485 2098
1485 2187
1485 2439
1485 2545
1485 2714
1485 2747
1485 2814
1485 2925
1485 3085
1485 3222
1485 3244
1485 3249
1485 3281
1485 3333
1485 3490
1485 3508
1485 3553
1485 3669
1485 3756
1485 3766
1485 4001
1485 4058
1485 4101
1485 4138
1485 4351
1485 4523
1485 4534
1485 4622
1485 4669
1485 4677
1486 4395
1487 4176
1488 1595
1488 2643
1488 3032
1488 3085
1488 4136
1488 4654
1489 2350
1489 2400
1489 3338
1489 3694
1490 1626
1490 1983
1490 1985
1490 2002
1490 2027
1490 2224
1490 2243
1490 2252
1490 2643
1490 2974
1490 3042
1490 3063
1490 3085
1490 3281
1490 3320
1490 3419
1490 3430
1490 3590
1490 3614
1490 3680
1490 3892
1490 4001
1490 4011
1490 4140
1490 4410
1490 4571
1490 4677
1491 1985
1491 2602
1492 1692
1492 2197
1492 4167
1492 4597
1493 1963
1494 2905
1494 3126
1494 3151
1494 4031
1495 3286
1496 1508
1496 2173
1496 2320
1496 2829
1496 2983
1496 3428
1496 3709
1496 3805
1496 3843
1496 4052
1496 4154
1496 4206
1497 1720
1498 1524
1498 1815
1498 2074
1498 2119
1498 2131
1498 2598
1498 2759
1498 3042
1498 3059
1498 3105
1498 3244
1498 3565
1498 3586
1498 3726
1498 3744
1498 3873
1498 3902
1498 4043
1498 4206
1498 4258
1498 4280
1498 4395
1498 4689
1499 3726
1500 3367
1501 3523
1502 1832
1502 4011
1503 1570
1503 1643
1503 1656
1503 1770
1503 1955
1503 2135
1503 2390
1503 2586
1503 2648
1503 2664
1503 2817
1503 2829
1503 2944
1503 3065
1503 3155
1503 3285
1503 3293
1503 3414
1503 3588
1503 3805
1503 3843
1503 3971
1503 4178
1503 4519
1503 4588
1503 4591
1503 4653
1503 4685
1504 1712
1504 1814
1504 2451
1504 3722
1504 4671
1505 2850
1505 3303
1505 4361
1506 2794
1507 3085
1507 4000
1508 2648
1508 2829
1508 3588
1508 3800
1508 3805
1508 3843
1508 4206
1508 4570
1509 1514
1509 1517
1509 1524
1509 1539
1509 1581
1509 1601
1509 1669
1509 1834
1509 1903
1509 1985
1509 2000
1509 2001
1509 2071
1509 2098
1509 2265
1509 2267
1509 2339
1509 2350
1509 2379
1509 2498
1509 2501
1509 2523
1509 2543
1509 2598
1509 2687
1509 2709
1509 2775
1509 2826
1509 2830
1509 2887
1509 2910
1509 3010
1509 3015
1509 3042
1509 3111
1509 3218
1509 3245
1509 3398
1509 3413
1509 3543
1509 3614
1509 3633
1509 3662
1509 3681
1509 3728
1509 3791
1509 3833
1509 3848
1509 3961
1509 3990
1509 4001
1509 4040
1509 4048
1509 4171
1509 4185
1509 4234
1509 4289
1509 4290
1509 4292
1509 4298
1509 4367
1509 4374
1509 4483
1509 4524
1509 4654
1510 1673
1510 4011
1511 3441
1512 1736
1512 3268
1512 3928
1512 4367
1512 4711
1513 1546
1513 2933
1513 3346
1513 3412
1513 4184
1514 2000
1514 2228
1514 2498
1514 2523
1514 2702
1514 3059
1514 3133
1514 3552
1514 4001
1514 4245
1514 4404
1514 4468
1516 2469
1516 3085
1516 3504
1516 3827
1516 4271
1517 1595
1517 1728
1517 2747
1517 2811
1517 3933
1517 4001
1517 4011
1517 4259
1517 4333
1518 1855
1518 3244
1518 3914
1518 4151
1519 1611
1519 3445
1519 3626
1520 2225
1521 2384
1521 3030
1521 3146
1522 1632
1522 1772
1522 2096
1522 2208
1522 2467
1522 2478
1522 3122
1522 3123
1522 3275
1522 3568
1522 3886
1522 3945
1522 4454
1523 1524
1523 1532
1523 2463
1523 2543
1523 2726
1523 3097
1523 3250
1523 3348
1523 3435
1523 3554
1523 4374
1523 4685
1524 1532
1524 1572
1524 1575
1524 1591
1524 1601
1524 1626
1524 1643
1524 1669
1524 1688
1524 1693
1524 1704
1524 1718
1524 1735
1524 1770
1524 1811
1524 1833
1524 1843
1524 1860
1524 1877
1524 1920
1524 2044
1524 2059
1524 2065
1524 2075
1524 2076
1524 2077
1524 2080
1524 2088
1524 2093
1524 2098
1524 2116
1524 2131
1524 2148
1524 2151
1524 2155
1524 2171
1524 2199
1524 2203
1524 2228
1524 2267
1524 2274
1524 2275
1524 2300
1524 2304
1524 2321
1524 2350
1524 2353
1524 2379
1524 2388
1524 2396
1524 2402
1524 2413
1524 2418
1524 2434
1524 2451
1524 2477
1524 2479
1524 2489
1524 2514
1524 2517
1524 2543
1524 2550
1524 2556
1524 2589
1524 2598
1524 2607
1524 2611
1524 2613
1524 2623
1524 2679
1524 2698
1524 2756
1524 2779
1524 2794
1524 2807
1524 2830
1524 2887
1524 2949
1524 2962
1524 2966
1524 2974
1524 2975
1524 3006
1524 3015
1524 3042
1524 3043
1524 3059
1524 3072
1524 3085
1524 3089
1524 3105
1524 3146
1524 3165
1524 3205
1524 3213
1524 3244
1524 3255
1524 3268
1524 3347
1524 3363
1524 3365
1524 3378
1524 3395
1524 3428
1524 3429
1524 3435
1524 3502
1524 3504
1524 3509
1524 3523
1524 3532
1524 3539
1524 3557
1524 3562
1524 3614
1524 3616
1524 3626
1524 3696
1524 3722
1524 3732
1524 3737
1524 3744
1524 3746
1524 3753
1524 3758
1524 3765
1524 3773
1524 3800
1524 3807
1524 3808
1524 3809
1524 3829
1524 3834
1524 3848
1524 3856
1524 3873
1524 3888
1524 3891
1524 3901
1524 3966
1524 4001
1524 4023
1524 4026
1524 4040
1524 4045
1524 4052
1524 4063
1524 4144
1524 4151
1524 4154
1524 4180
1524 4182
1524 4183
1524 4195
1524 4203
1524 4238
1524 4246
1524 4258
1524 4270
1524 4280
1524 4294
1524 4333
1524 4345
1524 4347
1524 4353
1524 4361
1524 4374
1524 4395
1524 4406
1524 4408
1524 4409
1524 4448
1524 4462
1524 4468
1524 4520
1524 4532
1524 4554
1524 4557
1524 4559
1524 4560
1524 4576
1524 4595
1524 4602
1524 4615
1524 4668
1524 4669
1524 4671
1524 4677
1524 4685
1524 4707
1525 2005
1526 2194
1526 3059
1526 3971
1526 4671
1527 2350
1527 2543
1527 2555
1527 2607
1527 2654
1527 2845
1527 2992
1527 3362
1527 3384
1527 3436
1527 4387
1527 4519
1527 4707
1529 1979
1531 2347
1531 2556
1531 3188
1531 3532
1531 3715
1531 4082
1531 4307
1531 4615
1532 1570
1532 1611
1532 1661
1532 1757
1532 1850
1532 1866
1532 1891
1532 1920
1532 1936
1532 1942
1532 2113
1532 2153
1532 2313
1532 2451
1532 2489
1532 2543
1532 2556
1532 2634
1532 2682
1532 2721
1532 2992
1532 3015
1532 3038
1532 3042
1532 3083
1532 3085
1532 3311
1532 3425
1532 3487
1532 3591
1532 3726
1532 3761
1532 3866
1532 3966
1532 4043
1532 4063
1532 4122
1532 4168
1532 4180
1532 4347
1532 4361
1532 4415
1532 4532
1532 4615
1532 4707
1533 2503
1534 1630
1535 3281
1535 4001
1536 3184
1538 1554
1538 1661
1538 1747
1538 2083
1538 2204
1538 2390
1538 2430
1538 2443
1538 2516
1538 2542
1538 2593
1538 2819
1538 3149
1538 3155
1538 3408
1538 3644
1538 3868
1538 4001
1538 4103
1538 4677
1538 4707
1539 1669
1539 1983
1539 2001
1539 2555
1539 2633
1539 3059
1539 3111
1539 3268
1539 3291
1539 3633
1539 4001
1539 4171
1539 4215
1539 4404
1539 4534
1539 4711
1540 1793
1540 2224
1540 2252
1540 2623
1540 3526
1540 4459
1540 4571
1540 4674
1541 1902
1541 2623
1541 2759
1541 2766
1541 3042
1541 3744
1541 4446
1541 4669
1541 4685
1542 1843
1542 2144
1543 4500
1544 1661
1544 1691
1544 1941
1544 2131
1544 2372
1544 2477
1544 2543
1544 2598
1544 2717
1544 2827
1544 3009
1544 3032
1544 3042
1544 3059
1544 3105
1544 3244
1544 3268
1544 3291
1544 3347
1544 3578
1544 3873
1544 3971
1544 4151
1544 4168
1544 4183
1544 4258
1544 4395
1544 4711
1545 1594
1545 2388
1545 2556
1545 2823
1546 1717
1546 2392
1546 2452
1546 2645
1546 3244
1546 3851
1546 3896
1546 4056
1546 4415
1547 2002
1547 2023
1547 2294
1547 2505
1547 2686
1547 2757
1547 2894
1547 3061
1547 3645
1547 3684
1547 3906
1547 4146
1547 4659
1548 4217
1549 1985
1549 2252
1549 2543
1549 2583
1549 2643
1549 3061
1549 3085
1549 3093
1549 3333
1549 3491
1549 3590
1549 4175
1549 4294
1549 4352
1549 4404
1549 4483
1549 4571
1549 4670
1550 1762
1550 2114
1550 3502
1551 1770
1551 2586
1551 2648
1551 2829
1551 3805
1551 4112
1552 3085
1552 4415
1553 1840
1553 2038
1553 2969
1553 3155
1553 3261
1553 3452
1553 3695
1553 3746
1553 4201
1554 2038
1554 2488
1554 2548
1554 2619
1554 2969
1554 3155
1554 3261
1554 3305
1554 3452
1554 3623
1554 3746
1554 3799
1554 3845
1554 3884
1554 4165
1554 4201
1554 4418
1554 4485
1555 2358
1556 4115
1557 2263
1557 3315
1558 4425
1559 2163
1559 2489
1559 2516
1559 2829
1559 4270
1559 4532
1559 4679
1560 1656
1560 1770
1560 2813
1560 3067
1560 3155
1560 3305
1560 3746
1560 3805
1560 4004
1560 4477
1560 4539
1561 2024
1561 2118
1562 1570
1562 1628
1562 1638
1562 1686
1562 1759
1562 1831
1562 1850
1562 1870
1562 1985
1562 2011
1562 2027
1562 2097
1562 2100
1562 2165
1562 2183
1562 2199
1562 2252
1562 2269
1562 2350
1562 2382
1562 2439
1562 2498
1562 2556
1562 2643
1562 2698
1562 2714
1562 2747
1562 2795
1562 2814
1562 2824
1562 3039
1562 3085
1562 3244
1562 3333
1562 3410
1562 3486
1562 3508
1562 3529
1562 3553
1562 3609
1562 3660
1562 3680
1562 3724
1562 3786
1562 3827
1562 3888
1562 4001
1562 4023
1562 4092
1562 4138
1562 4140
1562 4185
1562 4225
1562 4233
1562 4245
1562 4321
1562 4351
1562 4402
1562 4410
1562 4415
1562 4620
1562 4702
1563 2362
1563 2877
1563 4549
1564 2098
1564 2224
1564 2226
1564 2252
1564 2418
1564 2735
1564 2967
1564 3085
1564 3252
1564 3295
1564 3526
1564 4055
1564 4140
1564 4330
1564 4571
1565 1570
1565 1691
1565 1797
1565 2131
1565 2266
1565 2543
1565 2623
1565 3015
1565 3042
1565 3059
1565 3100
1565 3555
1565 3808
1565 3856
1565 3873
1565 3971
1565 4045
1565 4151
1565 4161
1565 4258
1565 4462
1565 4671
1566 3448
1566 4080
1567 1977
1567 2332
1567 3031
1567 3085
1567 3430
1567 3622
1567 4001
1567 4571
1568 4213
1569 4173
1570 1575
1570 1584
1570 1601
1570 1638
1570 1660
1570 1708
1570 1831
1570 1843
1570 1850
1570 1860
1570 1862
1570 1865
1570 1866
1570 1891
1570 1920
1570 1941
1570 1946
1570 1976
1570 2027
1570 2058
1570 2059
1570 2079
1570 2088
1570 2093
1570 2106
1570 2135
1570 2188
1570 2199
1570 2222
1570 2281
1570 2297
1570 2298
1570 2299
1570 2304
1570 2340
1570 2353
1570 2370
1570 2379
1570 2383
1570 2434
1570 2451
1570 2471
1570 2477
1570 2504
1570 2543
1570 2556
1570 2564
1570 2576
1570 2589
1570 2598
1570 2601
1570 2607
1570 2619
1570 2623
1570 2650
1570 2679
1570 2698
1570 2714
1570 2747
1570 2759
1570 2766
1570 2780
1570 2829
1570 2837
1570 2846
1570 2857
1570 2859
1570 2879
1570 2922
1570 2969
1570 2974
1570 2975
1570 3009
1570 3015
1570 3042
1570 3059
1570 3081
1570 3085
1570 3105
1570 3142
1570 3244
1570 3268
1570 3288
1570 3303
1570 3304
1570 3341
1570 3347
1570 3365
1570 3425
1570 3451
1570 3504
1570 3523
1570 3526
1570 3533
1570 3536
1570 3551
1570 3562
1570 3565
1570 3626
1570 3642
1570 3688
1570 3696
1570 3705
1570 3726
1570 3732
1570 3744
1570 3757
1570 3807
1570 3808
1570 3829
1570 3830
1570 3835
1570 3848
1570 3866
1570 3869
1570 3873
1570 3891
1570 3893
1570 3907
1570 3933
1570 3971
1570 3972
1570 4001
1570 4016
1570 4017
1570 4026
1570 4045
1570 4087
1570 4138
1570 4151
1570 4157
1570 4183
1570 4238
1570 4246
1570 4258
1570 4259
1570 4270
1570 4280
1570 4333
1570 4342
1570 4353
1570 4367
1570 4374
1570 4381
1570 4395
1570 4406
1570 4408
1570 4415
1570 4462
1570 4489
1570 4518
1570 4520
1570 4560
1570 4615
1570 4617
1570 4659
1570 4669
1570 4677
1570 4679
1570 4685
1570 4689
1570 4707
1571 4544
1572 1815
1572 2623
1572 2654
1572 2740
1572 2759
1572 2788
1572 2942
1572 3042
1572 3244
1572 3378
1572 3419
1572 3435
1572 3565
1572 3607
1572 3808
1572 3848
1572 3887
1572 3902
1572 3972
1572 4180
1572 4280
1572 4497
1572 4671
1572 4677
1573 2353
1573 2545
1573 4058
1573 4138
1575 1591
1575 1659
1575 1690
1575 1708
1575 1768
1575 1855
1575 1866
1575 1868
1575 1891
1575 1934
1575 1936
1575 1941
1575 1955
1575 1969
1575 2000
1575 2038
1575 2063
1575 2075
1575 2088
1575 2098
1575 2185
1575 2199
1575 2200
1575 2222
1575 2274
1575 2298
1575 2300
1575 2307
1575 2321
1575 2350
1575 2358
1575 2377
1575 2379
1575 2434
1575 2471
1575 2477
1575 2479
1575 2484
1575 2516
1575 2543
1575 2550
1575 2556
1575 2598
1575 2601
1575 2607
1575 2618
1575 2623
1575 2643
1575 2759
1575 2766
1575 2846
1575 2880
1575 2887
1575 2936
1575 2969
1575 2974
1575 3009
1575 3015
1575 3038
1575 3042
1575 3059
1575 3060
1575 3085
1575 3105
1575 3107
1575 3127
1575 3216
1575 3244
1575 3268
1575 3274
1575 3303
1575 3304
1575 3425
1575 3451
1575 3480
1575 3487
1575 3504
1575 3523
1575 3582
1575 3587
1575 3614
1575 3642
1575 3643
1575 3675
1575 3708
1575 3726
1575 3744
1575 3787
1575 3791
1575 3800
1575 3829
1575 3834
1575 3856
1575 3866
1575 3873
1575 3901
1575 3907
1575 3972
1575 3976
1575 3981
1575 4001
1575 4016
1575 4024
1575 4036
1575 4045
1575 4063
1575 4082
1575 4161
1575 4163
1575 4164
1575 4178
1575 4180
1575 4239
1575 4258
1575 4270
1575 4298
1575 4304
1575 4307
1575 4375
1575 4395
1575 4404
1575 4410
1575 4450
1575 4462
1575 4505
1575 4520
1575 4532
1575 4541
1575 4559
1575 4560
1575 4607
1575 4615
1575 4647
1575 4671
1575 4677
1575 4685
1575 4714
1576 2228
1576 2449
1576 2523
1576 2910
1576 3009
1576 3066
1576 3225
1576 3688
1576 3813
1576 3894
1576 4024
1576 4448
1577 2890
1578 1602
1578 1743
1578 2433
1578 2559
1578 2887
1578 2911
1578 3060
1578 3107
1578 4001
1578 4273
1579 1669
1579 2709
1579 2830
1579 3245
1579 3829
1579 3894
1579 4001
1579 4040
1579 4324
1579 4448
1579 4524
1580 3923
1580 4058
1580 4462
1581 1629
1581 1669
1581 1759
1581 1825
1581 1996
1581 2087
1581 2094
1581 2122
1581 2228
1581 2252
1581 2255
1581 2265
1581 2278
1581 2302
1581 2382
1581 2474
1581 2498
1581 2523
1581 2541
1581 2570
1581 2588
1581 2624
1581 2643
1581 2811
1581 2826
1581 2847
1581 2882
1581 2897
1581 3085
1581 3093
1581 3204
1581 3205
1581 3218
1581 3245
1581 3279
1581 3290
1581 3341
1581 3430
1581 3467
1581 3488
1581 3525
1581 3532
1581 3552
1581 3579
1581 3620
1581 3622
1581 3673
1581 3790
1581 4000
1581 4001
1581 4048
1581 4055
1581 4177
1581 4182
1581 4238
1581 4396
1581 4410
1581 4415
1581 4463
1581 4483
1581 4524
1581 4547
1581 4559
1581 4602
1582 1611
1582 1773
1582 1891
1582 1925
1582 2259
1582 2936
1582 3445
1583 3059
1583 4714
1584 1697
1584 1712
1584 1826
1584 1850
1584 1941
1584 2000
1584 2227
1584 2228
1584 2255
1584 2372
1584 2449
1584 2477
1584 2543
1584 2749
1584 2886
1584 2910
1584 2987
1584 3009
1584 3022
1584 3087
1584 3341
1584 3405
1584 3523
1584 3578
1584 3633
1584 3635
1584 3680
1584 3796
1584 3835
1584 4001
1584 4002
1584 4190
1584 4299
1584 4360
1584 4408
1584 4410
1584 4605
1584 4666
1584 4701
1584 4711
1585 1681
1585 1776
1585 1843
1585 2360
1585 2477
1585 2555
1585 3035
1585 3098
1585 3539
1585 3708
1585 3848
1585 4374
1585 4575
1586 1596
1586 2028
1586 3425
1587 3736
1588 1843
1590 1818
1590 2812
1590 2996
1590 4043
1590 4192
1590 4603
1591 1776
1591 2027
1591 2059
1591 2165
1591 2360
1591 2477
1591 2546
1591 2552
1591 2779
1591 2980
1591 3059
1591 3435
1591 3533
1591 3575
1591 3848
1591 3923
1591 4001
1592 2986
1593 1882
1594 2190
1594 2388
1594 3902
1595 1623
1595 1629
1595 1653
1595 1666
1595 1707
1595 1717
1595 1796
1595 1850
1595 1877
1595 1979
1595 1998
1595 2005
1595 2017
1595 2027
1595 2040
1595 2053
1595 2068
1595 2079
1595 2094
1595 2101
1595 2148
1595 2205
1595 2225
1595 2231
1595 2252
1595 2338
1595 2367
1595 2505
1595 2567
1595 2588
1595 2599
1595 2603
1595 2608
1595 2639
1595 2640
1595 2643
1595 2644
1595 2645
1595 2659
1595 2661
1595 2702
1595 2717
1595 2732
1595 2745
1595 2746
1595 2778
1595 2786
1595 2790
1595 2862
1595 2876
1595 2905
1595 2918
1595 2924
1595 2941
1595 2950
1595 3028
1595 3031
1595 3085
1595 3093
1595 3126
1595 3146
1595 3151
1595 3162
1595 3170
1595 3238
1595 3281
1595 3292
1595 3320
1595 3421
1595 3493
1595 3495
1595 3544
1595 3546
1595 3552
1595 3579
1595 3594
1595 3609
1595 3617
1595 3653
1595 3673
1595 3742
1595 3770
1595 3925
1595 4001
1595 4055
1595 4056
1595 4068
1595 4086
1595 4094
1595 4288
1595 4311
1595 4318
1595 4339
1595 4415
1595 4438
1595 4449
1595 4464
1595 4467
1595 4493
1595 4534
1595 4537
1595 4547
1595 4558
1595 4576
1595 4605
1595 4613
1595 4619
1595 4626
1595 4674
1595 4677
1595 4682
1597 3015
1597 3208
1598 1601
1598 2269
1598 2350
1598 2451
1598 2763
1598 3722
1598 3726
1598 3971
1598 4023
1598 4082
1598 4151
1598 4225
1598 4295
1598 4351
1598 4671
1599 2362
1600 1749
1600 2005
1600 2465
1600 3066
1600 3388
1600 3488
1600 4276
1600 4438
1600 4544
1601 1638
1601 1660
1601 1661
1601 1693
1601 1700
1601 1776
1601 1813
1601 1860
1601 1868
1601 1877
1601 1891
1601 1902
1601 1936
1601 1955
1601 2038
1601 2059
1601 2091
1601 2093
1601 2103
1601 2131
1601 2150
1601 2185
1601 2199
1601 2299
1601 2300
1601 2350
1601 2379
1601 2438
1601 2451
1601 2470
1601 2477
1601 2503
1601 2516
1601 2543
1601 2545
1601 2549
1601 2550
1601 2552
1601 2556
1601 2598
1601 2607
1601 2623
1601 2641
1601 2654
1601 2698
1601 2759
1601 2794
1601 2887
1601 2936
1601 2974
1601 3015
1601 3025
1601 3034
1601 3042
1601 3059
1601 3065
1601 3205
1601 3221
1601 3226
1601 3244
1601 3249
1601 3254
1601 3288
1601 3303
1601 3304
1601 3399
1601 3429
1601 3435
1601 3473
1601 3482
1601 3504
1601 3562
1601 3600
1601 3616
1601 3626
1601 3642
1601 3674
1601 3693
1601 3694
1601 3696
1601 3704
1601 3714
1601 3725
1601 3726
1601 3737
1601 3787
1601 3800
1601 3805
1601 3820
1601 3826
1601 3856
1601 3866
1601 3895
1601 3907
1601 3923
1601 3960
1601 3971
1601 3981
1601 4017
1601 4045
1601 4063
1601 4151
1601 4161
1601 4178
1601 4180
1601 4198
1601 4231
1601 4270
1601 4293
1601 4307
1601 4374
1601 4395
1601 4462
1601 4515
1601 4519
1601 4520
1601 4531
1601 4559
1601 4560
1601 4564
1601 4607
1601 4623
1601 4625
1601 4637
1601 4647
1601 4685
1601 4705
1601 4707
1601 4709
1602 2433
1603 1895
1604 3411
1605 1843
1605 2075
1605 2313
1605 2321
1605 2350
1605 2400
1605 2451
1605 2543
1605 2679
1605 2877
1605 3042
1605 3072
1605 3216
1605 3413
1605 3649
1605 3726
1605 4180
1605 4707
1606 1815
1606 3480
1607 3199
1608 1775
1608 2092
1608 2158
1608 2160
1608 2277
1608 2556
1608 2993
1608 3073
1608 3085
1608 3430
1608 3544
1608 3921
1608 4001
1608 4572
1608 4620
1609 3420
1610 1923
1610 2160
1610 2310
1610 3634
1610 3691
1610 3799
1610 4063
1611 1666
1611 1915
1611 1925
1611 1958
1611 2075
1611 2080
1611 2088
1611 2206
1611 2379
1611 2431
1611 2471
1611 2700
1611 2752
1611 2830
1611 2891
1611 2945
1611 3012
1611 3042
1611 3126
1611 3141
1611 3347
1611 3445
1611 3447
1611 3481
1611 3504
1611 3621
1611 3722
1611 3834
1611 4270
1611 4303
1611 4319
1611 4520
1611 4668
1612 4559
1613 1759
1613 1804
1613 1843
1613 1982
1613 2267
1613 2269
1613 2302
1613 2379
1613 2555
1613 2763
1613 3514
1613 3786
1613 4001
1613 4023
1613 4078
1613 4171
1613 4190
1613 4225
1613 4245
1613 4321
1613 4351
1613 4438
1613 4551
1613 4654
1614 4208
1615 1911
1615 2497
1615 4181
1615 4367
1615 4453
1616 2799
1616 4063
1616 4222
1617 4379
1618 1743
1618 2339
1618 3022
1618 3418
1618 3519
1618 3590
1618 4033
1618 4415
1619 4415
1620 4208
1621 2148
1621 2659
1621 2773
1621 3594
1621 4161
1621 4464
1621 4531
1623 1752
1623 1801
1623 1855
1623 1985
1623 2035
1623 2098
1623 2105
1623 2148
1623 2225
1623 2252
1623 2267
1623 2300
1623 2539
1623 2747
1623 2782
1623 2864
1623 2989
1623 3013
1623 3085
1623 3146
1623 3163
1623 3166
1623 3419
1623 3526
1623 3590
1623 3609
1623 3659
1623 3744
1623 3808
1623 4001
1623 4415
1623 4467
1623 4483
1623 4503
1623 4571
1623 4674
1624 3981
1624 4259
1625 2543
1625 2829
1625 2919
1625 2937
1625 3188
1626 1834
1626 1937
1626 2075
1626 2148
1626 2280
1626 2356
1626 2502
1626 2610
1626 2643
1626 2645
1626 2740
1626 2807
1626 2818
1626 3085
1626 3093
1626 3281
1626 3378
1626 3442
1626 3579
1626 3670
1626 3680
1626 3766
1626 3773
1626 3848
1626 4001
1626 4180
1626 4320
1626 4335
1626 4347
1626 4415
1626 4516
1626 4576
1626 4606
1626 4654
1626 4677
1626 4707
1627 2674
1628 1870
1628 1931
1628 2252
1628 2430
1628 2698
1628 4112
1628 4551
1629 1985
1629 2063
1629 2098
1629 2224
1629 2300
1629 2353
1629 2430
1629 2505
1629 2746
1629 2747
1629 2846
1629 2974
1629 3063
1629 3085
1629 3684
1629 3951
1629 4140
1629 4395
1629 4483
1629 4571
1629 4654
1629 4712
1630 4404
1631 1855
1631 3981
1631 4175
1631 4685
1632 2208
1632 2467
1632 3123
1632 3568
1632 3886
1633 2800
1633 3305
1633 4201
1634 3281
1635 1785
1635 2094
1635 2231
1635 2567
1635 3146
1635 4467
1636 1687
1637 1803
1637 2591
1637 2644
1637 3101
1637 3276
1637 4333
1637 4552
1637 4662
1637 4674
1638 1735
1638 1860
1638 1877
1638 1936
1638 2075
1638 2151
1638 2287
1638 2304
1638 2310
1638 2350
1638 2379
1638 2451
1638 2471
1638 2552
1638 2598
1638 2623
1638 2643
1638 2654
1638 2698
1638 2759
1638 2762
1638 2794
1638 2869
1638 3042
1638 3085
1638 3129
1638 3268
1638 3288
1638 3347
1638 3369
1638 3504
1638 3511
1638 3544
1638 3601
1638 3694
1638 3726
1638 3744
1638 3766
1638 3808
1638 4034
1638 4045
1638 4096
1638 4151
1638 4238
1638 4266
1638 4270
1638 4361
1638 4395
1638 4415
1638 4616
1638 4620
1638 4677
1638 4705
1638 4707
1638 4710
1639 2572
1639 4292
1640 1865
1640 1883
1640 1942
1640 2589
1640 3557
1640 3785
1640 4371
1641 4351
1642 3579
1642 4337
1642 4481
1643 1833
1643 2202
1643 2347
1643 2434
1643 2573
1643 3038
1643 3059
1643 3105
1643 3347
1643 3509
1643 3686
1643 3946
1643 4082
1643 4532
1643 4615
1643 4685
1644 2036
1644 2059
1644 2224
1644 2252
1644 2602
1644 2645
1644 3295
1644 3729
1644 3913
1644 4046
1644 4571
1645 1679
1645 2026
1645 4320
1645 4325
1645 4696
1647 3286
1648 1846
1648 2059
1648 2543
1648 3022
1648 3268
1648 3376
1648 3405
1648 3603
1648 4002
1648 4035
1648 4299
1648 4367
1648 4404
1648 4711
1649 1661
1650 1743
1650 1759
1650 1834
1650 1843
1650 2068
1650 2224
1650 2300
1650 2344
1650 2379
1650 2643
1650 2717
1650 2728
1650 2777
1650 2786
1650 2889
1650 2935
1650 3063
1650 3137
1650 3212
1650 3790
1650 4213
1650 4234
1650 4483
1650 4516
1650 4626
1650 4715
1651 2252
1651 2391
1651 2541
1651 3398
1651 3526
1651 4049
1651 4571
1652 2692
1652 3009
1652 3180
1652 3193
1652 3527
1652 4508
1652 4666
1653 1666
1653 2035
1653 2421
1653 2703
1653 2778
1653 3063
1653 3085
1653 3622
1653 3787
1653 4001
1653 4450
1653 4571
1654 1901
1655 4309
1656 1708
1656 1843
1656 1844
1656 1891
1656 1896
1656 1902
1656 1955
1656 2039
1656 2044
1656 2095
1656 2114
1656 2150
1656 2156
1656 2451
1656 2503
1656 2536
1656 2573
1656 2586
1656 2648
1656 2664
1656 2693
1656 2813
1656 2887
1656 3065
1656 3127
1656 3155
1656 3161
1656 3184
1656 3208
1656 3285
1656 3293
1656 3362
1656 3363
1656 3384
1656 3436
1656 3468
1656 3800
1656 3805
1656 3856
1656 4001
1656 4008
1656 4022
1656 4067
1656 4178
1656 4186
1656 4374
1656 4387
1656 4477
1656 4482
1656 4519
1656 4588
1656 4653
1656 4685
1657 1788
1657 2521
1658 3420
1659 2173
1659 2969
1659 3863
1659 4560
1660 3059
1660 4374
1660 4671
1661 1674
1661 1877
1661 1936
1661 2027
1661 2059
1661 2077
1661 2113
1661 2160
1661 2167
1661 2191
1661 2350
1661 2379
1661 2390
1661 2402
1661 2445
1661 2451
1661 2471
1661 2516
1661 2543
1661 2544
1661 2556
1661 2607
1661 2619
1661 2693
1661 2708
1661 2760
1661 2814
1661 2980
1661 3059
1661 3085
1661 3244
1661 3414
1661 3452
1661 3487
1661 3626
1661 3726
1661 3746
1661 3799
1661 3808
1661 3820
1661 3823
1661 3834
1661 3843
1661 3869
1661 3873
1661 4001
1661 4023
1661 4045
1661 4063
1661 4080
1661 4151
1661 4195
1661 4202
1661 4347
1661 4408
1661 4415
1661 4418
1661 4532
1661 4572
1661 4615
1661 4663
1661 4677
1661 4707
1662 1843
1662 3347
1662 4302
1664 1826
1664 2000
1664 3009
1664 3633
1664 3829
1664 4123
1665 2178
1665 2758
1665 3084
1666 1731
1666 1815
1666 1841
1666 1985
1666 2035
1666 2040
1666 2224
1666 2243
1666 2252
1666 2378
1666 2386
1666 2450
1666 2543
1666 2582
1666 2627
1666 2674
1666 2778
1666 2974
1666 2981
1666 3036
1666 3085
1666 3107
1666 3126
1666 3319
1666 3329
1666 3435
1666 3488
1666 3609
1666 3614
1666 3653
1666 3669
1666 3729
1666 3834
1666 3961
1666 3981
1666 3987
1666 4001
1666 4011
1666 4148
1666 4234
1666 4238
1666 4329
1666 4382
1666 4410
1666 4483
1666 4487
1666 4503
1666 4568
1666 4571
1666 4615
1666 4654
1666 4667
1666 4673
1667 2962
1667 3714
1668 2199
1668 4341
1668 4395
1669 2000
1669 2069
1669 2071
1669 2213
1669 2228
1669 2265
1669 2275
1669 2543
1669 2645
1669 2830
1669 2885
1669 2910
1669 3111
1669 3543
1669 3579
1669 3618
1669 3732
1669 3909
1669 3917
1669 3925
1669 3997
1669 4001
1669 4040
1669 4048
1669 4180
1669 4367
1669 4415
1669 4438
1669 4468
1669 4524
1669 4544
1670 2309
1670 2854
1670 2888
1670 3263
1670 3496
1670 4001
1670 4023
1670 4524
1671 1868
1671 1942
1671 2139
1671 2158
1671 2277
1671 2396
1671 2402
1671 2556
1671 2623
1671 2974
1671 3042
1671 3188
1671 3250
1671 3348
1671 3726
1671 3779
1671 3787
1671 4082
1671 4117
1671 4634
1672 2131
1672 2598
1672 2698
1672 2759
1672 2827
1672 3059
1672 3502
1672 3555
1672 4151
1672 4496
1672 4671
1673 1840
1673 2037
1673 2623
1673 3981
1674 1779
1674 1955
1674 2135
1674 2331
1674 2623
1674 2693
1674 2901
1674 2922
1674 3291
1674 3369
1674 3600
1674 3820
1674 3835
1674 4202
1674 4270
1674 4376
1674 4519
1674 4671
1674 4685
1675 3378
1675 3463
1675 3640
1675 4677
1676 4043
1677 1875
1677 2027
1677 2122
1677 2318
1677 2428
1677 2643
1677 3039
1677 3085
1677 3358
1677 3368
1677 3430
1677 3442
1677 3532
1677 3680
1677 3766
1677 4282
1677 4415
1677 4431
1677 4481
1678 1707
1678 3085
1678 3544
1678 4415
1680 2840
1681 1697
1681 1866
1681 2075
1681 2350
1681 2379
1681 2451
1681 2471
1681 2517
1681 2623
1681 2654
1681 2757
1681 2759
1681 2846
1681 3012
1681 3042
1681 3107
1681 3193
1681 3226
1681 3288
1681 3347
1681 3435
1681 3681
1681 3808
1681 3834
1681 3857
1681 3972
1681 4082
1681 4238
1681 4270
1681 4343
1681 4374
1681 4503
1681 4559
1681 4646
1682 3722
1684 1704
1684 2095
1684 2573
1684 2623
1684 3435
1685 1943
1685 2010
1685 2089
1685 2415
1685 3318
1685 3815
1685 3984
1685 4447
1685 4590
1686 3059
1686 3085
1686 4601
1687 1696
1688 1955
1688 2037
1688 2058
1688 2135
1688 2300
1688 2370
1688 2534
1688 2543
1688 2937
1688 3155
1688 3215
1688 3244
1688 3369
1688 3482
1688 3981
1688 4001
1688 4151
1688 4172
1688 4180
1688 4416
1689 1967
1689 3347
1689 4381
1690 2937
1690 3726
1690 4270
1690 4361
1691 1766
1691 1797
1691 1962
1691 2266
1691 2827
1691 3042
1691 3304
1691 3555
1691 3808
1691 3866
1691 4151
1691 4258
1691 4280
1691 4394
1691 4520
1691 4671
1692 1693
1692 1946
1692 2075
1692 2161
1692 2379
1692 2543
1692 2598
1692 2623
1692 2696
1692 2698
1692 2759
1692 3042
1692 3419
1692 3562
1692 3834
1692 4298
1692 4395
1692 4520
1692 4585
1692 4633
1693 1855
1693 2135
1693 2161
1693 2295
1693 2379
1693 2499
1693 2552
1693 2623
1693 2698
1693 2703
1693 2937
1693 3032
1693 3244
1693 3276
1693 3469
1693 3472
1693 3587
1693 3602
1693 3657
1693 3668
1693 3786
1693 3849
1693 4001
1693 4023
1693 4112
1693 4166
1693 4174
1693 4197
1693 4305
1693 4466
1693 4495
1693 4512
1693 4515
1693 4677
1694 2178
1695 2466
1695 2643
1695 3579
1695 4415
1696 1838
1696 2712
1696 2820
1696 3003
1696 3086
1696 3139
1696 3263
1696 3374
1696 3916
1697 1708
1697 1843
1697 1850
1697 2552
1697 2767
1697 3009
1697 3059
1697 3206
1697 3268
1697 3435
1697 3787
1697 3829
1697 3978
1697 4045
1697 4360
1697 4367
1697 4415
1697 4462
1697 4571
1697 4666
1697 4707
1697 4711
1698 2218
1699 4023
1699 4515
1700 1749
1700 1850
1700 1985
1700 2027
1700 2224
1700 2456
1700 2545
1700 2773
1700 2917
1700 3042
1700 3049
1700 3254
1700 3704
1700 3725
1700 3826
1700 3961
1700 3981
1700 4001
1700 4294
1700 4456
1700 4462
1700 4531
1701 3736
1702 3183
1704 1962
1704 2065
1704 2075
1704 2139
1704 2350
1704 2400
1704 2598
1704 2623
1704 2654
1704 2679
1704 2740
1704 2759
1704 3042
1704 3413
1704 3435
1704 3696
1704 3744
1704 3809
1704 3823
1704 3997
1704 4270
1704 4560
1704 4685
1705 3149
1705 3744
1705 3808
1707 2122
1707 2498
1707 2523
1707 2568
1707 2950
1707 3093
1707 3214
1707 3292
1707 3341
1707 3532
1707 3544
1707 3552
1707 3925
1707 4213
1707 4404
1707 4415
1707 4438
1707 4572
1707 4575
1708 1768
1708 1771
1708 1776
1708 1834
1708 1939
1708 1977
1708 2075
1708 2088
1708 2093
1708 2139
1708 2192
1708 2259
1708 2298
1708 2300
1708 2350
1708 2379
1708 2451
1708 2457
1708 2471
1708 2537
1708 2543
1708 2623
1708 2679
1708 2687
1708 2740
1708 2759
1708 2780
1708 2791
1708 2887
1708 3012
1708 3015
1708 3042
1708 3053
1708 3107
1708 3136
1708 3244
1708 3252
1708 3268
1708 3288
1708 3303
1708 3347
1708 3362
1708 3395
1708 3435
1708 3451
1708 3551
1708 3562
1708 3595
1708 3633
1708 3696
1708 3726
1708 3740
1708 3744
1708 3774
1708 3834
1708 3856
1708 4045
1708 4055
1708 4082
1708 4087
1708 4151
1708 4157
1708 4270
1708 4330
1708 4359
1708 4363
1708 4422
1708 4513
1708 4560
1708 4600
1708 4639
1708 4677
1708 4707
1710 2161
1711 2894
1712 2188
1712 2275
1712 2304
1712 2379
1712 2543
1712 2623
1712 2709
1712 3022
1712 3059
1712 3268
1712 3291
1712 3347
1712 3388
1712 3460
1712 3688
1712 3829
1712 4001
1712 4040
1712 4246
1712 4367
1712 4408
1712 4508
1712 4528
1712 4685
1712 4711
1713 2379
1713 3786
1713 3827
1713 4023
1713 4092
1714 3767
1714 3802
1715 3498
1715 4315
1716 2379
1716 3347
1717 1869
1717 2205
1717 2523
1717 2623
1717 2643
1717 2674
1717 3093
1717 3218
1717 3244
1717 3532
1717 4001
1717 4086
1717 4087
1717 4415
1717 4463
1717 4708
1718 1729
1718 2210
1718 2402
1718 2413
1718 2703
1718 2936
1718 3089
1718 3149
1718 3905
1718 4180
1718 4557
1719 3526
1719 4703
1720 2425
1720 2524
1720 2890
1720 2958
1720 2973
1720 3393
1720 3632
1720 3994
1720 4003
1720 4153
1720 4357
1720 4423
1720 4444
1720 4486
1720 4517
1720 4676
1721 3286
1723 2059
1724 1770
1724 2829
1724 3588
1724 3835
1724 3843
1724 3883
1724 4202
1724 4206
1724 4591
1725 2543
1725 2937
1725 4001
1725 4708
1726 2120
1726 2432
1726 2598
1726 2698
1726 2759
1726 2827
1726 2920
1726 3042
1726 3993
1726 4309
1726 4614
1727 3981
1727 4677
1728 2199
1728 2316
1728 4011
1728 4464
1730 4011
1731 2521
1732 3085
1732 3532
1733 3085
1733 3430
1733 3615
1734 1743
1734 1831
1734 2098
1734 2124
1734 3756
1734 3825
1734 4011
1734 4576
1735 2059
1735 2065
1735 2171
1735 2347
1735 2379
1735 2623
1735 2717
1735 3012
1735 3059
1735 3105
1735 3341
1735 3347
1735 3387
1735 3425
1735 3435
1735 3509
1735 3744
1735 3753
1735 3790
1735 3848
1735 4017
1735 4023
1735 4110
1735 4395
1735 4602
1735 4615
1735 4677
1737 2877
1737 3743
1737 4703
1738 1874
1738 3057
1738 3442
1738 4088
1738 4276
1739 3337
1740 1741
1740 1833
1740 1970
1740 2075
1740 2076
1740 2303
1740 2396
1740 2994
1740 3150
1740 3722
1740 3723
1740 3870
1740 3946
1740 3969
1740 4198
1740 4383
1740 4542
1741 1815
1741 1833
1741 2343
1741 2994
1741 3113
1741 3946
1741 3969
1741 4198
1741 4212
1741 4406
1741 4542
1742 1818
1742 1957
1742 2996
1742 3038
1742 3155
1742 4192
1742 4414
1743 1855
1743 2098
1743 2169
1743 2508
1743 2603
1743 2714
1743 3093
1743 3222
1743 3244
1743 3249
1743 3490
1743 3519
1743 3590
1743 3933
1743 4058
1743 4138
1743 4224
1743 4534
1743 4622
1744 2088
1744 2477
1744 2740
1744 3023
1744 3216
1744 3787
1744 4045
1745 3286
1746 2300
1746 2339
1746 3972
1746 4515
1747 1844
1747 1861
1747 1862
1747 1899
1747 1936
1747 1955
1747 2156
1747 2246
1747 2376
1747 2379
1747 2430
1747 2451
1747 2542
1747 2543
1747 2550
1747 2607
1747 2664
1747 2693
1747 2698
1747 3015
1747 3103
1747 3155
1747 3438
1747 3462
1747 3512
1747 3626
1747 3647
1747 3726
1747 3752
1747 3805
1747 3868
1747 3957
1747 3981
1747 3982
1747 4023
1747 4045
1747 4062
1747 4178
1747 4482
1747 4520
1747 4588
1747 4685
1747 4694
1748 2299
1748 3608
1749 1985
1749 2035
1749 2205
1749 2252
1749 2545
1749 2747
1749 2946
1749 2954
1749 3399
1749 3909
1749 4001
1749 4094
1749 4238
1749 4531
1749 4709
1751 2261
1752 3998
1754 2877
1755 1840
1755 2070
1755 2085
1755 2370
1755 2861
1755 3102
1755 3223
1755 3263
1755 3482
1755 3499
1755 3783
1755 4215
1755 4418
1755 4534
1755 4577
1757 2274
1757 2451
1757 2489
1757 2823
1757 3268
1757 3591
1757 4408
1757 4679
1758 2139
1758 2274
1758 2759
1758 3042
1758 3848
1759 1843
1759 1886
1759 1928
1759 1937
1759 1979
1759 1985
1759 2005
1759 2063
1759 2068
1759 2098
1759 2224
1759 2252
1759 2265
1759 2300
1759 2340
1759 2344
1759 2374
1759 2382
1759 2503
1759 2541
1759 2543
1759 2643
1759 2702
1759 2705
1759 2717
1759 2728
1759 2747
1759 2777
1759 2846
1759 2850
1759 2882
1759 2889
1759 2935
1759 3016
1759 3032
1759 3063
1759 3066
1759 3085
1759 3093
1759 3137
1759 3244
1759 3333
1759 3367
1759 3375
1759 3388
1759 3454
1759 3470
1759 3532
1759 3579
1759 3594
1759 3622
1759 3629
1759 3673
1759 3697
1759 3698
1759 3766
1759 3780
1759 3790
1759 4001
1759 4023
1759 4024
1759 4068
1759 4076
1759 4134
1759 4151
1759 4177
1759 4213
1759 4214
1759 4288
1759 4311
1759 4339
1759 4396
1759 4410
1759 4415
1759 4428
1759 4468
1759 4516
1759 4544
1759 4558
1759 4605
1759 4626
1759 4671
1759 4701
1759 4715
1760 2335
1760 4172
1761 2300
1761 2887
1762 2114
1762 2246
1762 3363
1762 3502
1762 3714
1762 4178
1762 4564
1762 4707
1764 3779
1765 2366
1765 3420
1765 3701
1766 1962
1766 2179
1766 2201
1766 2503
1766 3059
1766 3502
1766 3555
1766 3971
1766 4270
1766 4496
1766 4671
1768 1776
1768 1877
1768 2350
1768 2451
1768 3093
1768 3848
1768 4164
1768 4195
1768 4347
1768 4374
1768 4415
1768 4606
1770 2516
1770 2586
1770 2648
1770 2813
1770 3038
1770 3059
1770 3065
1770 3127
1770 3588
1770 3805
1770 4178
1770 4418
1770 4455
1770 4477
1770 4564
1770 4591
1770 4653
1770 4679
1771 1976
1771 2199
1771 2377
1771 3059
1771 3856
1771 4151
1771 4395
1772 2096
1772 2208
1772 2467
1772 2622
1772 3122
1772 3568
1772 3665
1772 3886
1772 3945
1772 4454
1773 1936
1773 2199
1773 3150
1774 2379
1774 2868
1774 3849
1774 4023
1774 4171
1774 4515
1775 2092
1775 2346
1775 2556
1775 2881
1775 2963
1775 2993
1775 3784
1775 4001
1775 4117
1775 4157
1775 4270
1776 1843
1776 1860
1776 1891
1776 1928
1776 1966
1776 2044
1776 2075
1776 2088
1776 2116
1776 2139
1776 2201
1776 2298
1776 2300
1776 2324
1776 2325
1776 2350
1776 2402
1776 2451
1776 2471
1776 2516
1776 2543
1776 2552
1776 2556
1776 2598
1776 2623
1776 2652
1776 2664
1776 2698
1776 2722
1776 2759
1776 2779
1776 2814
1776 2827
1776 2960
1776 3012
1776 3042
1776 3053
1776 3059
1776 3127
1776 3152
1776 3155
1776 3288
1776 3347
1776 3504
1776 3625
1776 3794
1776 3834
1776 3843
1776 3856
1776 3891
1776 3907
1776 4001
1776 4045
1776 4151
1776 4157
1776 4270
1776 4374
1776 4395
1776 4685
1777 2840
1778 1935
1779 2331
1779 3744
1779 4151
1780 1848
1780 3247
1781 2258
1781 3287
1781 3443
1781 3666
1781 3671
1783 3163
1784 2569
1784 3321
1784 3460
1784 3599
1785 1985
1785 2027
1785 2231
1785 2567
1785 3085
1785 3146
1785 3609
1785 4001
1785 4048
1785 4467
1785 4491
1786 1895
1787 3098
1787 3281
1787 3904
1787 4001
1788 1983
1788 2252
1788 2265
1788 2309
1788 2367
1788 2633
1788 2747
1788 2895
1788 2911
1788 3042
1788 3060
1788 3063
1788 3085
1788 3622
1788 3972
1788 4011
1788 4048
1788 4054
1788 4171
1788 4238
1788 4322
1788 4571
1788 4633
1789 3376
1789 4035
1790 3855
1792 3263
1793 2771
1793 3571
1793 4213
1793 4510
1793 4674
1794 3877
1795 2197
1795 3431
1795 3496
1796 2027
1796 2068
1796 2344
1796 2962
1796 3010
1796 3697
1796 4483
1796 4626
1797 1889
1797 2131
1797 2200
1797 2466
1797 2827
1797 2880
1797 2961
1797 2969
1797 3059
1797 3100
1797 3244
1797 3432
1797 3474
1797 3555
1797 3708
1797 3808
1797 3873
1797 3971
1797 3972
1797 4151
1797 4258
1797 4559
1797 4560
1797 4613
1797 4669
1797 4671
1797 4677
1800 4309
1801 2087
1801 2122
1801 2148
1801 2175
1801 2643
1801 3160
1801 3320
1801 4213
1801 4276
1801 4282
1801 4408
1801 4410
1801 4415
1803 2591
1803 2887
1803 3263
1803 4069
1803 4333
1804 2868
1804 3162
1804 3786
1804 3806
1804 3833
1804 3849
1804 4001
1804 4023
1804 4171
1804 4515
1804 4702
1805 1986
1806 2722
1807 1808
1807 2573
1808 2573
1809 2543
1809 2607
1810 3501
1811 2334
1811 3626
1811 4180
1812 2451
1813 1955
1813 2103
1813 3820
1813 4623
1815 1891
1815 2076
1815 2115
1815 2167
1815 2195
1815 2300
1815 2359
1815 2477
1815 2543
1815 2598
1815 2623
1815 2698
1815 2759
1815 2934
1815 3020
1815 3059
1815 3105
1815 3126
1815 3244
1815 3347
1815 3435
1815 3465
1815 3480
1815 3496
1815 3722
1815 3726
1815 3829
1815 3856
1815 3873
1815 3888
1815 3969
1815 3971
1815 3972
1815 4001
1815 4023
1815 4258
1815 4280
1815 4336
1815 4395
1815 4406
1815 4496
1815 4522
1815 4669
1815 4705
1815 4706
1815 4707
1816 2605
1817 2074
1817 2121
1817 2260
1817 2800
1817 2875
1817 3322
1817 3746
1817 4165
1817 4201
1817 4270
1817 4686
1818 1957
1818 2996
1818 3946
1818 4063
1818 4414
1818 4603
1819 2552
1819 3934
1819 4507
1820 1891
1820 2516
1820 3216
1820 3233
1820 3542
1820 3714
1820 3869
1820 4161
1820 4462
1820 4707
1821 4180
1822 3420
1823 4468
1824 2686
1825 2122
1825 2123
1825 2372
1825 2643
1825 2660
1825 3085
1825 3341
1825 3430
1825 3861
1825 4415
1825 4671
1826 1941
1826 2123
1826 2227
1826 2519
1826 2718
1826 2749
1826 3009
1826 3087
1826 3180
1826 3532
1826 3829
1826 3958
1826 4666
1827 2224
1827 2332
1827 3031
1827 3085
1827 3251
1829 3496
1830 2986
1831 1864
1831 1985
1831 2011
1831 2098
1831 2714
1831 2747
1831 3085
1831 3281
1831 3327
1831 3529
1831 3669
1831 4001
1831 4023
1831 4138
1831 4141
1831 4245
1831 4575
1831 4576
1831 4670
1832 3874
1833 1970
1833 2093
1833 2168
1833 2343
1833 2352
1833 2434
1833 3435
1833 3465
1833 3563
1833 3722
1833 3946
1833 4198
1833 4615
1834 1959
1834 1977
1834 1983
1834 1987
1834 2063
1834 2075
1834 2123
1834 2148
1834 2252
1834 2280
1834 2387
1834 2451
1834 2584
1834 2639
1834 2643
1834 2645
1834 2674
1834 2687
1834 2710
1834 2740
1834 2759
1834 2830
1834 2887
1834 3012
1834 3039
1834 3042
1834 3137
1834 3175
1834 3252
1834 3278
1834 3341
1834 3347
1834 3368
1834 3419
1834 3467
1834 3504
1834 3532
1834 3579
1834 3594
1834 3669
1834 3670
1834 3680
1834 3681
1834 3780
1834 3787
1834 3871
1834 3997
1834 4001
1834 4036
1834 4055
1834 4291
1834 4298
1834 4415
1834 4431
1834 4448
1834 4516
1834 4627
1834 4649
1834 4654
1834 4674
1835 3438
1835 4283
1837 2350
1837 2357
1837 2372
1837 2718
1837 2886
1837 3009
1837 3180
1837 3364
1837 3532
1837 3829
1837 4002
1837 4024
1837 4408
1839 3050
1839 3704
1839 3826
1839 3961
1839 4161
1839 4456
1839 4531
1840 2070
1840 2121
1840 2427
1840 2485
1840 2617
1840 2861
1840 3155
1840 3322
1840 3452
1840 3482
1840 3746
1840 3749
1840 4011
1840 4034
1840 4051
1840 4175
1840 4231
1840 4272
1840 4418
1840 4424
1840 4573
1840 4622
1840 4686
1841 2643
1841 2732
1841 2777
1841 2935
1841 2968
1841 3341
1841 3579
1841 3609
1841 3832
1841 3961
1841 4234
1841 4238
1841 4626
1841 4639
1842 1859
1842 2669
1842 3945
1842 4001
1843 1866
1843 1917
1843 1928
1843 2059
1843 2075
1843 2088
1843 2095
1843 2144
1843 2234
1843 2259
1843 2377
1843 2379
1843 2438
1843 2471
1843 2477
1843 2503
1843 2507
1843 2516
1843 2543
1843 2552
1843 2598
1843 2623
1843 2654
1843 2696
1843 2698
1843 2703
1843 2717
1843 2728
1843 2759
1843 2766
1843 2777
1843 2827
1843 2846
1843 2930
1843 2975
1843 3012
1843 3015
1843 3042
1843 3059
1843 3107
1843 3268
1843 3287
1843 3304
1843 3342
1843 3347
1843 3367
1843 3435
1843 3504
1843 3562
1843 3587
1843 3594
1843 3606
1843 3607
1843 3720
1843 3786
1843 3808
1843 3834
1843 3856
1843 3866
1843 3907
1843 3972
1843 4023
1843 4056
1843 4068
1843 4078
1843 4087
1843 4151
1843 4171
1843 4245
1843 4270
1843 4298
1843 4395
1843 4520
1843 4559
1843 4560
1843 4671
1843 4707
1844 1955
1844 2324
1844 2664
1844 3065
1844 4108
1844 4519
1844 4566
1844 4685
1845 3224
1846 3246
1846 3258
1846 3503
1846 3587
1846 3603
1846 3853
1846 4047
1846 4393
1846 4669
1847 1872
1847 3085
1847 3380
1847 3766
1847 4001
1849 2703
1850 2027
1850 2035
1850 2188
1850 2401
1850 2523
1850 2623
1850 2635
1850 2643
1850 2659
1850 2745
1850 2746
1850 2924
1850 2935
1850 2987
1850 3022
1850 3036
1850 3085
1850 3093
1850 3146
1850 3339
1850 3367
1850 3553
1850 3574
1850 3579
1850 3615
1850 3704
1850 3791
1850 3829
1850 3913
1850 4055
1850 4189
1850 4253
1850 4320
1850 4360
1850 4367
1850 4382
1850 4408
1850 4415
1850 4708
1851 3726
1851 4501
1854 2691
1855 2098
1855 2313
1855 2374
1855 2564
1855 2652
1855 2717
1855 2814
1855 2882
1855 3032
1855 3146
1855 3244
1855 3249
1855 3313
1855 3726
1855 3859
1855 3923
1855 3971
1855 4001
1855 4151
1855 4183
1855 4196
1855 4258
1855 4292
1855 4464
1855 4515
1855 4685
1856 3460
1857 3526
1858 2295
1858 2591
1858 3101
1858 4478
1858 4552
1860 1938
1860 2304
1860 2489
1860 2543
1860 2601
1860 2623
1860 2779
1860 2879
1860 3059
1860 3240
1860 3268
1860 3347
1860 3435
1860 3688
1860 3726
1860 3888
1860 4151
1860 4168
1860 4180
1860 4183
1860 4270
1860 4462
1860 4685
1860 4707
1860 4711
1861 4482
1862 2576
1862 4520
1863 3218
1863 4415
1864 2477
1864 2643
1864 3085
1864 3365
1864 3418
1864 3579
1865 1936
1865 2113
1865 2199
1865 2543
1865 2734
1865 2741
1865 2823
1865 2983
1865 3029
1865 3557
1865 3591
1865 3626
1865 3718
1865 3726
1865 3785
1865 3824
1865 4270
1865 4341
1866 2027
1866 2059
1866 2167
1866 2274
1866 2350
1866 2360
1866 2387
1866 2451
1866 2471
1866 2477
1866 2479
1866 2543
1866 2552
1866 2556
1866 2589
1866 3015
1866 3059
1866 3060
1866 3304
1866 3435
1866 3502
1866 3533
1866 3607
1866 3726
1866 3787
1866 3809
1866 3848
1866 3866
1866 4063
1866 4151
1866 4161
1866 4180
1866 4374
1866 4462
1866 4615
1866 4685
1866 4707
1867 1945
1867 2030
1867 2505
1867 4011
1867 4352
1867 4509
1868 1898
1868 1902
1868 1980
1868 2185
1868 2470
1868 2484
1868 2516
1868 2549
1868 2607
1868 2712
1868 2936
1868 3462
1868 3535
1868 3616
1868 3869
1868 4016
1868 4045
1868 4239
1868 4270
1868 4418
1869 2097
1870 2483
1870 2631
1870 2951
1870 3911
1870 4023
1870 4321
1870 4468
1871 2047
1871 2261
1871 2783
1871 3308
1871 3449
1871 3748
1871 4286
1872 4140
1872 4650
1874 3057
1875 2267
1875 3538
1875 4215
1875 4238
1875 4524
1876 3182
1877 1937
1877 1996
1877 2122
1877 2181
1877 2876
1877 3085
1877 3093
1877 3126
1877 3244
1877 3661
1877 3972
1877 4177
1877 4195
1877 4320
1877 4415
1877 4559
1877 4606
1878 2089
1878 3318
1878 4447
1878 4590
1879 4321
1881 1992
1882 2277
1882 2549
1882 2854
1882 4317
1882 4520
1883 1942
1883 2544
1883 2607
1883 2741
1883 2794
1883 3074
1883 3156
1883 3296
1883 3311
1883 3781
1883 4243
1883 4397
1883 4573
1884 3085
1885 3486
1885 4001
1885 4415
1886 1979
1886 2224
1886 2344
1886 2717
1886 2728
1886 2889
1886 3063
1886 3856
1886 4233
1886 4558
1886 4571
1886 4626
1886 4701
1887 2379
1888 3849
1889 2173
1889 2961
1889 2974
1889 3347
1889 3474
1889 4613
1891 1902
1891 2013
1891 2039
1891 2076
1891 2103
1891 2114
1891 2150
1891 2185
1891 2229
1891 2317
1891 2396
1891 2536
1891 2547
1891 2573
1891 2586
1891 2648
1891 2664
1891 2681
1891 2693
1891 2708
1891 2710
1891 2712
1891 2813
1891 2829
1891 2922
1891 2936
1891 2992
1891 2997
1891 3019
1891 3038
1891 3127
1891 3155
1891 3234
1891 3268
1891 3345
1891 3347
1891 3363
1891 3384
1891 3414
1891 3429
1891 3483
1891 3675
1891 3714
1891 3723
1891 3805
1891 3907
1891 3946
1891 3969
1891 4045
1891 4062
1891 4067
1891 4178
1891 4212
1891 4270
1891 4383
1891 4519
1891 4532
1891 4566
1891 4677
1891 4697
1891 4698
1893 2304
1893 3244
1893 3268
1893 3347
1893 3643
1893 4395
1894 1928
1894 4488
1895 2205
1895 2211
1895 2219
1895 2540
1895 3212
1895 3916
1895 4000
1895 4138
1895 4161
1896 2114
1896 3195
1896 3468
1896 3848
1896 4526
1896 4685
1898 2355
1898 2822
1898 2942
1898 2972
1898 3234
1898 3378
1898 4062
1898 4677
1898 4695
1899 3015
1899 3438
1899 3957
1899 4270
1899 4433
1900 2560
1901 2779
1901 3287
1901 3454
1901 4370
1901 4378
1902 1980
1902 2103
1902 2114
1902 2623
1902 2693
1902 2817
1902 3285
1902 3714
1902 3726
1902 3965
1902 4446
1902 4519
1902 4564
1903 2263
1903 2612
1903 3129
1903 3467
1903 3804
1903 4045
1903 4415
1903 4602
1903 4609
1903 4707
1904 3738
1904 4035
1905 4451
1906 2102
1908 4707
1910 2074
1910 2370
1910 2506
1910 2969
1910 3120
1910 3155
1910 3261
1910 3452
1910 3512
1910 3746
1910 4165
1910 4201
1910 4226
1910 4418
1910 4539
1910 4588
1910 4686
1911 2237
1911 3244
1911 4181
1911 4453
1912 3800
1913 1977
1913 2224
1913 2457
1913 2508
1913 3766
1913 4055
1913 4513
1913 4639
1914 3915
1915 2700
1915 3722
1915 4406
1916 4386
1917 2198
1917 2362
1917 2877
1917 3064
1917 3143
1917 3778
1917 4001
1917 4023
1917 4262
1918 2224
1918 2252
1918 3526
1919 4023
1919 4285
1920 2543
1920 2556
1920 2623
1920 3085
1920 3616
1920 4045
1920 4180
1920 4462
1920 4707
1922 2829
1923 2167
1923 2239
1923 2801
1923 3435
1923 3634
1923 3799
1923 4063
1923 4470
1924 2079
1925 2259
1925 3406
1925 3445
1926 2173
1926 2244
1926 2434
1926 2543
1926 2688
1926 3015
1926 3037
1926 4615
1926 4692
1926 4695
1927 2832
1927 4308
1928 2224
1928 2235
1928 2252
1928 2344
1928 2717
1928 3590
1928 3790
1928 3834
1928 4140
1928 4213
1928 4234
1928 4483
1928 4571
1929 4043
1931 3431
1931 3858
1931 4464
1932 2244
1932 2320
1933 3033
1933 4172
1933 4534
1934 2503
1934 3244
1934 4007
1934 4023
1935 2300
1935 2814
1935 3093
1935 4001
1936 1955
1936 2039
1936 2075
1936 2153
1936 2157
1936 2199
1936 2210
1936 2274
1936 2317
1936 2324
1936 2350
1936 2376
1936 2434
1936 2485
1936 2492
1936 2514
1936 2516
1936 2543
1936 2556
1936 2589
1936 2607
1936 2623
1936 2678
1936 2712
1936 2794
1936 2812
1936 2863
1936 2963
1936 2983
1936 3015
1936 3038
1936 3042
1936 3085
1936 3127
1936 3149
1936 3156
1936 3173
1936 3205
1936 3285
1936 3304
1936 3305
1936 3311
1936 3347
1936 3435
1936 3480
1936 3616
1936 3714
1936 3723
1936 3726
1936 3744
1936 3760
1936 3761
1936 3764
1936 3808
1936 3843
1936 3866
1936 3869
1936 3937
1936 3946
1936 3957
1936 3960
1936 4008
1936 4034
1936 4045
1936 4053
1936 4063
1936 4119
1936 4168
1936 4186
1936 4214
1936 4243
1936 4347
1936 4397
1936 4415
1936 4520
1936 4532
1936 4553
1936 4615
1936 4677
1936 4705
1936 4707
1937 2145
1937 2252
1937 2280
1937 2340
1937 2344
1937 2485
1937 2876
1937 3085
1937 3160
1937 3418
1937 3467
1937 3808
1937 3917
1937 3923
1937 4023
1937 4415
1937 4544
1937 4702
1938 2304
1938 2477
1938 2879
1938 3059
1938 3240
1938 3268
1938 3888
1938 4168
1938 4183
1939 2065
1939 2093
1939 2192
1939 2451
1939 2477
1939 3059
1939 3726
1939 3808
1939 3848
1940 2075
1940 2760
1940 3042
1940 3166
1940 3294
1940 3808
1941 2076
1941 2201
1941 2372
1941 2623
1941 2987
1941 3009
1941 3042
1941 3043
1941 3059
1941 3154
1941 3268
1941 3405
1941 3514
1941 3578
1941 3796
1941 3818
1941 3829
1941 3972
1941 4023
1941 4118
1941 4199
1941 4367
1941 4462
1941 4528
1941 4711
1942 2495
1942 2543
1942 2556
1942 3059
1942 3311
1942 3557
1942 3591
1942 3761
1942 3781
1942 3966
1943 2010
1943 2089
1943 3318
1943 3464
1943 3815
1943 3984
1943 4447
1943 4590
1944 2757
1946 2044
1946 2075
1946 2088
1946 2238
1946 2543
1946 2696
1946 2698
1946 2759
1946 2859
1946 2887
1946 3042
1946 3268
1946 3504
1946 3633
1946 3696
1946 3834
1946 3835
1946 3907
1946 4001
1946 4633
1946 4708
1947 2135
1947 3171
1947 4497
1947 4685
1948 2107
1948 2670
1948 2671
1948 4529
1949 2900
1949 3501
1951 2556
1951 2623
1951 4110
1951 4157
1952 2252
1952 3419
1952 3970
1954 3420
1954 3701
1955 2039
1955 2114
1955 2129
1955 2135
1955 2156
1955 2180
1955 2242
1955 2246
1955 2379
1955 2503
1955 2514
1955 2536
1955 2573
1955 2586
1955 2607
1955 2648
1955 2664
1955 2693
1955 2760
1955 2813
1955 2823
1955 2855
1955 2922
1955 2936
1955 2974
1955 2992
1955 2997
1955 3038
1955 3042
1955 3059
1955 3065
1955 3155
1955 3200
1955 3280
1955 3285
1955 3347
1955 3363
1955 3384
1955 3414
1955 3429
1955 3436
1955 3457
1955 3468
1955 3542
1955 3599
1955 3600
1955 3626
1955 3662
1955 3712
1955 3714
1955 3726
1955 3746
1955 3794
1955 3800
1955 3805
1955 3820
1955 3823
1955 3869
1955 3907
1955 4062
1955 4063
1955 4178
1955 4186
1955 4270
1955 4394
1955 4519
1955 4520
1955 4536
1955 4621
1956 2406
1956 3779
1956 4403
1957 2996
1957 4063
1957 4192
1957 4414
1957 4603
1958 2431
1958 2700
1958 3447
1959 2075
1959 2255
1959 2505
1959 2643
1959 2645
1959 3039
1959 3358
1959 3442
1959 3579
1959 3831
1959 4136
1959 4352
1959 4410
1959 4441
1960 2238
1961 3244
1961 4238
1962 2075
1962 2131
1962 2179
1962 2203
1962 2274
1962 2298
1962 2342
1962 2350
1962 2377
1962 2379
1962 2451
1962 2471
1962 2543
1962 2556
1962 2615
1962 2623
1962 2698
1962 2703
1962 2759
1962 2827
1962 2972
1962 3032
1962 3042
1962 3059
1962 3100
1962 3244
1962 3258
1962 3274
1962 3347
1962 3504
1962 3551
1962 3587
1962 3600
1962 3732
1962 3800
1962 3808
1962 3949
1962 3971
1962 4063
1962 4270
1962 4406
1962 4462
1962 4615
1962 4671
1962 4677
1962 4685
1962 4698
1962 4707
1963 3411
1964 2965
1965 2832
1968 2541
1968 2643
1968 3053
1968 3085
1968 4157
1968 4214
1968 4396
1968 4537
1969 2969
1970 2343
1970 2352
1970 3465
1970 3946
1970 4406
1971 2269
1971 3231
1971 4402
1972 2156
1973 2131
1973 2827
1973 3244
1973 4671
1974 3352
1975 2408
1975 2923
1975 3561
1975 4009
1976 2377
1976 2530
1976 2593
1976 2698
1976 2780
1976 3038
1976 3042
1976 3046
1976 3059
1976 3105
1976 3244
1976 3347
1976 3484
1976 3551
1976 3715
1976 3972
1976 4045
1976 4082
1976 4156
1976 4209
1976 4395
1976 4518
1976 4669
1977 1985
1977 2059
1977 2280
1977 2552
1977 2645
1977 2732
1977 3039
1977 3085
1977 3093
1977 3252
1977 3357
1977 3669
1977 3740
1977 3913
1977 4294
1977 4320
1977 4415
1978 2379
1978 2868
1978 3052
1978 3786
1978 3849
1978 3881
1978 4001
1978 4023
1978 4171
1978 4515
1978 4702
1979 2020
1979 2302
1979 2344
1979 2680
1979 2717
1979 2728
1979 3085
1979 4213
1979 4626
1980 2185
1980 2210
1980 2297
1980 2390
1980 2400
1980 2470
1980 2516
1980 2543
1980 2589
1980 2607
1980 2712
1980 2936
1980 3149
1980 3233
1980 3234
1980 3435
1980 3565
1980 3869
1980 3905
1980 4161
1980 4178
1980 4418
1980 4564
1981 4251
1981 4637
1982 2669
1982 2677
1982 3488
1982 4185
1982 4351
1982 4572
1983 2080
1983 2225
1983 2349
1983 3387
1983 3790
1983 4558
1983 4616
1985 2079
1985 2127
1985 2148
1985 2225
1985 2252
1985 2264
1985 2338
1985 2344
1985 2439
1985 2567
1985 2659
1985 2728
1985 2862
1985 2925
1985 2935
1985 2941
1985 3016
1985 3022
1985 3085
1985 3093
1985 3146
1985 3244
1985 3254
1985 3281
1985 3333
1985 3403
1985 3430
1985 3442
1985 3546
1985 3594
1985 3609
1985 3653
1985 3697
1985 3756
1985 3790
1985 3858
1985 3943
1985 3961
1985 4001
1985 4040
1985 4055
1985 4068
1985 4138
1985 4185
1985 4189
1985 4288
1985 4311
1985 4316
1985 4335
1985 4456
1985 4467
1985 4534
1985 4547
1985 4576
1985 4619
1985 4626
1985 4670
1985 4715
1986 2044
1986 3891
1987 2075
1987 2379
1987 2887
1987 3039
1987 3093
1987 3467
1987 3680
1987 3681
1987 3972
1987 4036
1987 4415
1987 4483
1987 4654
1987 4670
1988 2451
1988 4055
1989 2088
1989 2098
1989 2335
1989 2564
1989 3244
1989 3657
1989 3902
1989 3933
1991 3496
1992 2252
1992 2643
1992 3085
1992 3341
1992 3579
1992 4045
1992 4415
1993 2937
1993 3059
1993 4395
1995 3834
1996 2122
1996 2643
1996 2826
1996 3085
1996 3093
1996 3341
1996 4415
1996 4463
1996 4572
1997 2451
1997 2887
1998 2252
1998 2645
1998 2740
1998 3085
1998 4011
1998 4048
1998 4140
1998 4571
1999 2360
2000 2498
2000 2709
2000 3009
2000 3022
2000 3405
2000 4367
2000 4707
2000 4711
2001 2628
2001 2887
2001 3728
2001 4001
2002 2023
2002 2294
2002 2686
2002 2757
2002 2894
2002 3061
2002 3320
2002 3645
2002 3684
2002 3906
2002 4146
2002 4659
2003 3926
2004 2829
2005 2224
2005 2252
2005 2302
2005 2344
2005 2564
2005 2777
2005 2786
2005 3042
2005 3358
2005 3834
2005 4339
2005 4483
2005 4516
2005 4571
2005 4701
2005 4715
2006 4217
2007 2379
2007 2696
2007 4001
2007 4023
2007 4292
2009 3063
2009 3609
2009 3825
2009 3832
2009 3834
2009 4189
2009 4487
2010 2565
2010 3815
2010 3984
2010 4447
2011 3085
2011 3365
2011 4138
2012 3145
2012 3468
2012 4374
2013 2992
2013 3038
2013 3065
2013 3173
2013 3712
2013 4010
2013 4096
2014 2802
2014 3255
2014 3626
2014 4063
2014 4707
2015 3936
2017 3228
2017 3244
2017 3982
2017 4023
2018 2543
2018 3181
2018 3879
2019 2199
2020 3016
2022 3779
2022 4645
2023 2294
2023 2686
2023 2757
2023 2894
2023 3061
2023 3645
2023 3684
2023 3906
2023 4146
2023 4659
2025 2231
2026 4696
2027 2035
2027 2117
2027 2122
2027 2188
2027 2252
2027 2308
2027 2312
2027 2382
2027 2401
2027 2546
2027 2567
2027 2623
2027 2635
2027 2659
2027 2661
2027 2702
2027 2745
2027 2924
2027 2935
2027 2987
2027 3016
2027 3022
2027 3036
2027 3085
2027 3146
2027 3190
2027 3339
2027 3367
2027 3368
2027 3387
2027 3491
2027 3553
2027 3574
2027 3579
2027 3615
2027 3724
2027 3790
2027 3791
2027 3829
2027 3913
2027 3925
2027 4055
2027 4068
2027 4189
2027 4320
2027 4322
2027 4367
2027 4382
2027 4408
2027 4415
2027 4467
2027 4513
2027 4576
2027 4708
2028 3085
2028 3339
2028 4693
2029 2400
2029 3149
2029 3522
2029 4640
2031 2591
2031 2887
2031 4478
2032 4669
2033 3442
2034 4208
2035 2732
2035 3238
2035 3254
2035 3403
2035 3742
2035 4382
2036 4552
2037 2129
2037 2277
2037 4378
2038 2121
2038 2177
2038 2506
2038 2623
2038 2800
2038 2861
2038 2875
2038 2919
2038 2937
2038 3042
2038 3322
2038 3726
2038 3746
2038 3783
2038 4143
2038 4201
2038 4226
2038 4231
2038 4406
2038 4462
2038 4534
2038 4593
2038 4686
2039 2114
2039 2150
2039 2156
2039 2536
2039 2543
2039 2607
2039 2648
2039 2664
2039 2681
2039 2834
2039 2855
2039 2936
2039 3038
2039 3127
2039 3429
2039 3436
2039 3675
2039 3714
2039 3726
2039 3794
2039 3981
2039 4029
2039 4062
2039 4067
2039 4178
2039 4519
2040 2986
2040 3085
2040 3369
2040 3419
2040 3609
2040 3742
2040 3961
2040 4001
2040 4234
2040 4449
2040 4512
2040 4594
2040 4619
2042 4023
2043 2350
2043 4144
2044 2552
2044 2779
2044 2818
2044 3042
2044 3060
2044 3107
2044 3369
2044 3856
2044 3923
2045 2252
2045 2643
2046 3602
2046 4700
2047 2261
2047 2783
2047 3308
2047 3449
2047 3748
2047 4286
2049 2788
2050 2353
2050 2639
2050 2715
2050 3031
2052 2182
2052 2691
2053 2747
2053 4333
2053 4464
2055 3586
2057 3244
2058 2079
2058 2173
2058 2598
2058 2862
2058 2880
2058 2969
2058 3059
2058 3131
2058 3474
2058 3565
2058 3779
2058 4132
2058 4367
2058 4464
2058 4613
2059 2075
2059 2222
2059 2226
2059 2298
2059 2304
2059 2379
2059 2451
2059 2471
2059 2516
2059 2543
2059 2598
2059 2602
2059 2698
2059 2721
2059 2732
2059 2735
2059 2759
2059 2780
2059 2846
2059 3012
2059 3042
2059 3059
2059 3089
2059 3268
2059 3504
2059 3546
2059 3547
2059 3642
2059 3708
2059 3821
2059 3834
2059 3869
2059 3913
2059 4063
2059 4202
2059 4236
2059 4270
2059 4518
2059 4520
2059 4560
2059 4707
2060 2980
2060 4063
2062 3682
2063 2079
2063 2080
2063 2148
2063 2199
2063 2252
2063 2338
2063 2339
2063 2350
2063 2379
2063 2421
2063 2477
2063 2505
2063 2543
2063 2555
2063 2589
2063 2623
2063 2628
2063 2696
2063 2720
2063 2779
2063 2811
2063 2887
2063 3035
2063 3036
2063 3042
2063 3059
2063 3063
2063 3093
2063 3137
2063 3146
2063 3218
2063 3244
2063 3254
2063 3276
2063 3313
2063 3364
2063 3472
2063 3630
2063 3668
2063 3670
2063 3673
2063 3726
2063 3744
2063 3834
2063 3857
2063 3871
2063 3972
2063 4001
2063 4036
2063 4055
2063 4190
2063 4226
2063 4296
2063 4311
2063 4333
2063 4374
2063 4382
2063 4448
2063 4453
2063 4483
2063 4515
2063 4547
2063 4615
2063 4654
2063 4674
2065 2095
2065 2171
2065 2598
2065 2679
2065 2837
2065 2859
2065 3347
2065 3509
2065 3848
2065 4180
2065 4395
2065 4489
2066 3181
2067 2506
2067 2969
2067 3155
2067 3746
2067 4165
2067 4201
2067 4226
2068 2252
2068 2344
2068 2401
2068 2717
2068 2728
2068 2917
2068 2935
2068 2974
2068 3053
2068 3590
2068 3697
2068 3790
2068 3891
2068 4140
2068 4234
2068 4483
2068 4516
2068 4568
2068 4571
2068 4626
2069 2275
2069 2439
2069 3131
2069 3523
2069 4001
2069 4190
2070 2991
2070 3079
2070 3354
2070 3482
2070 3499
2070 3930
2070 4539
2070 4622
2071 3146
2071 3586
2071 4043
2071 4482
2072 2075
2072 2379
2072 3042
2072 3504
2072 4270
2072 4677
2073 2521
2073 2838
2074 2121
2074 2260
2074 2300
2074 2370
2074 2619
2074 2632
2074 3059
2074 3304
2074 3510
2074 3746
2074 3799
2074 3873
2074 3884
2074 4001
2074 4004
2074 4183
2074 4201
2074 4212
2074 4258
2074 4485
2074 4671
2075 2119
2075 2139
2075 2280
2075 2313
2075 2347
2075 2350
2075 2360
2075 2374
2075 2379
2075 2450
2075 2451
2075 2471
2075 2477
2075 2503
2075 2543
2075 2550
2075 2552
2075 2555
2075 2623
2075 2703
2075 2710
2075 2740
2075 2759
2075 2779
2075 2788
2075 2818
2075 2830
2075 2872
2075 2949
2075 2962
2075 2974
2075 3012
2075 3015
2075 3035
2075 3042
2075 3059
2075 3060
2075 3085
2075 3093
2075 3166
2075 3226
2075 3244
2075 3262
2075 3288
2075 3303
2075 3304
2075 3341
2075 3342
2075 3347
2075 3369
2075 3395
2075 3413
2075 3435
2075 3502
2075 3504
2075 3532
2075 3539
2075 3598
2075 3607
2075 3626
2075 3649
2075 3680
2075 3694
2075 3708
2075 3726
2075 3744
2075 3787
2075 3808
2075 3809
2075 3834
2075 3848
2075 3853
2075 3856
2075 3866
2075 3891
2075 3951
2075 3971
2075 4009
2075 4085
2075 4142
2075 4151
2075 4177
2075 4214
2075 4238
2075 4270
2075 4298
2075 4309
2075 4361
2075 4374
2075 4395
2075 4410
2075 4415
2075 4520
2075 4522
2075 4532
2075 4615
2075 4627
2075 4671
2075 4677
2075 4685
2075 4707
2076 2304
2076 2543
2076 3268
2076 3435
2076 3829
2076 3969
2076 4118
2076 4666
2077 2167
2077 2413
2077 3626
2077 3726
2077 4063
2077 4180
2077 4409
2077 4470
2077 4520
2078 3087
2078 4701
2079 2106
2079 2199
2079 2300
2079 2649
2079 2811
2079 3042
2079 3418
2079 3933
2079 4001
2079 4238
2079 4259
2079 4333
2079 4365
2079 4659
2080 2483
2080 2543
2080 2598
2080 3126
2080 3146
2080 3172
2080 3545
2080 3583
2080 3780
2080 3997
2080 4023
2080 4045
2080 4225
2080 4321
2080 4351
2080 4354
2080 4677
2081 4161
2082 3277
2082 3542
2084 2754
2085 2969
2085 3042
2085 3067
2085 3623
2085 3746
2085 3799
2085 4151
2085 4201
2085 4534
2085 4613
2087 2122
2087 2123
2087 2252
2087 2832
2087 3085
2087 3093
2087 3114
2087 3786
2087 4001
2087 4145
2087 4415
2087 4572
2088 2139
2088 2199
2088 2300
2088 2350
2088 2374
2088 2377
2088 2477
2088 2503
2088 2543
2088 2552
2088 2589
2088 2779
2088 2818
2088 3059
2088 3060
2088 3105
2088 3175
2088 3244
2088 3263
2088 3288
2088 3347
2088 3533
2088 3551
2088 3708
2088 3726
2088 3787
2088 3807
2088 3848
2088 3856
2088 3879
2088 3923
2088 3969
2088 3972
2088 4151
2088 4161
2088 4180
2088 4341
2088 4395
2088 4462
2088 4496
2088 4522
2088 4567
2088 4614
2088 4707
2089 3815
2089 3984
2089 4447
2089 4590
2092 2158
2092 2346
2092 2388
2092 2394
2092 2556
2092 2993
2092 3042
2092 3479
2092 3902
2092 3921
2092 4620
2093 2244
2093 2343
2093 2350
2093 2598
2093 2623
2093 2679
2093 2698
2093 2740
2093 2766
2093 2779
2093 3042
2093 3059
2093 3288
2093 3435
2093 3465
2093 3726
2093 3744
2093 3787
2093 3808
2093 4151
2093 4671
2093 4707
2094 2782
2094 2981
2094 3013
2094 3085
2094 3166
2094 3590
2094 3808
2094 4010
2094 4048
2094 4140
2094 4483
2095 2573
2095 2654
2095 2975
2095 3509
2095 3587
2095 4022
2096 2208
2096 2467
2096 2622
2096 3122
2096 3275
2096 3568
2096 3665
2096 3886
2096 3945
2096 4454
2097 4001
2097 4214
2097 4410
2097 4415
2097 4534
2098 2125
2098 2148
2098 2243
2098 2252
2098 2300
2098 2339
2098 2353
2098 2439
2098 2505
2098 2506
2098 2543
2098 2545
2098 2623
2098 2643
2098 2659
2098 2714
2098 2732
2098 2746
2098 2747
2098 2824
2098 2919
2098 2925
2098 2937
2098 3032
2098 3085
2098 3093
2098 3137
2098 3146
2098 3238
2098 3281
2098 3526
2098 3542
2098 3669
2098 3726
2098 3756
2098 3766
2098 3827
2098 4001
2098 4045
2098 4058
2098 4151
2098 4255
2098 4406
2098 4534
2098 4674
2098 4677
2099 2565
2100 2187
2100 3824
2101 2148
2101 2252
2101 3421
2101 3943
2101 4140
2101 4335
2101 4571
2101 4682
2102 2225
2102 3941
2103 2114
2103 2185
2103 2536
2103 2693
2103 2936
2103 3155
2103 3436
2103 3714
2103 3820
2103 3823
2103 4178
2103 4519
2103 4623
2104 2373
2104 2595
2104 2987
2104 3290
2104 3339
2104 3532
2104 3598
2104 4282
2105 3146
2105 3744
2105 4585
2106 2649
2106 2811
2106 3263
2106 3526
2106 4140
2106 4259
2106 4333
2106 4385
2106 4464
2106 4645
2107 2240
2107 2840
2107 3286
2107 3850
2107 4115
2108 2150
2108 2817
2108 2834
2108 3155
2108 3429
2108 3889
2108 4418
2111 2552
2112 2528
2112 2646
2113 2489
2113 2623
2113 2634
2113 2682
2113 3083
2113 3085
2113 3425
2113 3487
2113 3591
2113 3785
2113 4045
2114 2141
2114 2150
2114 2246
2114 2322
2114 2536
2114 2547
2114 2648
2114 2664
2114 2693
2114 2992
2114 2997
2114 3059
2114 3127
2114 3155
2114 3363
2114 3542
2114 3599
2114 3714
2114 3726
2114 3805
2114 3891
2114 3931
2114 3949
2114 4062
2114 4178
2114 4519
2114 4566
2114 4623
2114 4671
2114 4685
2114 4698
2115 2543
2115 3465
2115 3696
2115 4001
2115 4183
2115 4406
2115 4677
2116 2668
2116 2740
2116 3263
2116 3413
2116 4082
2117 2252
2117 2747
2117 3590
2119 2379
2119 2543
2119 2598
2119 2601
2119 2623
2119 2698
2119 2759
2119 3042
2119 3146
2119 3263
2119 3268
2119 3504
2119 3834
2119 3935
2119 4151
2119 4167
2119 4270
2119 4520
2120 2592
2120 4309
2121 2185
2121 2260
2121 2488
2121 2516
2121 2543
2121 2623
2121 2698
2121 2969
2121 3155
2121 3244
2121 3261
2121 3305
2121 3452
2121 3499
2121 3746
2121 3799
2121 3884
2121 4151
2121 4231
2121 4406
2121 4418
2121 4485
2121 4573
2121 4707
2122 2123
2122 2138
2122 2214
2122 2252
2122 2278
2122 2382
2122 2643
2122 2645
2122 2660
2122 2826
2122 3085
2122 3093
2122 3160
2122 3162
2122 3341
2122 3368
2122 3532
2122 3579
2122 3622
2122 3661
2122 3925
2122 4200
2122 4234
2122 4320
2122 4415
2122 4450
2122 4544
2122 4572
2123 2278
2123 2382
2123 2643
2123 2711
2123 2749
2123 2860
2123 3085
2123 3108
2123 3341
2123 3579
2123 3661
2123 3970
2123 4234
2123 4238
2123 4320
2123 4395
2123 4410
2123 4415
2123 4544
2123 4606
2124 2308
2125 2300
2125 2491
2125 2506
2125 4001
2126 2146
2126 2448
2126 3600
2127 2224
2127 2338
2127 2579
2127 2643
2127 3582
2127 3622
2127 4001
2127 4541
2128 4151
2129 2536
2129 2664
2129 2693
2129 2729
2129 3042
2129 3155
2129 4178
2130 2829
2131 2135
2131 2266
2131 2350
2131 2598
2131 2698
2131 2827
2131 2857
2131 3059
2131 3244
2131 3347
2131 3555
2131 3726
2131 3835
2131 3873
2131 3902
2131 3971
2131 3972
2131 4151
2131 4258
2131 4496
2131 4669
2131 4671
2131 4689
2132 4161
2133 4416
2134 2907
2134 3628
2135 2265
2135 2379
2135 2607
2135 2623
2135 2866
2135 2901
2135 3012
2135 3015
2135 3512
2135 3533
2135 3600
2135 3772
2135 3783
2135 3971
2135 4001
2135 4178
2135 4374
2135 4376
2135 4520
2135 4588
2135 4625
2135 4677
2135 4685
2135 4706
2136 2764
2137 4105
2139 2259
2139 2374
2139 2379
2139 2451
2139 2537
2139 2543
2139 2598
2139 2623
2139 2780
2139 2837
2139 2877
2139 3015
2139 3042
2139 3059
2139 3244
2139 3288
2139 3293
2139 3362
2139 3435
2139 3451
2139 3595
2139 3633
2139 3726
2139 3744
2139 3877
2139 3895
2139 3923
2139 3960
2139 4045
2139 4270
2139 4374
2139 4395
2139 4422
2139 4520
2139 4560
2139 4705
2140 2560
2141 2202
2141 3480
2141 4062
2142 4709
2143 2226
2143 2735
2143 3295
2143 4046
2143 4173
2145 2477
2145 2503
2145 3452
2145 4045
2145 4415
2145 4462
2147 3515
2148 2252
2148 2706
2148 2740
2148 2846
2148 3063
2148 3398
2148 3421
2148 3424
2148 3579
2148 3622
2148 3680
2148 3729
2148 3834
2148 3908
2148 3943
2148 4011
2148 4234
2148 4335
2148 4571
2148 4615
2148 4654
2148 4682
2150 2210
2150 2276
2150 2322
2150 2364
2150 2536
2150 2586
2150 2693
2150 2712
2150 2834
2150 3038
2150 3059
2150 3065
2150 3074
2150 3149
2150 3155
2150 3209
2150 3233
2150 3246
2150 3285
2150 3429
2150 3448
2150 3540
2150 3542
2150 3587
2150 3639
2150 3663
2150 3726
2150 3754
2150 3805
2150 3823
2150 3905
2150 3907
2150 4035
2150 4045
2150 4053
2150 4083
2150 4178
2150 4251
2150 4414
2150 4418
2150 4470
2150 4519
2150 4591
2150 4603
2150 4623
2150 4637
2150 4665
2150 4669
2151 2598
2151 3601
2152 2424
2152 3395
2152 3704
2152 4045
2152 4462
2153 2556
2153 2710
2153 4063
2153 4532
2154 2263
2154 2298
2154 2485
2154 2543
2154 2562
2154 3261
2154 3305
2154 3452
2154 3746
2154 4151
2154 4231
2154 4593
2155 2453
2155 2611
2155 2612
2155 2789
2155 3100
2155 3155
2155 3261
2155 3562
2155 3949
2155 4428
2155 4602
2155 4671
2156 2166
2156 2247
2156 2615
2156 2845
2156 3038
2156 3059
2156 3155
2156 3285
2156 4482
2156 4707
2157 2202
2157 2408
2157 3714
2157 3764
2157 4009
2158 2346
2158 2394
2158 2396
2158 2543
2158 2556
2158 2589
2158 2993
2158 3188
2158 3221
2158 3348
2158 3479
2158 3699
2158 3921
2158 4082
2158 4418
2158 4634
2159 4115
2160 2167
2160 2239
2160 2376
2160 2738
2160 2829
2160 3038
2160 3631
2160 3634
2160 3667
2160 3726
2160 3799
2160 4063
2160 4178
2160 4206
2160 4409
2160 4418
2160 4470
2160 4532
2160 4539
2160 4543
2160 4570
2160 4658
2161 2295
2161 2300
2161 2379
2161 2564
2161 2882
2161 3025
2161 3249
2161 3657
2161 4001
2163 2829
2163 3325
2163 4587
2164 2503
2165 3575
2165 3925
2165 4023
2165 4372
2166 3347
2166 3714
2166 4062
2166 4108
2166 4395
2166 4694
2167 2239
2167 2310
2167 2386
2167 2477
2167 2543
2167 2623
2167 2801
2167 3634
2167 3946
2167 4001
2167 4063
2167 4222
2167 4409
2167 4418
2167 4470
2167 4539
2167 4542
2167 4658
2167 4681
2168 3946
2169 2603
2169 3093
2169 3590
2171 3105
2171 3347
2171 3395
2171 3509
2171 3587
2171 3972
2171 4180
2171 4395
2172 3085
2173 2244
2173 2434
2173 2829
2173 2846
2173 2880
2173 3244
2173 3304
2173 3474
2173 3551
2173 3778
2173 3866
2173 4206
2173 4570
2173 4613
2173 4615
2173 4692
2174 3818
2175 2255
2175 3160
2175 3571
2175 4276
2175 4476
2176 2798
2176 2825
2176 3091
2177 2937
2178 2414
2178 2596
2179 2274
2179 2451
2179 2974
2179 3059
2179 3502
2179 3971
2179 4671
2180 2242
2180 3155
2181 3172
2181 3244
2181 3347
2182 2670
2182 3323
2183 2763
2183 2795
2183 3786
2183 4023
2183 4185
2183 4351
2183 4402
2185 2210
2185 2297
2185 2322
2185 2350
2185 2360
2185 2390
2185 2463
2185 2470
2185 2484
2185 2535
2185 2549
2185 2607
2185 2712
2185 2726
2185 2936
2185 3065
2185 3127
2185 3234
2185 3338
2185 3348
2185 3423
2185 3554
2185 3616
2185 3694
2185 3869
2185 3905
2185 4082
2185 4242
2185 4251
2185 4376
2185 4418
2185 4566
2185 4623
2185 4637
2185 4685
2186 4208
2187 2714
2187 3365
2187 3482
2187 3888
2187 3959
2188 2199
2188 2267
2188 2299
2188 2543
2188 2546
2188 2599
2188 2709
2188 2811
2188 2910
2188 3206
2188 3244
2188 3405
2188 3435
2188 3523
2188 3533
2188 3633
2188 3682
2188 3829
2188 4001
2188 4024
2188 4359
2188 4367
2188 4615
2188 4649
2188 4666
2188 4711
2189 2252
2189 2382
2189 2595
2189 2643
2189 2847
2189 3085
2189 3341
2189 3699
2190 2388
2190 2556
2190 3042
2190 3557
2190 3902
2190 3966
2190 4520
2191 2619
2191 2823
2191 3291
2191 3600
2191 4394
2191 4434
2193 3917
2193 4250
2195 2934
2195 3395
2195 3480
2195 3870
2195 4705
2196 4051
2197 3882
2197 4001
2197 4167
2197 4225
2197 4597
2198 2362
2199 2275
2199 2299
2199 2350
2199 2379
2199 2434
2199 2451
2199 2471
2199 2477
2199 2552
2199 2556
2199 2598
2199 2623
2199 2649
2199 2654
2199 2696
2199 2698
2199 2734
2199 2759
2199 2769
2199 2811
2199 2975
2199 3042
2199 3244
2199 3268
2199 3311
2199 3328
2199 3347
2199 3469
2199 3504
2199 3536
2199 3540
2199 3565
2199 3601
2199 3652
2199 3704
2199 3732
2199 3744
2199 3757
2199 3787
2199 3800
2199 3858
2199 3893
2199 3905
2199 3931
2199 3933
2199 3968
2199 3981
2199 4045
2199 4063
2199 4223
2199 4240
2199 4270
2199 4333
2199 4341
2199 4367
2199 4395
2199 4453
2199 4464
2199 4520
2199 4579
2199 4610
2199 4614
2199 4615
2199 4714
2200 3214
2200 3579
2200 4288
2200 4438
2200 4551
2200 4559
2201 2304
2201 2607
2201 2759
2201 2827
2201 3042
2201 3268
2201 3555
2201 3958
2201 4024
2201 4270
2201 4520
2202 2394
2202 3150
2202 3234
2202 3576
2202 3870
2202 3946
2202 4212
2203 2552
2203 2648
2203 2664
2203 3560
2203 3856
2203 3907
2204 2543
2204 2729
2204 3792
2204 3868
2204 4183
2204 4602
2205 2954
2205 3093
2205 3244
2205 3403
2205 3467
2205 3495
2205 3630
2205 3681
2205 3909
2205 3923
2205 4048
2205 4320
2205 4364
2205 4415
2205 4462
2207 2558
2207 3212
2207 4001
2208 2467
2208 2478
2208 2622
2208 3122
2208 3123
2208 3275
2208 3568
2208 3665
2208 3886
2208 3945
2208 4454
2209 3454
2210 2279
2210 2313
2210 2322
2210 2350
2210 2390
2210 2413
2210 2470
2210 2516
2210 2712
2210 2936
2210 3149
2210 3234
2210 3338
2210 3462
2210 3535
2210 3540
2210 3542
2210 3600
2210 3869
2210 4080
2210 4251
2210 4418
2210 4637
2210 4671
2210 4685
2212 2228
2212 3036
2212 3697
2212 4023
2212 4024
2212 4171
2212 4213
2212 4298
2212 4367
2213 2498
2213 2523
2213 2546
2213 2645
2213 2842
2213 3405
2213 4171
2214 3085
2214 3341
2214 3365
2214 4157
2214 4415
2215 4238
2216 2345
2217 2350
2217 2364
2217 2556
2217 2623
2217 2814
2217 3001
2217 3188
2217 3246
2217 3261
2217 3639
2217 3754
2217 3937
2217 4035
2217 4047
2217 4082
2217 4165
2217 4351
2217 4555
2217 4620
2217 4663
2217 4669
2220 2712
2220 3042
2220 3261
2220 3562
2220 3737
2220 3792
2220 4151
2221 2936
2221 4264
2221 4332
2221 4520
2222 2275
2222 2299
2222 2347
2222 2379
2222 2471
2222 2516
2222 2654
2222 2679
2222 2687
2222 2769
2222 2869
2222 2944
2222 2992
2222 3042
2222 3504
2222 3533
2222 3536
2222 3565
2222 3744
2222 4001
2222 4270
2222 4367
2222 4464
2222 4520
2222 4685
2223 2503
2223 3675
2224 2225
2224 2226
2224 2231
2224 2264
2224 2338
2224 2367
2224 2393
2224 2401
2224 2457
2224 2502
2224 2508
2224 2539
2224 2567
2224 2717
2224 2728
2224 2732
2224 2735
2224 2777
2224 2778
2224 2796
2224 2862
2224 2864
2224 2924
2224 2986
2224 3031
2224 3036
2224 3055
2224 3088
2224 3126
2224 3137
2224 3190
2224 3281
2224 3387
2224 3491
2224 3493
2224 3499
2224 3546
2224 3594
2224 3673
2224 3790
2224 3832
2224 3961
2224 4000
2224 4028
2224 4055
2224 4116
2224 4173
2224 4311
2224 4316
2224 4322
2224 4382
2224 4441
2224 4449
2224 4456
2224 4471
2224 4487
2224 4513
2224 4547
2224 4558
2224 4576
2224 4616
2224 4639
2224 4641
2224 4670
2225 2252
2225 2253
2225 2291
2225 2312
2225 2505
2225 2623
2225 2640
2225 2874
2225 2918
2225 2924
2225 3085
2225 3326
2225 3419
2225 3472
2225 3482
2225 3526
2225 3834
2225 3972
2225 4001
2225 4054
2225 4318
2225 4352
2225 4386
2225 4445
2225 4450
2225 4534
2225 4571
2225 4643
2225 4674
2226 2602
2226 2645
2226 2732
2226 2735
2226 3729
2226 4046
2226 4140
2226 4173
2226 4571
2227 2372
2227 3268
2227 3405
2227 3578
2227 3829
2227 4215
2227 4367
2227 4408
2227 4462
2227 4711
2228 2265
2228 2267
2228 2498
2228 2523
2228 2546
2228 2624
2228 2709
2228 2830
2228 2910
2228 3009
2228 3059
2228 3066
2228 3214
2228 3388
2228 3488
2228 3523
2228 3538
2228 3582
2228 3726
2228 3770
2228 3835
2228 3856
2228 4001
2228 4144
2228 4374
2228 4404
2228 4438
2228 4448
2228 4468
2228 4524
2228 4559
2229 2259
2229 2516
2229 2654
2229 2877
2229 4050
2229 4312
2229 4564
2229 4640
2231 2252
2231 2267
2231 2543
2231 2567
2231 2643
2231 2709
2231 2887
2231 2981
2231 3063
2231 3085
2231 3146
2231 3333
2231 3369
2231 3419
2231 3430
2231 3526
2231 3609
2231 3834
2231 4048
2231 4140
2231 4234
2231 4365
2231 4467
2231 4491
2231 4520
2231 4571
2231 4592
2232 2523
2232 2830
2232 2910
2232 4448
2233 3422
2234 3720
2236 2252
2236 2518
2236 2732
2236 2735
2236 3039
2236 3546
2236 4046
2237 2238
2237 2272
2237 3409
2237 4187
2238 2272
2238 2461
2238 2543
2238 3582
2238 4013
2238 4181
2238 4187
2238 4708
2239 2794
2239 2801
2239 3059
2239 3311
2239 3634
2239 3799
2239 3899
2239 4063
2239 4151
2239 4243
2239 4470
2240 2354
2240 3628
2240 4502
2241 3067
2242 3155
2243 2745
2243 2757
2243 3756
2243 3791
2243 4001
2243 4055
2243 4708
2244 2688
2244 3484
2244 4154
2244 4206
2244 4692
2245 2643
2245 4136
2246 2607
2246 2693
2246 2722
2246 3065
2246 3764
2246 4142
2246 4270
2246 4519
2247 2835
2247 4186
2248 2670
2248 4565
2249 3291
2249 4408
2249 4528
2249 4571
2252 2312
2252 2349
2252 2379
2252 2386
2252 2393
2252 2401
2252 2418
2252 2421
2252 2501
2252 2508
2252 2541
2252 2567
2252 2579
2252 2602
2252 2624
2252 2643
2252 2644
2252 2659
2252 2702
2252 2717
2252 2728
2252 2746
2252 2771
2252 2777
2252 2808
2252 2832
2252 2847
2252 2864
2252 2889
2252 2911
2252 2941
2252 2967
2252 2978
2252 2986
2252 3016
2252 3036
2252 3039
2252 3053
2252 3085
2252 3093
2252 3126
2252 3146
2252 3151
2252 3190
2252 3203
2252 3281
2252 3295
2252 3320
2252 3326
2252 3329
2252 3357
2252 3358
2252 3364
2252 3367
2252 3380
2252 3387
2252 3403
2252 3421
2252 3442
2252 3467
2252 3470
2252 3491
2252 3493
2252 3499
2252 3525
2252 3579
2252 3594
2252 3609
2252 3653
2252 3673
2252 3677
2252 3766
2252 3780
2252 3790
2252 3791
2252 3832
2252 3913
2252 3940
2252 3960
2252 3961
2252 3972
2252 4023
2252 4028
2252 4055
2252 4068
2252 4134
2252 4136
2252 4173
2252 4182
2252 4189
2252 4190
2252 4234
2252 4238
2252 4311
2252 4320
2252 4322
2252 4329
2252 4339
2252 4347
2252 4382
2252 4396
2252 4441
2252 4450
2252 4463
2252 4471
2252 4484
2252 4503
2252 4513
2252 4531
2252 4544
2252 4547
2252 4558
2252 4576
2252 4577
2252 4592
2252 4616
2252 4626
2252 4639
2252 4641
2252 4671
2254 2573
2254 2664
2254 3042
2254 3414
2254 3509
2254 4564
2255 2546
2255 2717
2255 3039
2255 3341
2255 3571
2255 3680
2255 3770
2255 3790
2255 4024
2255 4276
2255 4360
2255 4410
2255 4415
2255 4476
2256 2866
2257 2625
2257 3292
2257 3990
2259 2350
2259 2477
2259 2654
2259 2664
2259 2759
2259 2760
2259 2992
2259 2997
2259 3216
2259 3288
2259 3414
2259 3436
2259 3522
2259 3533
2259 3726
2259 3808
2259 3823
2259 3848
2259 4050
2259 4096
2259 4151
2259 4375
2260 2377
2260 2562
2260 2800
2260 3102
2260 3261
2260 3411
2260 3623
2260 3746
2260 3866
2260 4151
2260 4201
2260 4226
2260 4231
2260 4485
2261 2543
2261 2783
2261 3308
2261 3449
2261 3748
2261 4286
2261 4671
2262 4147
2263 2298
2263 2365
2263 2434
2263 2549
2263 2843
2263 2974
2263 3042
2263 3315
2263 3534
2263 3706
2263 3726
2263 3949
2263 4017
2263 4045
2263 4270
2263 4615
2263 4671
2263 4707
2264 2332
2264 2639
2264 3031
2264 3088
2264 3203
2264 3251
2264 3493
2264 3622
2264 4571
2265 2477
2265 2503
2265 2523
2265 2687
2265 2830
2265 3085
2265 4001
2265 4048
2265 4082
2265 4229
2265 4559
2266 2827
2266 3042
2266 3059
2266 3432
2266 3555
2266 4151
2266 4671
2267 2275
2267 2505
2267 2543
2267 2628
2267 2910
2267 3016
2267 3066
2267 3218
2267 3244
2267 3388
2267 3673
2267 4001
2267 4033
2267 4068
2267 4144
2267 4182
2267 4185
2267 4190
2267 4448
2267 4453
2267 4571
2267 4576
2267 4674
2268 3642
2269 2517
2269 2641
2269 2763
2269 2795
2269 3496
2269 3630
2269 3786
2269 4001
2269 4023
2269 4185
2269 4225
2269 4351
2269 4402
2269 4605
2270 3982
2270 3998
2271 4020
2272 3409
2272 3582
2273 2277
2274 2313
2274 2350
2274 2379
2274 2471
2274 2477
2274 2503
2274 2543
2274 2556
2274 2573
2274 2589
2274 2623
2274 2942
2274 3059
2274 3226
2274 3304
2274 3315
2274 3539
2274 3607
2274 3787
2274 3808
2274 3866
2274 4045
2274 4063
2274 4361
2274 4383
2274 4394
2274 4462
2274 4532
2274 4671
2274 4707
2275 2331
2275 2379
2275 2472
2275 2584
2275 2709
2275 2710
2275 2874
2275 2882
2275 2887
2275 3111
2275 3214
2275 3245
2275 3367
2275 3523
2275 3728
2275 3786
2275 4001
2275 4023
2275 4040
2275 4051
2275 4367
2275 4524
2275 4552
2276 2516
2276 2712
2276 3043
2276 3246
2276 3268
2276 3376
2276 4035
2276 4669
2276 4707
2277 2346
2277 2554
2277 2556
2277 2598
2277 2607
2277 2698
2277 3921
2277 3981
2277 4223
2277 4368
2278 3085
2278 3093
2278 3341
2278 4276
2278 4347
2278 4415
2279 2313
2279 3535
2280 2451
2280 2645
2280 2674
2280 2696
2280 2781
2280 3012
2280 3039
2280 3085
2280 3093
2280 3226
2280 3341
2280 3418
2280 3467
2280 3504
2280 3532
2280 3552
2280 3618
2280 3670
2280 3680
2280 3808
2280 3826
2280 3871
2280 3952
2280 4036
2280 4085
2280 4320
2280 4415
2280 4462
2280 4606
2280 4627
2280 4654
2281 3244
2282 2628
2283 2725
2284 2829
2284 4206
2284 4570
2285 3657
2286 3286
2287 3808
2287 4707
2288 2503
2288 4376
2289 2302
2289 2387
2289 3514
2289 4320
2289 4415
2289 4544
2289 4558
2290 2997
2290 4151
2292 2797
2292 4290
2292 4589
2293 4415
2294 2686
2294 2757
2294 2894
2294 2946
2294 3061
2294 3645
2294 3684
2294 3906
2294 4039
2294 4138
2294 4146
2294 4659
2295 2379
2295 2499
2295 2887
2295 3276
2295 3284
2295 4023
2295 4174
2296 3555
2297 2390
2297 2400
2297 2516
2297 2543
2297 2576
2297 2712
2297 3149
2297 3869
2298 2299
2298 2451
2298 2479
2298 2555
2298 2623
2298 2850
2298 2949
2298 2962
2298 3042
2298 3059
2298 3129
2298 3369
2298 3378
2298 3435
2298 3726
2298 3808
2298 3880
2298 3893
2298 3923
2298 4001
2298 4161
2298 4298
2298 4609
2298 4646
2298 4671
2298 4707
2299 2379
2299 2471
2299 2543
2299 2576
2299 2623
2299 2687
2299 2698
2299 3042
2299 3059
2299 3131
2299 3288
2299 3504
2299 3601
2299 3633
2299 3648
2299 3808
2299 3893
2299 4087
2299 4238
2299 4270
2299 4367
2299 4453
2299 4462
2299 4520
2299 4579
2299 4695
2300 2339
2300 2421
2300 2451
2300 2457
2300 2552
2300 2564
2300 2567
2300 2583
2300 2619
2300 2623
2300 2639
2300 2675
2300 2702
2300 2717
2300 2732
2300 2757
2300 2809
2300 2843
2300 2882
2300 2915
2300 2946
2300 3025
2300 3032
2300 3036
2300 3079
2300 3093
2300 3126
2300 3146
2300 3244
2300 3329
2300 3379
2300 3387
2300 3435
2300 3455
2300 3594
2300 3609
2300 3697
2300 3726
2300 3790
2300 3856
2300 3859
2300 3971
2300 4001
2300 4255
2300 4292
2300 4330
2300 4395
2300 4441
2300 4464
2300 4503
2300 4558
2300 4626
2300 4641
2300 4670
2300 4674
2301 3799
2302 2387
2302 2728
2302 3514
2302 3790
2302 4276
2302 4320
2302 4339
2302 4463
2302 4544
2302 4558
2302 4626
2303 2408
2303 2589
2303 3563
2303 3946
2303 4198
2303 4542
2303 4703
2304 2477
2304 2503
2304 2543
2304 2552
2304 2589
2304 2598
2304 2623
2304 2698
2304 2703
2304 2740
2304 2779
2304 2879
2304 3059
2304 3060
2304 3066
2304 3154
2304 3184
2304 3240
2304 3244
2304 3268
2304 3288
2304 3291
2304 3347
2304 3435
2304 3533
2304 3578
2304 3633
2304 3674
2304 3679
2304 3688
2304 3808
2304 3848
2304 3856
2304 3888
2304 3923
2304 3958
2304 3969
2304 3979
2304 4061
2304 4168
2304 4180
2304 4183
2304 4367
2304 4462
2304 4642
2304 4677
2304 4707
2304 4711
2305 2503
2306 2840
2307 2543
2307 2749
2307 3059
2307 3193
2307 3578
2307 3958
2307 3978
2307 4219
2307 4571
2307 4666
2307 4711
2308 2643
2308 3085
2308 3435
2308 3590
2308 3609
2308 3832
2308 4487
2308 4571
2309 2543
2309 2607
2309 2744
2309 3146
2309 3981
2310 2350
2310 2445
2310 2623
2310 2801
2310 4063
2310 4222
2310 4340
2310 4418
2312 2640
2312 2874
2312 2917
2312 2924
2312 4318
2312 4571
2313 2379
2313 2489
2313 2514
2313 2556
2313 2578
2313 2619
2313 2717
2313 2794
2313 2814
2313 2921
2313 2949
2313 2996
2313 3009
2313 3042
2313 3043
2313 3059
2313 3085
2313 3183
2313 3205
2313 3244
2313 3267
2313 3311
2313 3504
2313 3535
2313 3601
2313 3614
2313 3667
2313 3726
2313 3744
2313 3781
2313 3799
2313 3895
2313 3960
2313 4063
2313 4080
2313 4270
2313 4418
2313 4520
2313 4671
2314 3749
2315 4579
2317 3038
2317 3566
2317 3824
2317 4045
2317 4462
2317 4532
2317 4636
2317 4658
2318 2826
2318 3290
2318 4229
2318 4282
2319 3059
2319 3244
2320 2829
2320 4154
2320 4323
2320 4543
2320 4692
2321 2601
2321 2623
2321 2679
2321 2756
2321 2859
2321 3268
2321 3303
2321 3787
2321 4180
2322 2470
2322 2486
2322 2503
2322 2516
2322 2607
2322 2813
2322 3059
2322 3149
2322 3234
2322 3338
2322 3416
2322 3869
2322 4045
2322 4063
2322 4237
2322 4251
2322 4418
2322 4637
2322 4707
2323 3806
2325 2960
2326 2403
2326 3786
2326 3849
2327 3478
2327 4534
2328 2825
2328 3091
2329 3919
2330 3565
2330 3718
2331 3059
2331 4151
2332 2639
2332 3031
2332 3088
2332 3203
2332 3493
2332 3571
2335 2903
2335 4172
2335 4218
2336 4063
2337 4023
2338 2643
2338 3085
2338 3582
2338 3726
2338 4048
2338 4140
2338 4654
2339 2350
2339 2623
2339 2643
2339 2698
2339 2759
2339 2827
2339 2887
2339 3093
2339 3244
2339 3304
2339 3347
2339 3379
2339 3579
2339 3972
2339 4001
2339 4224
2339 4280
2339 4303
2339 4395
2340 2643
2340 2710
2340 2824
2340 3035
2340 3085
2340 3146
2340 3722
2340 3787
2340 3960
2340 4045
2340 4134
2340 4559
2340 4671
2342 2507
2343 2543
2343 3465
2343 4198
2343 4406
2343 4671
2344 2374
2344 2439
2344 2572
2344 2650
2344 2680
2344 2702
2344 2705
2344 2717
2344 2728
2344 2777
2344 2786
2344 2935
2344 2962
2344 3016
2344 3135
2344 3137
2344 3224
2344 3333
2344 3341
2344 3367
2344 3530
2344 3532
2344 3552
2344 3564
2344 3594
2344 3622
2344 3673
2344 3697
2344 3756
2344 3766
2344 3790
2344 3846
2344 4001
2344 4048
2344 4068
2344 4213
2344 4288
2344 4311
2344 4516
2344 4558
2344 4626
2344 4702
2344 4715
2345 2565
2345 3047
2345 3420
2345 4208
2346 2556
2346 2779
2346 2794
2346 2865
2346 2993
2346 3073
2346 3085
2346 3341
2346 3430
2346 3442
2346 3781
2346 3921
2346 4001
2346 4117
2346 4408
2346 4620
2347 2350
2347 2377
2347 2434
2347 2623
2347 2780
2347 3059
2347 3060
2347 3105
2347 3303
2347 3347
2347 3484
2347 3532
2347 3551
2347 3620
2347 3715
2347 3864
2347 3946
2347 4045
2347 4206
2347 4395
2347 4412
2347 4462
2347 4497
2347 4518
2347 4602
2347 4615
2347 4685
2347 4707
2348 2419
2348 3926
2348 4018
2349 2439
2349 2456
2349 2543
2349 2747
2349 3704
2349 3826
2349 3909
2349 4001
2349 4138
2349 4364
2350 2377
2350 2379
2350 2400
2350 2434
2350 2471
2350 2479
2350 2503
2350 2505
2350 2517
2350 2543
2350 2550
2350 2598
2350 2623
2350 2654
2350 2698
2350 2710
2350 2717
2350 2731
2350 2759
2350 2766
2350 2771
2350 2793
2350 2846
2350 2878
2350 2887
2350 2936
2350 2949
2350 2962
2350 2964
2350 3015
2350 3042
2350 3053
2350 3060
2350 3093
2350 3126
2350 3149
2350 3216
2350 3225
2350 3288
2350 3338
2350 3342
2350 3345
2350 3347
2350 3386
2350 3395
2350 3423
2350 3429
2350 3438
2350 3451
2350 3496
2350 3504
2350 3565
2350 3601
2350 3624
2350 3694
2350 3699
2350 3722
2350 3726
2350 3744
2350 3787
2350 3808
2350 3809
2350 3821
2350 3834
2350 3848
2350 3856
2350 3869
2350 3891
2350 3902
2350 3937
2350 3972
2350 4001
2350 4010
2350 4034
2350 4045
2350 4123
2350 4144
2350 4151
2350 4157
2350 4161
2350 4214
2350 4238
2350 4251
2350 4254
2350 4266
2350 4270
2350 4280
2350 4294
2350 4296
2350 4298
2350 4307
2350 4363
2350 4395
2350 4408
2350 4415
2350 4520
2350 4579
2350 4615
2350 4637
2350 4646
2350 4647
2350 4663
2350 4669
2350 4674
2350 4677
2350 4685
2350 4694
2350 4705
2350 4707
2351 3936
2353 2506
2353 2543
2353 2623
2353 2937
2353 3032
2353 3249
2353 3859
2353 4011
2353 4045
2353 4161
2353 4180
2353 4462
2353 4709
2354 2856
2354 3199
2355 3378
2355 4062
2355 4677
2357 3532
2357 4290
2358 3791
2359 2556
2359 3188
2360 2379
2360 2451
2360 2477
2360 2479
2360 2517
2360 2543
2360 2555
2360 2601
2360 2623
2360 2654
2360 2679
2360 3042
2360 3060
2360 3127
2360 3216
2360 3268
2360 3404
2360 3413
2360 3504
2360 3562
2360 3633
2360 3699
2360 3821
2360 3972
2360 3997
2360 4045
2360 4096
2360 4238
2360 4395
2360 4520
2360 4560
2360 4633
2360 4685
2360 4714
2361 2946
2362 2750
2362 2877
2362 3042
2362 4203
2362 4312
2362 4540
2363 2524
2363 2565
2363 2890
2363 3464
2363 3611
2363 3613
2363 4208
2363 4357
2363 4676
2364 2976
2364 2993
2364 3479
2364 4603
2365 2503
2365 2717
2365 2827
2365 3042
2365 3205
2365 3292
2365 4376
2366 2524
2366 3611
2366 3730
2366 3739
2366 4159
2366 4506
2366 4562
2366 4631
2367 2541
2367 2550
2367 2643
2367 3036
2367 3063
2367 3085
2367 3111
2367 3126
2367 3151
2367 4483
2367 4499
2367 4571
2367 4654
2368 2933
2369 3560
2370 2556
2370 2623
2370 3244
2370 3435
2370 3746
2370 3783
2370 4001
2370 4082
2370 4165
2370 4201
2370 4418
2370 4689
2371 2500
2372 2543
2372 2698
2372 2755
2372 2922
2372 3009
2372 3022
2372 3032
2372 3059
2372 3244
2372 3405
2372 3578
2372 3633
2372 3710
2372 3829
2372 4002
2372 4023
2372 4171
2372 4408
2372 4462
2372 4605
2372 4711
2373 3532
2374 2379
2374 2392
2374 2471
2374 2598
2374 2698
2374 2759
2374 2827
2374 2846
2374 2953
2374 3016
2374 3042
2374 3145
2374 3356
2374 3422
2374 3555
2374 3564
2374 3923
2374 3982
2374 4091
2374 4151
2374 4164
2374 4270
2374 4520
2375 2538
2375 2896
2376 2390
2376 2829
2376 2983
2376 3044
2376 3155
2376 3731
2376 3805
2376 3895
2376 3898
2376 3981
2376 4270
2376 4543
2376 4564
2376 4570
2376 4655
2377 2530
2377 2543
2377 2779
2377 2780
2377 2793
2377 2818
2377 2937
2377 3015
2377 3059
2377 3105
2377 3146
2377 3244
2377 3303
2377 3304
2377 3347
2377 3551
2377 3587
2377 3726
2377 3807
2377 3866
2377 4151
2377 4161
2377 4395
2377 4518
2377 4548
2377 4685
2378 2386
2378 3329
2378 4329
2378 4667
2378 4673
2379 2450
2379 2451
2379 2477
2379 2479
2379 2499
2379 2503
2379 2522
2379 2543
2379 2550
2379 2552
2379 2555
2379 2584
2379 2589
2379 2612
2379 2623
2379 2632
2379 2696
2379 2703
2379 2710
2379 2740
2379 2763
2379 2779
2379 2788
2379 2805
2379 2846
2379 2850
2379 2868
2379 2877
2379 2885
2379 2887
2379 2951
2379 2962
2379 2975
2379 3012
2379 3015
2379 3035
2379 3042
2379 3050
2379 3059
2379 3060
2379 3063
2379 3129
2379 3175
2379 3276
2379 3304
2379 3306
2379 3342
2379 3347
2379 3369
2379 3378
2379 3413
2379 3419
2379 3428
2379 3431
2379 3435
2379 3438
2379 3480
2379 3502
2379 3533
2379 3545
2379 3607
2379 3644
2379 3668
2379 3726
2379 3732
2379 3737
2379 3744
2379 3746
2379 3753
2379 3786
2379 3787
2379 3806
2379 3809
2379 3834
2379 3848
2379 3849
2379 3856
2379 3866
2379 3891
2379 3893
2379 3918
2379 3923
2379 3945
2379 3960
2379 3971
2379 3981
2379 3997
2379 4001
2379 4023
2379 4033
2379 4035
2379 4045
2379 4145
2379 4151
2379 4161
2379 4171
2379 4175
2379 4180
2379 4195
2379 4227
2379 4298
2379 4309
2379 4333
2379 4351
2379 4361
2379 4374
2379 4376
2379 4395
2379 4406
2379 4462
2379 4478
2379 4515
2379 4560
2379 4603
2379 4615
2379 4646
2379 4654
2379 4669
2379 4671
2379 4677
2379 4685
2379 4702
2379 4703
2379 4707
2381 2939
2382 2609
2382 2643
2382 2717
2382 2860
2382 3085
2382 3093
2382 3341
2382 3365
2382 3508
2382 3532
2382 3766
2382 3970
2382 4136
2382 4138
2382 4182
2382 4185
2382 4276
2382 4347
2382 4410
2382 4415
2382 4572
2382 4677
2383 2829
2383 4157
2383 4178
2383 4653
2385 3172
2386 3126
2386 3669
2386 3832
2386 4140
2386 4329
2386 4673
2387 2687
2387 2830
2387 3042
2387 3514
2387 3809
2387 4703
2388 2556
2388 2696
2388 3042
2388 3392
2388 3542
2388 3902
2388 3921
2388 4180
2388 4270
2388 4707
2389 2848
2390 2400
2390 2470
2390 2504
2390 2516
2390 2543
2390 2586
2390 2607
2390 2664
2390 2936
2390 3074
2390 3149
2390 3188
2390 3233
2390 3416
2390 3448
2390 3805
2390 3868
2390 3869
2390 3905
2390 4045
2390 4060
2390 4418
2390 4520
2390 4564
2390 4570
2390 4637
2391 3398
2391 3526
2391 3590
2391 4571
2392 4516
2393 2465
2393 2974
2393 4140
2393 4571
2394 3479
2394 3480
2394 3921
2394 3946
2395 4101
2396 2402
2396 2543
2396 2589
2396 2679
2396 2726
2396 3437
2396 3722
2396 3946
2396 4082
2396 4180
2396 4242
2397 3286
2400 2443
2400 2543
2400 2623
2400 2654
2400 2760
2400 2819
2400 3347
2400 3423
2400 3522
2400 3616
2400 3694
2400 3869
2400 4017
2400 4043
2400 4251
2400 4489
2400 4640
2400 4646
2401 2941
2401 3053
2401 3085
2401 3387
2401 3527
2401 4316
2401 4483
2401 4493
2401 4571
2402 2413
2402 2556
2402 2623
2402 3089
2402 3334
2402 3907
2402 4157
2402 4180
2405 2416
2405 3042
2406 2947
2406 3212
2406 3779
2406 3998
2406 4011
2406 4259
2407 2643
2407 3063
2407 3085
2407 3419
2407 3582
2407 3622
2407 3791
2407 4001
2407 4571
2408 2923
2408 3023
2408 3126
2408 3561
2408 3747
2408 3764
2408 4009
2408 4520
2409 2943
2409 4043
2410 2643
2411 4671
2412 2888
2413 2936
2413 3089
2413 3334
2413 4180
2413 4595
2413 4671
2414 2596
2415 3318
2415 3464
2415 4447
2416 2970
2416 3578
2416 4142
2418 2967
2418 3252
2418 3622
2418 4140
2418 4238
2418 4330
2418 4571
2418 4641
2419 3926
2421 2521
2421 2643
2421 2674
2421 2778
2421 3085
2421 3288
2421 3787
2421 3834
2421 4001
2421 4140
2421 4410
2421 4571
2422 4514
2423 4023
2424 4045
2424 4462
2425 2890
2426 3622
2427 2736
2427 3067
2427 3155
2427 3783
2427 4201
2427 4269
2427 4477
2428 2466
2429 3981
2429 4136
2429 4374
2429 4571
2430 2505
2430 2623
2430 2669
2430 2788
2430 2919
2430 2974
2430 3187
2430 3230
2430 3244
2430 3270
2430 3276
2430 3369
2430 3856
2430 3981
2430 3998
2430 4001
2430 4011
2430 4023
2430 4448
2430 4473
2430 4573
2430 4633
2430 4674
2432 4125
2432 4309
2434 2451
2434 2479
2434 2503
2434 2543
2434 2589
2434 3015
2434 3042
2434 3059
2434 3261
2434 3304
2434 3341
2434 3435
2434 3465
2434 3579
2434 3620
2434 3726
2434 3744
2434 3866
2434 4033
2434 4151
2434 4270
2434 4297
2434 4462
2434 4532
2434 4602
2434 4615
2434 4671
2434 4685
2434 4695
2434 4707
2435 4395
2436 4115
2437 4195
2438 2441
2438 2598
2438 2654
2438 2698
2438 2759
2438 3025
2438 3042
2438 3244
2438 3347
2438 3395
2438 3808
2438 4161
2438 4293
2438 4296
2438 4395
2438 4462
2438 4711
2439 2643
2439 2674
2439 2723
2439 2814
2439 3085
2439 3244
2439 3281
2439 3425
2439 3443
2439 3487
2439 3490
2439 3553
2439 3725
2439 3726
2439 3766
2439 3824
2439 3832
2439 4001
2439 4402
2439 4569
2441 3085
2442 2840
2442 4326
2443 2712
2443 2729
2443 2819
2443 2943
2443 3823
2443 3869
2443 4637
2443 4707
2444 4664
2445 2556
2445 2573
2445 3082
2445 3382
2445 3708
2445 3726
2445 3780
2445 3830
2445 3848
2446 4161
2449 2910
2449 3066
2449 3093
2449 3488
2449 3688
2449 3698
2449 4024
2449 4360
2449 4404
2450 2623
2450 2703
2450 3042
2450 3234
2450 3329
2450 3562
2450 3653
2450 4148
2450 4270
2450 4406
2450 4520
2450 4556
2451 2457
2451 2471
2451 2543
2451 2555
2451 2556
2451 2623
2451 2643
2451 2679
2451 2698
2451 2707
2451 2740
2451 2759
2451 2761
2451 2766
2451 2779
2451 2791
2451 2794
2451 2809
2451 2827
2451 2846
2451 2880
2451 2887
2451 2974
2451 3012
2451 3015
2451 3042
2451 3059
2451 3127
2451 3149
2451 3155
2451 3161
2451 3216
2451 3244
2451 3252
2451 3285
2451 3363
2451 3369
2451 3395
2451 3435
2451 3504
2451 3562
2451 3601
2451 3621
2451 3626
2451 3708
2451 3726
2451 3732
2451 3740
2451 3744
2451 3808
2451 3823
2451 3829
2451 3834
2451 3835
2451 3848
2451 3856
2451 3869
2451 3907
2451 3922
2451 3971
2451 4001
2451 4008
2451 4011
2451 4017
2451 4023
2451 4045
2451 4051
2451 4055
2451 4063
2451 4082
2451 4151
2451 4180
2451 4270
2451 4298
2451 4333
2451 4387
2451 4406
2451 4419
2451 4462
2451 4479
2451 4513
2451 4520
2451 4559
2451 4615
2451 4641
2451 4646
2451 4647
2451 4663
2451 4671
2451 4685
2451 4689
2451 4695
2451 4707
2453 2543
2453 2611
2453 2612
2453 2766
2453 2789
2453 2816
2453 3258
2453 3261
2453 3448
2453 3532
2453 3792
2453 3808
2453 3949
2453 4035
2453 4469
2453 4525
2453 4669
2453 4671
2454 2875
2454 2969
2454 3155
2454 3261
2454 3452
2454 3746
2454 4201
2454 4573
2455 3347
2456 3403
2456 3725
2456 4001
2456 4075
2456 4538
2457 3085
2457 3252
2457 3756
2457 3925
2457 4055
2457 4140
2457 4513
2457 4571
2457 4639
2458 2477
2458 4462
2459 3972
2459 4263
2460 3401
2461 3582
2462 3476
2463 2936
2463 3221
2463 3605
2463 4082
2465 3204
2465 3526
2465 4140
2465 4365
2465 4415
2465 4450
2465 4571
2466 2826
2466 2961
2466 3130
2466 3214
2466 3474
2466 3579
2466 3636
2466 3657
2466 4001
2466 4086
2466 4276
2466 4438
2466 4465
2466 4559
2466 4613
2467 3122
2467 3123
2467 3275
2467 3568
2467 3886
2467 3945
2467 4454
2469 2879
2469 3085
2469 3858
2469 4206
2470 2516
2470 2607
2470 2936
2470 3042
2470 3127
2470 3149
2470 3234
2470 3416
2470 3542
2470 3616
2470 3726
2470 3905
2470 3949
2470 4418
2471 2477
2471 2479
2471 2503
2471 2543
2471 2555
2471 2623
2471 2710
2471 2740
2471 2759
2471 2769
2471 2779
2471 2830
2471 2877
2471 2962
2471 3015
2471 3035
2471 3042
2471 3059
2471 3060
2471 3093
2471 3114
2471 3369
2471 3435
2471 3502
2471 3504
2471 3533
2471 3607
2471 3649
2471 3708
2471 3726
2471 3732
2471 3744
2471 3787
2471 3809
2471 3848
2471 3856
2471 3866
2471 3891
2471 3923
2471 3971
2471 3997
2471 4085
2471 4151
2471 4161
2471 4180
2471 4227
2471 4361
2471 4374
2471 4462
2471 4671
2471 4677
2471 4685
2471 4707
2475 3811
2475 3981
2475 4471
2476 3169
2476 3355
2476 4018
2477 2516
2477 2518
2477 2543
2477 2564
2477 2589
2477 2598
2477 2623
2477 2654
2477 2698
2477 2749
2477 2759
2477 2762
2477 2788
2477 2801
2477 2814
2477 2843
2477 2846
2477 2887
2477 2974
2477 3009
2477 3012
2477 3042
2477 3059
2477 3166
2477 3216
2477 3268
2477 3288
2477 3315
2477 3347
2477 3435
2477 3465
2477 3480
2477 3504
2477 3562
2477 3601
2477 3607
2477 3624
2477 3633
2477 3642
2477 3744
2477 3787
2477 3808
2477 3835
2477 3895
2477 3902
2477 3907
2477 3958
2477 3960
2477 4001
2477 4021
2477 4026
2477 4045
2477 4063
2477 4144
2477 4238
2477 4270
2477 4298
2477 4360
2477 4374
2477 4514
2477 4520
2477 4547
2477 4559
2477 4560
2477 4599
2477 4685
2478 3122
2478 3886
2478 3945
2479 2543
2479 2552
2479 2555
2479 2598
2479 2698
2479 2710
2479 2759
2479 2919
2479 3042
2479 3143
2479 3244
2479 3271
2479 3395
2479 3633
2479 4038
2479 4082
2479 4144
2479 4270
2479 4412
2479 4473
2479 4615
2480 2546
2480 3059
2480 3813
2480 4001
2480 4571
2481 2669
2482 2777
2483 2631
2483 3410
2483 4321
2483 4354
2484 2516
2484 2936
2484 3869
2485 2562
2485 2617
2485 2794
2485 3305
2485 3452
2485 3601
2485 3746
2485 3941
2485 4415
2485 4418
2486 3754
2486 4414
2486 4470
2486 4603
2487 3286
2488 2617
2488 3746
2488 4201
2488 4485
2488 4622
2489 2543
2489 2556
2489 2623
2489 2823
2489 2872
2489 3059
2489 3085
2489 3155
2489 3425
2489 3448
2489 3473
2489 3612
2489 3744
2489 3746
2489 3785
2489 3805
2489 3843
2489 3845
2489 3907
2489 4070
2489 4270
2489 4338
2489 4367
2489 4408
2489 4462
2489 4477
2489 4521
2489 4528
2489 4577
2489 4647
2489 4707
2490 2589
2490 4045
2490 4671
2492 3067
2492 3305
2492 3746
2492 3799
2492 4201
2492 4539
2493 3673
2495 3067
2495 3761
2495 4573
2496 4001
2497 4148
2497 4187
2498 2523
2498 2643
2498 2669
2498 2826
2498 2842
2498 2910
2498 3022
2498 3214
2498 3290
2498 3467
2498 3538
2498 3552
2498 3578
2498 3633
2498 4001
2498 4023
2498 4185
2498 4245
2498 4290
2498 4404
2498 4438
2498 4463
2498 4468
2498 4524
2499 2887
2499 4512
2500 3115
2501 3085
2501 4001
2501 4136
2501 4140
2501 4218
2501 4483
2501 4571
2501 4615
2502 2515
2502 2686
2502 2928
2502 3281
2502 3320
2502 3590
2502 3729
2502 4140
2502 4238
2502 4471
2503 2516
2503 2543
2503 2598
2503 2607
2503 2648
2503 2698
2503 2717
2503 2744
2503 2759
2503 2766
2503 2794
2503 2827
2503 2880
2503 2974
2503 3009
2503 3042
2503 3059
2503 3145
2503 3244
2503 3268
2503 3342
2503 3435
2503 3484
2503 3502
2503 3504
2503 3601
2503 3602
2503 3682
2503 3688
2503 3726
2503 3732
2503 3744
2503 3800
2503 3869
2503 3895
2503 3907
2503 3972
2503 4021
2503 4024
2503 4045
2503 4050
2503 4142
2503 4180
2503 4238
2503 4246
2503 4270
2503 4298
2503 4361
2503 4376
2503 4395
2503 4408
2503 4462
2503 4520
2503 4559
2503 4560
2503 4615
2503 4671
2503 4677
2503 4685
2503 4707
2504 2543
2504 3411
2504 3435
2504 3800
2504 4603
2504 4671
2504 4685
2505 2564
2505 2623
2505 2659
2505 2746
2505 2894
2505 2974
2505 3085
2505 3244
2505 3360
2505 3677
2505 3684
2505 3831
2505 3951
2505 3981
2505 4011
2505 4410
2505 4445
2505 4483
2505 4484
2505 4534
2505 4568
2505 4571
2505 4654
2505 4670
2505 4712
2506 2623
2506 2724
2506 2800
2506 2919
2506 2937
2506 3155
2506 3473
2506 3746
2506 4201
2506 4231
2506 4593
2506 4686
2507 2997
2507 3149
2507 3347
2507 3465
2507 4151
2508 3039
2508 3252
2508 3622
2508 3740
2508 4055
2508 4483
2508 4513
2508 4639
2509 2623
2509 2714
2509 2747
2509 3085
2509 3330
2509 3365
2509 4001
2509 4138
2510 2859
2510 3835
2510 4462
2511 3435
2512 3015
2512 3107
2512 3244
2512 3369
2512 4001
2512 4133
2512 4522
2512 4645
2513 4616
2514 3291
2514 3296
2515 2928
2515 3281
2515 3320
2515 3590
2515 3680
2515 4048
2515 4471
2515 4571
2516 2543
2516 2549
2516 2552
2516 2556
2516 2586
2516 2607
2516 2664
2516 2698
2516 2710
2516 2712
2516 2760
2516 2769
2516 2819
2516 2869
2516 2936
2516 3042
2516 3059
2516 3077
2516 3127
2516 3149
2516 3162
2516 3181
2516 3188
2516 3205
2516 3233
2516 3234
2516 3362
2516 3408
2516 3435
2516 3440
2516 3448
2516 3462
2516 3540
2516 3542
2516 3595
2516 3607
2516 3616
2516 3682
2516 3760
2516 3823
2516 3868
2516 3869
2516 3905
2516 3907
2516 4029
2516 4045
2516 4050
2516 4060
2516 4110
2516 4161
2516 4206
2516 4223
2516 4251
2516 4376
2516 4413
2516 4418
2516 4435
2516 4462
2516 4520
2516 4564
2516 4637
2516 4671
2516 4685
2516 4707
2517 2732
2517 2795
2517 3410
2517 3791
2517 4001
2517 4023
2517 4092
2517 4185
2517 4225
2517 4351
2517 4372
2517 4374
2517 4382
2517 4619
2517 4671
2518 2643
2518 3281
2518 4011
2520 3031
2520 4571
2521 3787
2521 4075
2521 4195
2522 2885
2522 3036
2522 4468
2523 2702
2523 2847
2523 2910
2523 3016
2523 3022
2523 3059
2523 3286
2523 3467
2523 3552
2523 3841
2523 4001
2523 4023
2523 4276
2523 4404
2523 4415
2523 4438
2523 4463
2523 4468
2524 2900
2524 3420
2524 3701
2524 4208
2527 4619
2530 2780
2530 3304
2530 3347
2530 3551
2530 3587
2530 3807
2530 3866
2530 4395
2530 4685
2531 3520
2532 3288
2532 3787
2533 3244
2533 3532
2533 4518
2536 2554
2536 2586
2536 2664
2536 2693
2536 2729
2536 2817
2536 2936
2536 3127
2536 3347
2536 3714
2536 3726
2536 3805
2536 4096
2536 4178
2536 4501
2536 4566
2536 4685
2537 3362
2537 3595
2538 3128
2538 4011
2539 2864
2539 2989
2539 3163
2539 4571
2540 2773
2540 3333
2540 4531
2541 2543
2541 2643
2541 2811
2541 3039
2541 3288
2541 3387
2541 3680
2541 3787
2541 3828
2541 4023
2541 4171
2541 4182
2541 4238
2541 4396
2541 4410
2541 4537
2542 3015
2542 3103
2542 3462
2542 4418
2543 2550
2543 2552
2543 2556
2543 2567
2543 2584
2543 2589
2543 2598
2543 2607
2543 2619
2543 2623
2543 2624
2543 2643
2543 2654
2543 2659
2543 2669
2543 2679
2543 2698
2543 2703
2543 2709
2543 2710
2543 2724
2543 2746
2543 2749
2543 2759
2543 2766
2543 2779
2543 2788
2543 2794
2543 2803
2543 2814
2543 2821
2543 2846
2543 2847
2543 2855
2543 2857
2543 2859
2543 2919
2543 2937
2543 2962
2543 2971
2543 2974
2543 2980
2543 2983
2543 2993
2543 3012
2543 3015
2543 3035
2543 3039
2543 3042
2543 3059
2543 3060
2543 3072
2543 3085
2543 3105
2543 3129
2543 3143
2543 3149
2543 3155
2543 3180
2543 3184
2543 3205
2543 3226
2543 3235
2543 3238
2543 3240
2543 3244
2543 3250
2543 3257
2543 3261
2543 3263
2543 3268
2543 3274
2543 3288
2543 3303
2543 3341
2543 3342
2543 3347
2543 3369
2543 3378
2543 3388
2543 3395
2543 3405
2543 3411
2543 3413
2543 3423
2543 3435
2543 3438
2543 3465
2543 3471
2543 3480
2543 3487
2543 3502
2543 3504
2543 3523
2543 3532
2543 3533
2543 3560
2543 3562
2543 3569
2543 3591
2543 3607
2543 3616
2543 3626
2543 3633
2543 3642
2543 3649
2543 3653
2543 3657
2543 3680
2543 3682
2543 3688
2543 3696
2543 3699
2543 3708
2543 3726
2543 3732
2543 3744
2543 3780
2543 3785
2543 3787
2543 3791
2543 3808
2543 3820
2543 3823
2543 3829
2543 3834
2543 3848
2543 3856
2543 3869
2543 3891
2543 3893
2543 3902
2543 3907
2543 3923
2543 3949
2543 3971
2543 3972
2543 3981
2543 4001
2543 4002
2543 4011
2543 4014
2543 4021
2543 4023
2543 4040
2543 4045
2543 4051
2543 4055
2543 4063
2543 4082
2543 4144
2543 4151
2543 4161
2543 4171
2543 4180
2543 4182
2543 4195
2543 4212
2543 4238
2543 4270
2543 4292
2543 4296
2543 4298
2543 4299
2543 4353
2543 4360
2543 4361
2543 4367
2543 4374
2543 4395
2543 4406
2543 4462
2543 4489
2543 4503
2543 4520
2543 4537
2543 4602
2543 4615
2543 4620
2543 4633
2543 4647
2543 4649
2543 4666
2543 4668
2543 4669
2543 4671
2543 4677
2543 4685
2543 4695
2543 4701
2543 4707
2543 4708
2543 4709
2543 4711
2544 4243
2544 4270
2545 3025
2545 3961
2545 4001
2545 4058
2545 4456
2545 4709
2546 2910
2546 3022
2546 3066
2546 3364
2546 3523
2546 3770
2546 3821
2546 4001
2546 4024
2546 4040
2546 4190
2546 4408
2546 4468
2546 4605
2547 2586
2547 2664
2547 4519
2548 2619
2548 3184
2548 3746
2548 4001
2548 4070
2548 4201
2549 2607
2549 2618
2549 2712
2549 2843
2549 2963
2549 3065
2549 3149
2549 3234
2549 3315
2549 3448
2549 3534
2549 3616
2549 3869
2549 4103
2549 4251
2549 4477
2549 4647
2549 4707
2550 2598
2550 2623
2550 2638
2550 2698
2550 2759
2550 2974
2550 3042
2550 3059
2550 3435
2550 3504
2550 3625
2550 3708
2550 3726
2550 3744
2550 3787
2550 3791
2550 3821
2550 3907
2550 3948
2550 3971
2550 4180
2550 4238
2550 4270
2550 4395
2550 4455
2550 4511
2550 4520
2551 3286
2551 3998
2552 2556
2552 2589
2552 2591
2552 2598
2552 2623
2552 2639
2552 2643
2552 2679
2552 2698
2552 2759
2552 2827
2552 2877
2552 2935
2552 2962
2552 2974
2552 3031
2552 3042
2552 3053
2552 3059
2552 3137
2552 3175
2552 3268
2552 3288
2552 3347
2552 3435
2552 3493
2552 3504
2552 3562
2552 3594
2552 3601
2552 3678
2552 3740
2552 3787
2552 3821
2552 3834
2552 3856
2552 3895
2552 3907
2552 3923
2552 3934
2552 3960
2552 3981
2552 4151
2552 4157
2552 4238
2552 4270
2552 4292
2552 4309
2552 4395
2552 4507
2552 4520
2552 4586
2552 4610
2552 4671
2552 4707
2553 3756
2554 4418
2554 4514
2555 2601
2555 2623
2555 2696
2555 2759
2555 3042
2555 3060
2555 3127
2555 3268
2555 3375
2555 3404
2555 3515
2555 3699
2555 3726
2555 4001
2555 4520
2556 2573
2556 2589
2556 2619
2556 2623
2556 2698
2556 2721
2556 2738
2556 2865
2556 2976
2556 2980
2556 2993
2556 3015
2556 3038
2556 3042
2556 3059
2556 3085
2556 3145
2556 3156
2556 3181
2556 3188
2556 3250
2556 3267
2556 3274
2556 3288
2556 3311
2556 3392
2556 3425
2556 3435
2556 3451
2556 3479
2556 3487
2556 3626
2556 3642
2556 3667
2556 3726
2556 3766
2556 3784
2556 3891
2556 3901
2556 3907
2556 3921
2556 3937
2556 3966
2556 4035
2556 4043
2556 4045
2556 4063
2556 4080
2556 4082
2556 4117
2556 4119
2556 4151
2556 4157
2556 4161
2556 4165
2556 4180
2556 4243
2556 4266
2556 4270
2556 4336
2556 4347
2556 4368
2556 4415
2556 4418
2556 4462
2556 4520
2556 4532
2556 4615
2556 4634
2556 4663
2556 4677
2556 4685
2557 4363
2560 3059
2560 3212
2560 3366
2560 4037
2560 4151
2560 4391
2561 3263
2561 4683
2562 2969
2562 3059
2562 3261
2562 3382
2562 3746
2562 4151
2562 4165
2562 4201
2562 4615
2563 3767
2564 2623
2564 2675
2564 2717
2564 2746
2564 3126
2564 3146
2564 3244
2564 3657
2564 3790
2564 3856
2564 3971
2564 4001
2564 4068
2564 4172
2564 4213
2564 4544
2565 2597
2565 2890
2565 2932
2565 3047
2565 3062
2565 3393
2565 3596
2565 3632
2565 3955
2565 4208
2565 4357
2565 4676
2567 2636
2567 3085
2567 3146
2567 3243
2567 3369
2567 3388
2567 3590
2567 4140
2567 4450
2567 4467
2567 4491
2567 4571
2567 4662
2568 3214
2568 3552
2568 4415
2568 4438
2569 3599
2570 2643
2570 3579
2571 3212
2572 2858
2572 4001
2573 2589
2573 2623
2573 2693
2573 2829
2573 3019
2573 3065
2573 3155
2573 3285
2573 3288
2573 3714
2573 3787
2573 4022
2573 4067
2573 4375
2573 4621
2573 4688
2573 4702
2574 3413
2575 3566
2575 4045
2576 2664
2576 2963
2576 3065
2576 3960
2576 4418
2576 4595
2577 4001
2578 3127
2578 3183
2578 3363
2578 3468
2579 3085
2579 3582
2579 4483
2580 4023
2581 3786
2582 2627
2582 4329
2583 4106
2583 4503
2583 4545
2583 4561
2583 4670
2584 2589
2584 2623
2584 2710
2584 2887
2584 3042
2584 3175
2584 3347
2584 3681
2584 3783
2584 3960
2584 4478
2584 4495
2585 3287
2586 2648
2586 2664
2586 2681
2586 2712
2586 2817
2586 2829
2586 2936
2586 2992
2586 3127
2586 3155
2586 3384
2586 3714
2586 3726
2586 3805
2586 3823
2586 4178
2586 4272
2586 4519
2586 4564
2586 4623
2586 4653
2587 3286
2588 2649
2588 2747
2588 2811
2588 3418
2588 3858
2588 4238
2588 4464
2588 4645
2589 2623
2589 2643
2589 2710
2589 2740
2589 2759
2589 2846
2589 3042
2589 3105
2589 3268
2589 3303
2589 3726
2589 3744
2589 3808
2589 3829
2589 3927
2589 3960
2589 3981
2589 4067
2589 4230
2589 4270
2589 4361
2589 4410
2589 4585
2589 4615
2589 4671
2589 4707
2589 4711
2590 3601
2591 2887
2591 3101
2591 3276
2591 3426
2591 3872
2591 3929
2591 3988
2591 4107
2591 4150
2591 4333
2591 4478
2591 4552
2591 4654
2591 4662
2591 4674
2592 4309
2593 3868
2594 4139
2595 2714
2595 3532
2595 4141
2595 4253
2598 2607
2598 2623
2598 2654
2598 2696
2598 2779
2598 2788
2598 2827
2598 2843
2598 2878
2598 3015
2598 3059
2598 3060
2598 3065
2598 3146
2598 3175
2598 3244
2598 3262
2598 3263
2598 3268
2598 3288
2598 3347
2598 3435
2598 3469
2598 3480
2598 3565
2598 3570
2598 3607
2598 3694
2598 3700
2598 3726
2598 3787
2598 3843
2598 3848
2598 3856
2598 3858
2598 3923
2598 3971
2598 3972
2598 3981
2598 4045
2598 4151
2598 4161
2598 4206
2598 4236
2598 4296
2598 4359
2598 4367
2598 4374
2598 4462
2598 4497
2598 4671
2598 4677
2598 4705
2598 4707
2598 4711
2599 4333
2599 4367
2601 2623
2601 2658
2601 2679
2601 2740
2601 2769
2601 2859
2601 2877
2601 2879
2601 3166
2601 3216
2601 3240
2601 3250
2601 3268
2601 3288
2601 3726
2601 3787
2601 3807
2601 3808
2601 3848
2601 4151
2601 4375
2601 4707
2602 2732
2602 2735
2602 3708
2602 3913
2602 4001
2602 4046
2602 4079
2602 4140
2603 3093
2605 3146
2605 3791
2607 2664
2607 2698
2607 2724
2607 2855
2607 2936
2607 2937
2607 3072
2607 3149
2607 3184
2607 3221
2607 3303
2607 3305
2607 3340
2607 3416
2607 3435
2607 3468
2607 3726
2607 3737
2607 3744
2607 3772
2607 3843
2607 3869
2607 3891
2607 3968
2607 3971
2607 3972
2607 4045
2607 4179
2607 4251
2607 4376
2607 4462
2607 4573
2607 4633
2607 4685
2609 2707
2609 3085
2609 3514
2609 3526
2609 4572
2609 4671
2611 4554
2612 3532
2612 3786
2612 3808
2612 3949
2612 4554
2612 4602
2612 4615
2612 4671
2612 4685
2613 4180
2613 4554
2615 3100
2615 3155
2615 3869
2615 4251
2615 4637
2615 4698
2616 2623
2616 4063
2617 2969
2617 3154
2617 3155
2617 3261
2617 3623
2617 3746
2617 3783
2617 4004
2617 4201
2617 4418
2618 3534
2618 3706
2618 3726
2618 4082
2618 4155
2618 4695
2619 2623
2619 3042
2619 3085
2619 3149
2619 3155
2619 3250
2619 3304
2619 3612
2619 3616
2619 3746
2619 3845
2619 4045
2619 4070
2619 4080
2619 4143
2619 4161
2619 4165
2619 4201
2619 4231
2619 4439
2619 4462
2619 4593
2619 4686
2621 3555
2622 3122
2622 3275
2622 3665
2622 3886
2622 3945
2622 4454
2623 2654
2623 2679
2623 2698
2623 2732
2623 2740
2623 2756
2623 2759
2623 2766
2623 2779
2623 2788
2623 2837
2623 2846
2623 2866
2623 2878
2623 2919
2623 2959
2623 2962
2623 2974
2623 2975
2623 3009
2623 3012
2623 3015
2623 3042
2623 3059
2623 3060
2623 3085
2623 3124
2623 3166
2623 3175
2623 3225
2623 3244
2623 3261
2623 3268
2623 3274
2623 3306
2623 3315
2623 3326
2623 3338
2623 3347
2623 3378
2623 3395
2623 3411
2623 3435
2623 3480
2623 3504
2623 3509
2623 3539
2623 3551
2623 3562
2623 3591
2623 3593
2623 3607
2623 3633
2623 3642
2623 3668
2623 3688
2623 3708
2623 3726
2623 3732
2623 3744
2623 3746
2623 3784
2623 3786
2623 3787
2623 3808
2623 3829
2623 3834
2623 3835
2623 3848
2623 3856
2623 3891
2623 3907
2623 3923
2623 3965
2623 3971
2623 4001
2623 4011
2623 4021
2623 4023
2623 4045
2623 4063
2623 4151
2623 4157
2623 4161
2623 4171
2623 4180
2623 4206
2623 4222
2623 4226
2623 4238
2623 4246
2623 4266
2623 4270
2623 4278
2623 4342
2623 4353
2623 4367
2623 4374
2623 4376
2623 4395
2623 4406
2623 4408
2623 4415
2623 4446
2623 4459
2623 4462
2623 4495
2623 4508
2623 4520
2623 4559
2623 4560
2623 4607
2623 4620
2623 4647
2623 4668
2623 4671
2623 4674
2623 4677
2623 4685
2623 4707
2623 4709
2623 4711
2624 2847
2624 3341
2624 3579
2624 3808
2624 4171
2624 4320
2625 3292
2625 3990
2625 4428
2626 3286
2627 3036
2627 3577
2627 4011
2627 4071
2627 4172
2627 4430
2628 3066
2628 3488
2628 4001
2628 4011
2628 4040
2628 4182
2628 4483
2628 4643
2630 2928
2630 3281
2631 4023
2631 4321
2631 4515
2632 2775
2632 3317
2632 3382
2632 3848
2632 4534
2632 4567
2635 3435
2635 3704
2635 4045
2635 4364
2635 4408
2635 4462
2637 3960
2639 2715
2639 2887
2639 2981
2639 3031
2639 3085
2639 3203
2639 3263
2639 3493
2639 3526
2639 3783
2639 3834
2639 3972
2639 4395
2639 4568
2639 4615
2640 2781
2640 2918
2640 4675
2641 2795
2641 3725
2641 3923
2641 4001
2641 4011
2641 4161
2641 4402
2642 4572
2643 2661
2643 2674
2643 2702
2643 2709
2643 2745
2643 2777
2643 2796
2643 2808
2643 2824
2643 2826
2643 2847
2643 3016
2643 3035
2643 3036
2643 3039
2643 3053
2643 3059
2643 3085
2643 3093
2643 3126
2643 3146
2643 3162
2643 3238
2643 3251
2643 3288
2643 3341
2643 3435
2643 3470
2643 3532
2643 3579
2643 3582
2643 3594
2643 3622
2643 3669
2643 3680
2643 3722
2643 3726
2643 3729
2643 3741
2643 3766
2643 3791
2643 3808
2643 3833
2643 3895
2643 3945
2643 3960
2643 4001
2643 4055
2643 4134
2643 4144
2643 4157
2643 4190
2643 4214
2643 4234
2643 4238
2643 4276
2643 4320
2643 4349
2643 4352
2643 4382
2643 4396
2643 4410
2643 4415
2643 4431
2643 4450
2643 4463
2643 4471
2643 4484
2643 4516
2643 4524
2643 4530
2643 4537
2643 4544
2643 4572
2643 4576
2643 4592
2643 4615
2643 4639
2643 4685
2643 4708
2644 3085
2644 3847
2644 4001
2645 2674
2645 2728
2645 2732
2645 2735
2645 2786
2645 2826
2645 3039
2645 3085
2645 3093
2645 3130
2645 3218
2645 3292
2645 3358
2645 3418
2645 3467
2645 3495
2645 3673
2645 3913
2645 3917
2645 4173
2645 4320
2645 4415
2645 4544
2645 4626
2645 4641
2648 2813
2648 2829
2648 3015
2648 3065
2648 3155
2648 3293
2648 3363
2648 3468
2648 3714
2648 3800
2648 3805
2648 3907
2648 4178
2648 4564
2648 4653
2649 2811
2649 2862
2649 3050
2649 3472
2649 3858
2649 4333
2650 2982
2650 3544
2651 3418
2651 4274
2652 4001
2652 4195
2653 3779
2654 2664
2654 2698
2654 2760
2654 2779
2654 2877
2654 2944
2654 2992
2654 2997
2654 3042
2654 3060
2654 3127
2654 3166
2654 3175
2654 3244
2654 3288
2654 3347
2654 3362
2654 3435
2654 3509
2654 3522
2654 3562
2654 3595
2654 3599
2654 3607
2654 3696
2654 3708
2654 3712
2654 3726
2654 3744
2654 3787
2654 3817
2654 3823
2654 3856
2654 3907
2654 4209
2654 4270
2654 4381
2654 4489
2654 4495
2654 4520
2654 4566
2654 4635
2654 4671
2654 4688
2654 4714
2655 3172
2656 3093
2657 3407
2657 3892
2657 4172
2658 3127
2658 4082
2659 2710
2659 3042
2659 3063
2659 3085
2659 3622
2659 4028
2659 4140
2659 4483
2659 4571
2659 4633
2659 4654
2660 3552
2660 3829
2660 4404
2661 2703
2661 3190
2661 3388
2661 4140
2661 4410
2661 4483
2662 3212
2662 4011
2662 4026
2662 4113
2663 3738
2664 2817
2664 2829
2664 2834
2664 2992
2664 2997
2664 3027
2664 3060
2664 3127
2664 3149
2664 3155
2664 3343
2664 3428
2664 3714
2664 3907
2664 4178
2664 4209
2664 4270
2664 4519
2664 4520
2664 4553
2664 4588
2664 4653
2665 3613
2665 3994
2666 3385
2667 3005
2669 2951
2669 2974
2669 3042
2669 3244
2669 3716
2669 3945
2669 4001
2669 4356
2669 4552
2669 4643
2670 2691
2670 2902
2670 4629
2671 2691
2671 3286
2672 4217
2674 3085
2674 3093
2674 3669
2674 3766
2674 3946
2674 4001
2674 4320
2674 4415
2674 4516
2674 4606
2675 3790
2676 3477
2677 2785
2677 3162
2677 3431
2677 3545
2677 4537
2677 4551
2678 3042
2678 3634
2678 4063
2678 4237
2678 4381
2678 4532
2679 2698
2679 2779
2679 2859
2679 2877
2679 2881
2679 3042
2679 3059
2679 3288
2679 3303
2679 3388
2679 3413
2679 3587
2679 3688
2679 3708
2679 3726
2679 3744
2679 3871
2679 4144
2679 4180
2679 4375
2679 4381
2679 4579
2679 4685
2679 4707
2680 2702
2680 2717
2680 2831
2680 3126
2681 2992
2681 3362
2682 2829
2682 2983
2682 3843
2682 4543
2682 4570
2683 3347
2683 4001
2684 4408
2686 2757
2686 2894
2686 2928
2686 3061
2686 3281
2686 3320
2686 3496
2686 3645
2686 3684
2686 3906
2686 4146
2686 4659
2687 2769
2687 2830
2687 3012
2687 4703
2688 3037
2688 4206
2688 4671
2689 3526
2690 3827
2691 2772
2691 3199
2691 3244
2691 3289
2691 3967
2691 3975
2691 3992
2692 2860
2692 3009
2692 3180
2692 3829
2693 2834
2693 3042
2693 3059
2693 3065
2693 3127
2693 3155
2693 3285
2693 3436
2693 3468
2693 3714
2693 3820
2693 3823
2693 3869
2693 4142
2693 4178
2693 4519
2693 4566
2693 4615
2693 4623
2693 4650
2693 4653
2693 4707
2694 3252
2694 3582
2694 4055
2696 2781
2696 2788
2696 2887
2696 3012
2696 3042
2696 3099
2696 3134
2696 3175
2696 3281
2696 3379
2696 3472
2696 3681
2696 3704
2696 3786
2696 3834
2696 3856
2696 3923
2696 3935
2696 3997
2696 4001
2696 4161
2696 4270
2696 4309
2696 4333
2696 4627
2697 2829
2697 4206
2698 2710
2698 2779
2698 2780
2698 2788
2698 2818
2698 2827
2698 2843
2698 2850
2698 2878
2698 2937
2698 2962
2698 3015
2698 3035
2698 3042
2698 3059
2698 3060
2698 3146
2698 3154
2698 3175
2698 3184
2698 3221
2698 3244
2698 3263
2698 3268
2698 3288
2698 3291
2698 3369
2698 3435
2698 3469
2698 3474
2698 3480
2698 3502
2698 3511
2698 3515
2698 3565
2698 3570
2698 3587
2698 3599
2698 3607
2698 3633
2698 3694
2698 3696
2698 3700
2698 3726
2698 3744
2698 3787
2698 3799
2698 3843
2698 3848
2698 3856
2698 3888
2698 3891
2698 3923
2698 3971
2698 3972
2698 3981
2698 4151
2698 4161
2698 4206
2698 4236
2698 4270
2698 4286
2698 4296
2698 4341
2698 4374
2698 4395
2698 4462
2698 4497
2698 4520
2698 4559
2698 4671
2698 4677
2698 4685
2698 4705
2698 4707
2698 4711
2699 4048
2700 2752
2700 4363
2701 4023
2702 2717
2702 2753
2702 2846
2702 2889
2702 3016
2702 3419
2702 3502
2702 3508
2702 3590
2702 3673
2702 3790
2702 3834
2702 4011
2702 4133
2702 4213
2702 4234
2702 4450
2702 4516
2702 4571
2702 4701
2703 2759
2703 2846
2703 2859
2703 3012
2703 3015
2703 3042
2703 3268
2703 3834
2703 4001
2703 4270
2703 4395
2703 4559
2703 4560
2703 4705
2703 4707
2704 3286
2705 2717
2705 3880
2705 4001
2706 2917
2707 2882
2707 2915
2707 3279
2707 3430
2707 3526
2707 3546
2707 3653
2707 3998
2707 4054
2707 4180
2708 4212
2708 4697
2709 3066
2709 3268
2709 3364
2709 3394
2709 3523
2709 3697
2709 4040
2709 4169
2709 4367
2709 4448
2709 4483
2709 4524
2709 4711
2710 2980
2710 3035
2710 3042
2710 3226
2710 3244
2710 3338
2710 3347
2710 3558
2710 3601
2710 3633
2710 3678
2710 3726
2710 3786
2710 3798
2710 3834
2710 3895
2710 3907
2710 3960
2710 3972
2710 3982
2710 4045
2710 4056
2710 4087
2710 4098
2710 4238
2710 4270
2710 4388
2710 4462
2710 4485
2710 4559
2710 4560
2710 4668
2710 4677
2710 4685
2711 3970
2712 2936
2712 3042
2712 3074
2712 3127
2712 3149
2712 3177
2712 3233
2712 3234
2712 3246
2712 3448
2712 3479
2712 3540
2712 3639
2712 3644
2712 3754
2712 3823
2712 3869
2712 3931
2712 4001
2712 4035
2712 4251
2712 4376
2712 4418
2712 4446
2712 4603
2712 4637
2712 4669
2712 4671
2712 4685
2712 4707
2713 3085
2713 3766
2714 2747
2714 3085
2714 3339
2714 3365
2714 3495
2714 3766
2714 3888
2714 3959
2714 4001
2714 4138
2714 4140
2714 4141
2714 4157
2714 4253
2714 4408
2714 4415
2714 4509
2715 3493
2715 4568
2715 4664
2716 3697
2717 2728
2717 2747
2717 2777
2717 2935
2717 3016
2717 3032
2717 3059
2717 3063
2717 3085
2717 3137
2717 3144
2717 3162
2717 3187
2717 3205
2717 3244
2717 3292
2717 3341
2717 3367
2717 3470
2717 3579
2717 3594
2717 3657
2717 3673
2717 3697
2717 3766
2717 3790
2717 3972
2717 4068
2717 4151
2717 4172
2717 4213
2717 4238
2717 4288
2717 4311
2717 4356
2717 4415
2717 4428
2717 4516
2717 4558
2717 4571
2717 4615
2717 4626
2717 4669
2717 4671
2717 4715
2718 3085
2718 3796
2718 4123
2718 4144
2718 4360
2718 4408
2719 3408
2719 4103
2720 2887
2720 3063
2720 3364
2720 3368
2720 3419
2720 3834
2721 2814
2721 4043
2721 4270
2721 4313
2722 2726
2722 3038
2722 3347
2722 3565
2722 3763
2722 3905
2722 4178
2722 4564
2724 2937
2725 2836
2726 3097
2726 3127
2726 3250
2727 4630
2728 2786
2728 2935
2728 3079
2728 3137
2728 3488
2728 3590
2728 3622
2728 3657
2728 3697
2728 3790
2728 3834
2728 4068
2728 4140
2728 4339
2728 4396
2728 4571
2728 4654
2729 3149
2729 3155
2729 3644
2729 3799
2729 4707
2732 2887
2732 3039
2732 3063
2732 3093
2732 3244
2732 3419
2732 3546
2732 3708
2732 3834
2732 3913
2732 4001
2732 4046
2732 4140
2732 4294
2732 4415
2732 4483
2732 4571
2733 4321
2734 3311
2734 3905
2735 3085
2735 3546
2735 3913
2735 4046
2735 4140
2735 4234
2738 2865
2738 2993
2738 3311
2738 3391
2738 3667
2738 3781
2738 4063
2738 4409
2739 2840
2740 2759
2740 2846
2740 2974
2740 3042
2740 3085
2740 3244
2740 3268
2740 3347
2740 3515
2740 3766
2740 3808
2740 3834
2740 3997
2740 4001
2740 4270
2740 4292
2740 4335
2740 4707
2741 4573
2742 4270
2743 4001
2744 3593
2745 2941
2745 3042
2745 3063
2745 3085
2745 3387
2745 3527
2745 4001
2745 4140
2745 4316
2745 4493
2746 3071
2746 3085
2746 3093
2746 4001
2746 4483
2746 4568
2747 2778
2747 2814
2747 3039
2747 3085
2747 3365
2747 3367
2747 3398
2747 3403
2747 3508
2747 3594
2747 3766
2747 3858
2747 3961
2747 4028
2747 4055
2747 4138
2747 4185
2747 4271
2747 4311
2747 4531
2747 4577
2748 2887
2749 3369
2749 3532
2749 3958
2749 4001
2749 4571
2749 4711
2750 2877
2750 4249
2752 3621
2754 3726
2754 3845
2754 4045
2755 3009
2755 3405
2755 3843
2755 4367
2755 4462
2756 3059
2756 3347
2756 3428
2756 3435
2756 3509
2756 3744
2756 4239
2756 4395
2756 4707
2757 2894
2757 3061
2757 3645
2757 3684
2757 3906
2757 4146
2757 4267
2757 4355
2757 4503
2757 4650
2757 4659
2758 4217
2759 2779
2759 2788
2759 2818
2759 2827
2759 2843
2759 2877
2759 2878
2759 2962
2759 3011
2759 3035
2759 3059
2759 3244
2759 3288
2759 3347
2759 3369
2759 3386
2759 3395
2759 3423
2759 3435
2759 3460
2759 3480
2759 3533
2759 3561
2759 3565
2759 3607
2759 3694
2759 3700
2759 3708
2759 3726
2759 3744
2759 3787
2759 3808
2759 3848
2759 3856
2759 3879
2759 3891
2759 3902
2759 3923
2759 3969
2759 3971
2759 3972
2759 4151
2759 4161
2759 4180
2759 4206
2759 4280
2759 4296
2759 4306
2759 4374
2759 4395
2759 4462
2759 4496
2759 4497
2759 4579
2759 4671
2759 4677
2759 4685
2759 4707
2759 4709
2760 2992
2760 3166
2760 3294
2760 3445
2760 3446
2760 3522
2760 3542
2760 3823
2760 3869
2760 3905
2760 3931
2760 4010
2761 3744
2761 3808
2761 3856
2762 3972
2762 4395
2763 3066
2763 3249
2763 3383
2763 3388
2763 3630
2763 4001
2763 4023
2763 4145
2763 4185
2763 4245
2763 4351
2763 4367
2763 4402
2766 3015
2766 3060
2766 3303
2766 3435
2766 3787
2766 3808
2766 4151
2766 4462
2766 4671
2767 3145
2767 3382
2767 4374
2768 2958
2768 3501
2769 3042
2769 3202
2769 3347
2769 3504
2769 3536
2769 3537
2769 3565
2769 3821
2769 3858
2769 3893
2769 4001
2769 4270
2769 4333
2769 4464
2769 4483
2771 2828
2771 2964
2771 3622
2771 4674
2773 3254
2773 3399
2773 4531
2775 4567
2776 2826
2777 2889
2777 3063
2777 3137
2777 3470
2777 4068
2777 4140
2777 4238
2777 4516
2777 4571
2777 4715
2778 3085
2778 3669
2778 4140
2778 4654
2779 2827
2779 2877
2779 3015
2779 3042
2779 3059
2779 3268
2779 3347
2779 3496
2779 3504
2779 3726
2779 3744
2779 3790
2779 3800
2779 3834
2779 3891
2779 3971
2779 4001
2779 4133
2779 4167
2779 4180
2779 4270
2779 4292
2779 4395
2779 4615
2780 2879
2780 2931
2780 3035
2780 3038
2780 3059
2780 3105
2780 3175
2780 3244
2780 3347
2780 3484
2780 3551
2780 3565
2780 3715
2780 3807
2780 3873
2780 3972
2780 4082
2780 4258
2780 4291
2780 4395
2780 4518
2780 4669
2781 2876
2781 3244
2781 4247
2781 4415
2781 4675
2782 3166
2783 3308
2783 3449
2783 4286
2783 4707
2784 2974
2785 2795
2785 2951
2785 3085
2785 3780
2785 3917
2785 4023
2785 4045
2785 4250
2785 4462
2785 4468
2786 3470
2786 4213
2786 4483
2787 2890
2787 2973
2787 3776
2788 2843
2788 3042
2788 3315
2788 3504
2788 3633
2788 3834
2788 3907
2788 4158
2789 4469
2791 4600
2792 4515
2793 3347
2793 3565
2793 3765
2793 4280
2793 4303
2793 4395
2793 4694
2793 4707
2794 3015
2794 3085
2794 3140
2794 3155
2794 3219
2794 3305
2794 3480
2794 3689
2794 3713
2794 3764
2794 3836
2794 3921
2794 4029
2794 4096
2794 4140
2794 4151
2794 4223
2794 4347
2794 4415
2794 4603
2794 4606
2794 4705
2795 2850
2795 3410
2795 3724
2795 3780
2795 4225
2795 4351
2795 4402
2796 3085
2796 3132
2796 3729
2796 4140
2798 2825
2798 2958
2798 3091
2799 4222
2800 2969
2800 3155
2800 3261
2800 3452
2800 3746
2800 3884
2800 4201
2801 3899
2802 3255
2802 3540
2802 4001
2802 4707
2803 4374
2804 3244
2804 3800
2805 4616
2807 2814
2807 4023
2807 4063
2807 4180
2807 4668
2808 2832
2808 3532
2808 3729
2808 4282
2808 4615
2808 4685
2809 4055
2810 4329
2811 2862
2811 3418
2811 3757
2811 3858
2811 4012
2811 4238
2811 4333
2811 4367
2811 4396
2811 4453
2811 4464
2812 2943
2812 3586
2812 4043
2812 4313
2812 4388
2813 3059
2813 3065
2813 3207
2813 4477
2814 2827
2814 3059
2814 3085
2814 3127
2814 3244
2814 3367
2814 3560
2814 3824
2814 3888
2814 3937
2814 4001
2814 4011
2814 4082
2814 4151
2814 4466
2814 4668
2814 4677
2815 2877
2816 3177
2816 3246
2816 3563
2816 3754
2816 4035
2816 4047
2816 4284
2816 4671
2817 3038
2817 3531
2817 3805
2817 4178
2818 3042
2818 3347
2818 3504
2818 3551
2818 3680
2818 4001
2818 4520
2818 4677
2819 2943
2819 3522
2819 3663
2819 3823
2819 3869
2819 4043
2820 2890
2820 2958
2823 2997
2823 3272
2823 3591
2823 3744
2823 4220
2824 3085
2825 3003
2825 3091
2825 4315
2826 2876
2826 2987
2826 3085
2826 3093
2826 3131
2826 3162
2826 3187
2826 3229
2826 3290
2826 3292
2826 3341
2826 3418
2826 3467
2826 3532
2826 3552
2826 3579
2826 3917
2826 4048
2826 4276
2826 4320
2826 4415
2826 4428
2826 4438
2826 4481
2826 4483
2826 4559
2826 4606
2827 2962
2827 3042
2827 3059
2827 3244
2827 3291
2827 3347
2827 3386
2827 3395
2827 3460
2827 3787
2827 3902
2827 3971
2827 3972
2827 4151
2827 4374
2827 4395
2827 4496
2827 4671
2827 4689
2829 2869
2829 2963
2829 2983
2829 2988
2829 2992
2829 3000
2829 3037
2829 3038
2829 3044
2829 3184
2829 3188
2829 3325
2829 3347
2829 3395
2829 3428
2829 3429
2829 3484
2829 3528
2829 3709
2829 3800
2829 3805
2829 3843
2829 3907
2829 3972
2829 4154
2829 4178
2829 4206
2829 4272
2829 4300
2829 4342
2829 4395
2829 4520
2829 4543
2829 4587
2829 4653
2830 2850
2830 3042
2830 3072
2830 3245
2830 3347
2830 3413
2830 3539
2830 3704
2830 3871
2830 4226
2830 4298
2830 4438
2830 4448
2830 4524
2830 4654
2832 3114
2832 3126
2832 3545
2832 4055
2832 4185
2832 4401
2832 4572
2833 3051
2834 3155
2834 3414
2834 3429
2834 3436
2834 3599
2834 3714
2834 3782
2834 4178
2834 4564
2836 2985
2836 3456
2836 3589
2836 3900
2836 4260
2837 3347
2837 3587
2837 3744
2837 4041
2839 3630
2839 4270
2840 2966
2840 3212
2840 3401
2840 3998
2840 4208
2840 4247
2841 3068
2842 2886
2842 4711
2843 2866
2843 3534
2843 3706
2843 3981
2843 4395
2843 4669
2844 3607
2845 2992
2845 3288
2845 3787
2845 3817
2845 3907
2846 2887
2846 2962
2846 3015
2846 3059
2846 3146
2846 3281
2846 3533
2846 3653
2846 3848
2846 3856
2846 4001
2846 4023
2846 4151
2846 4180
2846 4322
2846 4462
2846 4615
2846 4626
2846 4685
2846 4707
2847 3218
2847 3341
2847 3435
2847 3532
2847 3579
2847 3620
2847 4182
2847 4276
2847 4320
2848 4011
2849 2909
2849 4001
2849 4274
2850 3142
2850 3732
2850 3997
2850 4001
2850 4245
2850 4361
2851 2882
2853 3420
2853 4084
2854 4011
2854 4622
2855 3468
2855 4062
2857 3263
2857 3347
2857 3460
2857 3565
2857 4707
2858 3059
2858 4671
2859 2944
2859 2959
2859 3072
2859 3145
2859 3268
2859 3303
2859 3835
2859 3848
2859 3857
2859 4021
2859 4151
2860 3085
2860 3970
2860 4123
2861 2969
2861 3155
2861 3305
2861 3452
2861 3746
2861 4192
2861 4201
2861 4424
2862 3418
2862 3779
2862 3933
2862 4259
2862 4271
2862 4333
2862 4367
2862 4483
2862 4645
2862 4683
2864 2989
2864 4048
2864 4238
2864 4571
2865 3311
2865 3667
2865 4063
2865 4415
2866 2906
2866 3059
2866 3171
2866 3315
2866 3534
2866 4001
2867 4172
2867 4546
2868 3786
2868 3806
2868 3881
2868 4023
2868 4171
2868 4351
2868 4515
2868 4702
2869 3059
2869 3188
2869 3226
2869 3536
2869 4206
2869 4570
2869 4703
2870 4288
2871 3834
2872 2886
2872 3435
2872 3717
2872 3813
2872 4001
2872 4707
2873 4541
2874 2924
2874 4001
2874 4318
2875 2969
2875 3155
2875 3261
2875 3305
2875 3482
2875 3746
2875 3884
2875 3892
2875 4201
2875 4231
2875 4520
2876 3130
2876 3131
2876 3532
2876 3579
2876 3876
2876 4056
2876 4086
2876 4213
2876 4238
2876 4415
2876 4572
2877 2987
2877 3026
2877 3042
2877 3143
2877 3155
2877 3176
2877 3201
2877 3347
2877 3413
2877 3732
2877 3743
2877 3744
2877 3823
2877 4010
2877 4050
2877 4085
2877 4188
2877 4203
2877 4249
2877 4270
2877 4312
2877 4331
2877 4489
2877 4520
2877 4540
2877 4707
2878 3042
2878 3539
2878 3744
2879 3059
2879 3240
2879 3262
2879 3268
2879 3347
2879 3888
2879 4168
2879 4183
2880 2961
2880 3059
2880 3060
2880 3131
2880 3187
2880 3552
2880 4056
2880 4374
2880 4559
2880 4613
2881 3634
2882 2915
2882 3093
2882 3114
2882 3244
2882 3341
2882 3430
2882 3526
2882 3594
2882 4001
2882 4164
2882 4292
2882 4404
2882 4419
2882 4572
2883 3518
2883 4023
2883 4415
2884 3085
2884 3403
2884 4138
2884 4415
2884 4456
2885 2887
2885 3036
2885 3630
2885 4468
2885 4627
2885 4648
2886 4215
2886 4367
2887 2911
2887 3011
2887 3012
2887 3031
2887 3036
2887 3042
2887 3059
2887 3060
2887 3063
2887 3126
2887 3134
2887 3175
2887 3226
2887 3254
2887 3263
2887 3276
2887 3281
2887 3347
2887 3368
2887 3379
2887 3387
2887 3413
2887 3419
2887 3435
2887 3472
2887 3594
2887 3598
2887 3622
2887 3661
2887 3668
2887 3681
2887 3728
2887 3744
2887 3787
2887 3947
2887 3988
2887 4001
2887 4045
2887 4069
2887 4175
2887 4226
2887 4234
2887 4291
2887 4296
2887 4309
2887 4333
2887 4334
2887 4348
2887 4359
2887 4395
2887 4415
2887 4478
2887 4489
2887 4520
2887 4626
2887 4648
2887 4649
2887 4654
2887 4662
2887 4677
2887 4707
2888 4274
2888 4358
2889 3367
2889 3594
2889 3673
2889 4213
2889 4276
2889 4410
2890 2958
2890 2973
2890 3003
2890 3086
2890 3091
2890 3192
2890 3263
2890 3498
2890 3597
2890 3613
2890 3664
2890 3994
2890 4003
2890 4057
2890 4064
2890 4121
2890 4130
2890 4208
2890 4423
2890 4574
2890 4676
2891 4559
2891 4560
2892 4715
2893 4115
2894 3061
2894 3354
2894 3645
2894 3684
2894 3906
2894 4146
2894 4484
2894 4659
2896 4001
2897 4048
2898 4309
2899 3476
2901 3600
2902 3289
2902 3967
2902 4565
2903 3892
2904 4627
2905 3151
2906 3244
2906 3439
2906 3587
2909 3401
2910 3066
2910 3263
2910 3523
2910 3688
2910 4001
2910 4161
2910 4367
2910 4404
2910 4448
2910 4677
2910 4711
2911 2974
2911 3042
2911 3060
2911 3063
2911 3085
2911 4140
2911 4234
2911 4322
2911 4410
2911 4571
2911 4654
2912 4115
2915 3218
2915 3279
2915 3427
2915 3430
2915 3526
2915 3890
2915 4001
2915 4493
2917 2941
2917 3726
2917 4055
2917 4382
2918 3590
2918 3729
2918 4352
2919 2963
2919 3249
2919 4377
2920 3191
2920 4309
2921 3043
2922 3268
2922 3600
2922 3820
2922 3958
2922 4528
2923 4009
2923 4685
2924 3085
2924 3093
2924 4140
2924 4318
2924 4352
2924 4571
2925 3333
2925 3726
2925 3756
2925 4001
2926 4685
2927 4696
2928 3281
2928 3320
2928 4471
2928 4571
2931 3244
2931 3705
2931 3933
2931 4001
2931 4453
2933 3155
2933 4702
2934 3105
2934 3465
2934 3480
2934 3870
2934 4406
2934 4705
2935 3031
2935 3137
2935 3358
2935 3409
2935 3594
2935 3673
2935 3790
2935 3942
2935 4365
2935 4571
2935 4626
2935 4654
2936 3065
2936 3127
2936 3149
2936 3234
2936 3338
2936 3348
2936 3423
2936 3448
2936 3480
2936 3540
2936 3554
2936 3616
2936 3800
2936 3869
2936 3905
2936 4045
2936 4063
2936 4223
2936 4251
2936 4412
2936 4418
2936 4520
2936 4566
2936 4637
2936 4677
2936 4707
2937 2974
2937 3042
2937 3249
2937 3283
2937 3347
2937 3560
2937 3726
2937 3830
2937 4045
2937 4395
2937 4505
2940 3308
2941 2974
2941 3085
2941 3387
2941 3526
2941 3527
2941 3756
2941 4316
2941 4483
2941 4493
2941 4571
2942 3042
2942 3302
2942 3307
2942 3378
2942 3389
2942 3463
2942 3556
2942 3887
2942 4061
2942 4062
2942 4439
2942 4677
2942 4695
2943 3451
2943 4043
2944 3072
2944 3184
2944 3435
2944 3565
2944 3587
2944 3726
2944 4341
2944 4653
2946 3025
2946 3373
2946 3704
2946 4001
2947 3494
2948 3718
2949 3726
2949 3744
2949 3808
2949 4309
2949 4707
2950 4575
2951 3135
2951 3638
2951 3750
2951 3780
2951 3806
2951 3997
2951 4023
2951 4321
2951 4624
2952 3042
2953 3356
2953 3422
2953 3564
2954 3403
2954 3467
2954 3909
2954 4048
2955 3848
2955 4001
2957 4212
2958 3003
2958 3068
2958 4003
2958 4357
2958 4423
2959 3072
2959 3435
2959 3744
2959 3835
2959 4021
2959 4041
2959 4677
2960 3152
2960 4615
2961 4559
2961 4613
2962 2997
2962 3042
2962 3043
2962 3059
2962 3244
2962 3268
2962 3288
2962 3369
2962 3451
2962 3515
2962 3617
2962 3721
2962 3744
2962 3809
2962 3835
2962 3848
2962 3856
2962 3922
2962 3960
2962 3972
2962 3997
2962 4001
2962 4021
2962 4051
2962 4073
2962 4087
2962 4090
2962 4134
2962 4270
2962 4559
2962 4685
2963 3085
2963 3626
2963 3784
2963 4117
2963 4191
2963 4375
2965 3281
2965 3811
2965 3842
2965 4011
2965 4411
2966 3283
2967 3526
2967 4055
2967 4234
2967 4330
2967 4480
2967 4571
2967 4641
2968 4238
2969 3435
2969 3746
2969 3783
2969 3848
2969 3971
2969 4143
2969 4560
2969 4593
2969 4613
2969 4622
2969 4686
2972 3059
2972 3378
2972 3389
2972 4487
2972 4602
2972 4677
2972 4695
2973 2979
2973 3664
2973 4423
2973 4704
2974 3015
2974 3031
2974 3042
2974 3059
2974 3126
2974 3146
2974 3151
2974 3281
2974 3288
2974 3435
2974 3480
2974 3594
2974 3619
2974 3697
2974 3708
2974 3726
2974 3787
2974 3790
2974 3808
2974 3809
2974 3832
2974 3913
2974 4180
2974 4270
2974 4462
2974 4531
2974 4677
2974 4685
2974 4707
2975 3175
2975 3303
2975 3347
2975 3413
2975 3509
2975 3587
2975 3607
2975 3744
2975 4151
2975 4333
2975 4395
2976 3479
2976 4063
2976 4603
2976 4620
2976 4671
2977 3306
2978 3055
2978 3729
2978 3940
2978 4493
2980 3012
2980 3059
2980 3744
2980 3780
2980 3850
2980 3923
2980 4063
2980 4195
2980 4351
2980 4532
2980 4646
2980 4668
2981 3281
2981 3546
2981 3594
2981 4503
2981 4576
2983 3188
2983 3843
2983 4270
2983 4570
2986 3369
2986 3430
2986 3526
2986 3742
2986 3983
2986 4048
2986 4140
2986 4234
2986 4449
2986 4619
2987 3009
2987 3268
2987 3290
2987 3339
2987 3388
2987 3532
2987 3598
2987 3633
2987 3661
2987 3829
2987 4144
2987 4246
2987 4367
2987 4408
2987 4711
2989 4467
2989 4571
2992 3155
2992 3414
2992 3714
2992 4062
2993 3085
2993 3311
2993 3451
2993 3479
2993 3667
2993 3781
2993 3921
2993 4111
2993 4620
2994 3946
2994 4542
2996 3038
2996 3966
2996 4063
2996 4192
2996 4603
2997 3019
2997 3059
2997 3155
2997 3347
2997 3414
2997 3714
2997 4067
2997 4151
2997 4178
2998 3065
2998 4045
2999 4001
2999 4483
3000 3188
3000 4570
3001 3020
3001 3244
3001 3258
3001 3726
3001 3971
3001 4035
3001 4669
3001 4671
3003 3068
3003 3091
3004 4023
3006 3347
3006 3509
3006 4180
3006 4711
3007 3085
3008 3352
3009 3042
3009 3059
3009 3180
3009 3268
3009 3405
3009 3435
3009 3523
3009 3526
3009 3578
3009 3679
3009 3829
3009 3979
3009 4002
3009 4014
3009 4024
3009 4180
3009 4360
3009 4367
3009 4374
3009 4408
3009 4520
3009 4666
3009 4707
3009 4711
3010 4626
3011 3972
3011 4296
3012 3060
3012 3098
3012 3218
3012 3369
3012 3526
3012 3607
3012 3668
3012 3708
3012 3787
3012 3923
3012 3960
3012 3963
3012 4063
3012 4436
3012 4677
3013 3744
3013 3808
3013 4133
3013 4609
3014 3702
3014 4420
3014 4618
3015 3042
3015 3085
3015 3103
3015 3204
3015 3208
3015 3244
3015 3285
3015 3287
3015 3288
3015 3293
3015 3303
3015 3435
3015 3438
3015 3462
3015 3467
3015 3504
3015 3532
3015 3551
3015 3601
3015 3626
3015 3744
3015 3752
3015 3800
3015 3808
3015 3821
3015 3922
3015 3931
3015 3957
3015 3960
3015 3971
3015 3981
3015 4001
3015 4023
3015 4026
3015 4063
3015 4161
3015 4180
3015 4195
3015 4214
3015 4270
3015 4298
3015 4387
3015 4433
3015 4462
3015 4520
3015 4615
3015 4685
3015 4702
3015 4707
3016 3032
3016 3042
3016 3137
3016 3321
3016 3422
3016 3502
3016 3526
3016 3590
3016 3673
3016 3790
3016 4001
3016 4133
3016 4140
3016 4483
3016 4516
3016 4571
3016 4654
3019 3127
3019 3714
3019 3805
3019 4067
3019 4178
3020 4669
3021 3801
3021 4324
3022 3119
3022 3162
3022 3405
3022 3770
3022 4001
3022 4215
3022 4367
3022 4605
3022 4657
3024 3067
3024 4201
3025 3923
3025 3961
3025 4058
3027 4553
3028 3085
3028 3729
3028 3860
3029 3557
3029 3726
3029 4371
3029 4397
3029 4647
3031 3039
3031 3085
3031 3088
3031 3203
3031 3251
3031 3332
3031 3388
3031 3493
3031 3594
3031 4001
3031 4150
3031 4294
3031 4309
3031 4571
3032 3244
3032 3249
3032 3594
3032 4001
3032 4068
3032 4151
3032 4626
3033 4534
3034 3950
3034 4082
3035 3146
3035 3455
3035 3504
3035 3744
3035 3837
3035 3895
3035 4306
3035 4396
3036 3063
3036 3085
3036 3126
3036 3151
3036 3669
3036 3834
3036 3917
3036 3972
3036 4311
3036 4382
3036 4430
3036 4503
3036 4571
3036 4615
3036 4654
3037 3843
3038 3103
3038 3127
3038 3155
3038 3347
3038 3395
3038 3588
3038 3663
3038 3675
3038 3726
3038 3805
3038 4063
3038 4178
3038 4395
3038 4532
3038 4543
3038 4615
3038 4665
3039 3085
3039 3087
3039 3093
3039 3320
3039 3358
3039 3442
3039 3493
3039 3579
3039 3669
3039 4048
3039 4055
3039 4136
3039 4245
3039 4320
3039 4330
3039 4410
3039 4415
3039 4463
3039 4616
3040 3221
3040 4353
3041 4247
3042 3043
3042 3059
3042 3060
3042 3065
3042 3093
3042 3126
3042 3129
3042 3145
3042 3149
3042 3152
3042 3166
3042 3175
3042 3181
3042 3184
3042 3244
3042 3258
3042 3262
3042 3281
3042 3288
3042 3304
3042 3315
3042 3326
3042 3347
3042 3368
3042 3369
3042 3376
3042 3378
3042 3387
3042 3395
3042 3435
3042 3437
3042 3438
3042 3447
3042 3460
3042 3504
3042 3514
3042 3533
3042 3539
3042 3561
3042 3563
3042 3565
3042 3570
3042 3586
3042 3607
3042 3622
3042 3651
3042 3674
3042 3688
3042 3694
3042 3708
3042 3726
3042 3732
3042 3742
3042 3746
3042 3760
3042 3787
3042 3808
3042 3809
3042 3826
3042 3829
3042 3834
3042 3835
3042 3848
3042 3856
3042 3858
3042 3863
3042 3866
3042 3873
3042 3879
3042 3891
3042 3893
3042 3901
3042 3918
3042 3923
3042 3960
3042 3963
3042 3969
3042 3971
3042 3972
3042 3993
3042 4021
3042 4035
3042 4045
3042 4063
3042 4070
3042 4085
3042 4151
3042 4161
3042 4175
3042 4180
3042 4206
3042 4226
3042 4258
3042 4270
3042 4298
3042 4361
3042 4374
3042 4395
3042 4406
3042 4418
3042 4462
3042 4485
3042 4497
3042 4503
3042 4518
3042 4522
3042 4528
3042 4532
3042 4539
3042 4542
3042 4560
3042 4567
3042 4579
3042 4615
3042 4622
3042 4626
3042 4646
3042 4671
3042 4674
3042 4677
3042 4685
3042 4703
3042 4707
3042 4715
3043 3059
3043 3592
3043 4014
3043 4080
3043 4180
3043 4270
3043 4462
3043 4671
3044 3484
3044 4052
3044 4154
3045 4026
3046 3347
3046 4156
3046 4671
3047 3420
3048 4208
3050 3419
3050 3704
3050 3834
3050 4483
3053 3085
3053 3162
3053 3178
3053 3495
3053 3607
3053 3766
3053 3895
3053 3960
3053 4045
3053 4068
3053 4180
3053 4415
3053 4558
3053 4626
3055 3940
3055 4493
3055 4571
3057 3069
3057 3442
3057 4088
3059 3060
3059 3065
3059 3072
3059 3100
3059 3105
3059 3155
3059 3187
3059 3216
3059 3235
3059 3244
3059 3261
3059 3268
3059 3274
3059 3279
3059 3281
3059 3287
3059 3291
3059 3296
3059 3303
3059 3315
3059 3340
3059 3345
3059 3347
3059 3384
3059 3395
3059 3414
3059 3430
3059 3435
3059 3452
3059 3474
3059 3504
3059 3526
3059 3551
3059 3555
3059 3562
3059 3565
3059 3578
3059 3591
3059 3601
3059 3626
3059 3633
3059 3686
3059 3688
3059 3696
3059 3708
3059 3714
3059 3726
3059 3732
3059 3744
3059 3786
3059 3787
3059 3800
3059 3809
3059 3823
3059 3829
3059 3834
3059 3848
3059 3856
3059 3873
3059 3884
3059 3902
3059 3907
3059 3971
3059 3972
3059 4001
3059 4014
3059 4023
3059 4045
3059 4063
3059 4142
3059 4144
3059 4145
3059 4151
3059 4161
3059 4168
3059 4171
3059 4180
3059 4182
3059 4183
3059 4206
3059 4238
3059 4245
3059 4246
3059 4258
3059 4270
3059 4280
3059 4298
3059 4299
3059 4361
3059 4374
3059 4395
3059 4408
3059 4431
3059 4434
3059 4455
3059 4462
3059 4489
3059 4495
3059 4496
3059 4520
3059 4532
3059 4559
3059 4560
3059 4564
3059 4573
3059 4592
3059 4613
3059 4615
3059 4623
3059 4646
3059 4647
3059 4669
3059 4671
3059 4679
3059 4689
3059 4701
3059 4707
3059 4711
3059 4714
3060 3175
3060 3268
3060 3347
3060 3395
3060 3423
3060 3504
3060 3560
3060 3562
3060 3565
3060 3624
3060 3633
3060 3674
3060 3726
3060 3808
3060 3834
3060 3835
3060 3856
3060 3907
3060 3997
3060 4026
3060 4032
3060 4056
3060 4096
3060 4183
3060 4238
3060 4270
3060 4322
3060 4395
3060 4410
3060 4520
3060 4522
3060 4559
3060 4633
3060 4685
3061 3645
3061 3684
3061 3906
3061 4146
3061 4659
3062 4208
3063 3126
3063 3137
3063 3238
3063 3281
3063 3367
3063 3419
3063 3472
3063 3546
3063 3579
3063 3594
3063 3762
3063 4055
3063 4218
3063 4311
3063 4322
3063 4467
3063 4503
3063 4558
3063 4576
3063 4674
3064 3143
3065 3127
3065 3155
3065 3216
3065 3285
3065 3468
3065 3539
3065 3588
3065 3662
3065 3764
3065 3869
3065 3895
3065 3960
3065 4023
3065 4062
3065 4063
3065 4178
3065 4237
3065 4375
3065 4455
3065 4489
3065 4520
3065 4653
3065 4705
3065 4707
3066 3218
3066 3268
3066 3281
3066 3388
3066 3488
3066 3523
3066 3688
3066 3698
3066 3744
3066 3770
3066 3835
3066 3894
3066 4001
3066 4024
3066 4068
3066 4144
3066 4171
3066 4182
3066 4190
3066 4333
3066 4367
3066 4448
3066 4558
3066 4571
3066 4711
3067 3102
3067 3305
3067 3726
3067 3746
3067 3799
3067 3927
3067 4063
3067 4192
3067 4201
3067 4418
3067 4477
3067 4539
3067 4573
3067 4622
3068 4003
3068 4676
3069 3178
3069 3442
3072 3268
3072 3288
3072 3303
3072 3835
3072 3856
3072 3923
3072 4041
3072 4045
3072 4051
3072 4653
3073 3145
3073 3200
3073 3468
3073 3714
3073 4374
3073 4455
3073 4470
3074 3233
3074 3540
3074 3905
3075 3972
3076 3292
3077 3760
3077 4223
3078 4046
3079 3614
3080 3244
3081 3435
3081 3726
3084 3671
3084 4268
3085 3093
3085 3126
3085 3137
3085 3146
3085 3151
3085 3162
3085 3178
3085 3190
3085 3218
3085 3238
3085 3262
3085 3281
3085 3326
3085 3339
3085 3341
3085 3353
3085 3365
3085 3387
3085 3390
3085 3428
3085 3430
3085 3442
3085 3465
3085 3487
3085 3495
3085 3508
3085 3532
3085 3538
3085 3543
3085 3544
3085 3553
3085 3565
3085 3579
3085 3609
3085 3660
3085 3669
3085 3680
3085 3742
3085 3744
3085 3766
3085 3780
3085 3791
3085 3831
3085 3836
3085 3856
3085 3897
3085 3925
3085 3938
3085 3960
3085 3970
3085 3981
3085 4001
3085 4023
3085 4028
3085 4046
3085 4055
3085 4076
3085 4117
3085 4134
3085 4138
3085 4140
3085 4157
3085 4177
3085 4180
3085 4185
3085 4191
3085 4214
3085 4248
3085 4253
3085 4266
3085 4316
3085 4320
3085 4347
3085 4352
3085 4364
3085 4367
3085 4382
3085 4396
3085 4406
3085 4408
3085 4410
3085 4415
3085 4463
3085 4467
3085 4503
3085 4509
3085 4513
3085 4523
3085 4537
3085 4572
3085 4575
3085 4576
3085 4612
3085 4615
3085 4620
3085 4639
3085 4641
3085 4663
3085 4670
3085 4674
3085 4708
3086 3501
3086 4208
3087 4215
3087 4360
3087 4374
3087 4408
3087 4410
3087 4534
3087 4616
3087 4701
3087 4711
3088 3203
3088 3251
3088 3409
3088 3493
3088 4140
3088 4571
3089 3334
3089 4180
3090 4113
3090 4247
3091 4315
3092 3735
3092 4194
3093 3107
3093 3244
3093 3249
3093 3304
3093 3341
3093 3364
3093 3388
3093 3519
3093 3532
3093 3579
3093 3590
3093 3680
3093 3726
3093 3738
3093 3833
3093 3866
3093 3885
3093 3925
3093 3972
3093 4001
3093 4177
3093 4190
3093 4195
3093 4276
3093 4292
3093 4320
3093 4363
3093 4415
3093 4448
3093 4463
3093 4516
3093 4544
3093 4572
3093 4576
3093 4592
3093 4606
3093 4633
3093 4674
3094 3127
3094 3554
3094 4114
3096 3622
3096 4510
3096 4674
3097 3250
3098 3175
3098 3281
3098 3848
3099 3997
3100 3502
3100 3971
3100 4151
3100 4559
3100 4671
3101 3872
3101 4333
3101 4334
3101 4351
3102 3154
3102 3155
3102 3452
3102 3499
3102 3746
3102 4201
3102 4215
3102 4226
3102 4485
3102 4593
3103 3438
3103 3462
3103 3752
3103 3957
3103 4062
3103 4178
3104 4062
3104 4677
3105 3175
3105 3244
3105 3303
3105 3347
3105 3480
3105 3484
3105 3551
3105 3587
3105 3620
3105 3715
3105 3726
3105 3873
3105 3902
3105 3946
3105 3969
3105 3971
3105 4082
3105 4151
3105 4156
3105 4206
3105 4258
3105 4280
3105 4291
3105 4395
3105 4397
3105 4497
3105 4518
3105 4671
3105 4685
3107 3145
3107 3866
3107 3982
3107 4001
3107 4374
3107 4384
3108 3925
3109 3212
3110 3276
3111 3728
3112 3494
3113 4406
3114 3341
3114 3435
3114 4191
3115 3602
3118 4161
3119 3292
3120 3261
3120 3452
3120 3799
3120 4231
3120 4418
3120 4622
3121 4571
3122 3275
3122 3568
3122 3886
3122 3945
3122 4454
3123 3568
3123 3886
3126 3151
3126 3526
3126 3657
3126 3669
3126 3729
3126 3766
3126 4430
3126 4450
3126 4468
3126 4483
3126 4522
3126 4537
3126 4542
3126 4571
3126 4628
3127 3155
3127 3183
3127 3221
3127 3348
3127 3363
3127 3554
3127 3663
3127 3714
3127 3726
3127 3805
3127 3823
3127 3827
3127 3981
3127 4029
3127 4062
3127 4067
3127 4082
3127 4178
3127 4359
3127 4566
3127 4623
3127 4707
3128 3734
3129 4045
3129 4234
3129 4347
3129 4415
3130 3162
3130 3292
3130 3418
3130 3851
3130 4087
3130 4320
3130 4415
3131 3552
3131 3565
3131 4428
3131 4559
3133 3633
3134 3263
3134 3276
3134 3787
3134 3872
3135 4250
3136 4261
3136 4422
3137 3409
3137 3502
3137 3590
3137 3594
3137 3673
3137 3756
3137 3834
3137 4213
3137 4483
3137 4516
3137 4571
3137 4626
3138 3827
3141 3808
3142 3288
3143 3778
3143 4188
3143 4262
3145 3147
3145 3268
3145 3382
3145 3468
3145 3662
3145 3982
3145 4063
3145 4374
3145 4559
3145 4668
3146 3281
3146 3455
3146 3551
3146 3590
3146 3609
3146 3622
3146 3729
3146 3808
3146 3930
3146 3972
3146 3981
3146 4001
3146 4043
3146 4048
3146 4140
3146 4189
3146 4256
3146 4467
3146 4468
3146 4487
3146 4568
3146 4571
3146 4654
3146 4655
3147 3662
3149 3234
3149 3462
3149 3522
3149 3535
3149 3540
3149 3744
3149 3808
3149 3823
3149 3869
3149 3905
3149 4045
3149 4251
3149 4418
3149 4446
3149 4520
3149 4609
3149 4637
3150 3216
3150 3480
3150 3946
3150 4705
3151 3669
3151 4031
3151 4140
3151 4238
3151 4571
3152 3435
3152 4017
3153 3805
3154 3268
3154 3466
3154 3746
3154 3822
3154 4201
3154 4215
3154 4304
3154 4521
3155 3184
3155 3285
3155 3293
3155 3305
3155 3322
3155 3347
3155 3414
3155 3436
3155 3452
3155 3468
3155 3482
3155 3512
3155 3539
3155 3675
3155 3723
3155 3746
3155 3783
3155 3794
3155 3799
3155 3805
3155 3823
3155 3868
3155 3884
3155 3891
3155 3981
3155 4004
3155 4034
3155 4070
3155 4143
3155 4178
3155 4201
3155 4209
3155 4231
3155 4269
3155 4272
3155 4321
3155 4374
3155 4387
3155 4418
3155 4477
3155 4519
3155 4520
3155 4566
3155 4588
3155 4593
3155 4622
3155 4623
3155 4677
3155 4686
3155 4707
3156 3781
3156 3946
3156 4532
3157 4101
3160 3430
3160 3786
3160 4213
3160 4229
3160 4276
3160 4572
3162 3205
3162 3292
3162 3341
3162 3435
3162 3552
3162 3766
3162 3829
3162 4023
3162 4415
3162 4537
3162 4602
3163 4390
3164 4033
3164 4363
3164 4702
3166 3294
3166 3633
3166 3835
3166 4010
3166 4017
3166 4560
3166 4714
3167 4001
3168 3244
3168 4001
3169 3355
3170 3790
3170 4516
3170 4626
3171 4497
3171 4566
3171 4685
3172 3287
3172 3435
3172 3917
3172 4001
3172 4250
3175 3216
3175 3303
3175 3347
3175 3413
3175 3419
3175 3435
3175 3871
3175 3972
3175 4151
3175 4291
3175 4374
3175 4395
3175 4478
3175 4495
3175 4646
3175 4648
3175 4654
3175 4674
3175 4707
3177 4035
3177 4469
3178 3495
3179 3420
3180 3193
3180 3206
3180 3679
3180 3796
3180 3829
3180 3978
3180 4367
3180 4666
3180 4711
3181 3194
3181 3608
3181 3879
3181 4564
3182 3243
3182 3316
3184 3208
3184 3268
3184 3746
3184 3835
3184 4021
3184 4201
3184 4270
3184 4455
3184 4567
3184 4685
3185 4115
3186 3199
3186 3286
3186 3919
3187 4051
3187 4087
3187 4129
3187 4602
3188 3315
3188 3760
3188 3805
3188 3843
3188 3921
3188 4001
3188 4157
3188 4206
3188 4413
3188 4543
3188 4570
3188 4634
3190 3622
3190 4140
3190 4571
3191 4309
3192 4208
3193 3268
3193 3796
3193 4711
3194 3879
3195 3848
3196 4054
3198 3305
3198 4375
3200 3468
3201 4203
3201 4540
3203 3251
3203 3493
3203 3729
3203 4571
3204 3756
3204 3897
3204 4001
3204 4365
3204 4483
3204 4571
3205 3341
3205 3448
3205 3552
3205 3804
3205 3869
3205 4129
3205 4347
3205 4428
3205 4435
3205 4602
3205 4671
3206 3787
3206 3978
3206 4367
3207 4178
3207 4536
3208 3726
3208 3835
3208 4615
3208 4653
3210 4406
3210 4671
3211 4115
3212 3998
3212 4011
3212 4432
3213 3359
3213 3626
3214 3279
3214 3488
3214 4415
3214 4438
3214 4468
3214 4524
3214 4544
3214 4559
3215 4707
3216 3288
3216 3708
3216 3726
3216 4375
3216 4560
3216 4707
3218 3244
3218 3364
3218 3388
3218 3526
3218 3552
3218 3669
3218 4001
3218 4245
3218 4298
3218 4415
3218 4431
3218 4438
3218 4468
3218 4483
3218 4627
3219 3719
3219 3946
3221 3348
3221 3699
3221 4021
3221 4082
3221 4114
3221 4669
3222 3244
3222 4001
3223 4023
3223 4716
3224 4001
3224 4023
3225 3326
3225 3539
3225 4674
3226 3744
3226 3866
3226 4087
3226 4298
3226 4707
3227 3829
3232 4577
3233 3540
3233 3542
3233 3869
3233 3905
3234 3714
3234 3723
3234 3869
3234 3905
3234 3946
3234 4383
3234 4418
3235 3435
3235 3981
3235 4535
3235 4685
3236 3688
3238 3582
3238 3726
3238 4410
3238 4483
3238 4708
3240 3244
3240 3268
3240 3347
3240 3829
3240 3888
3240 4168
3240 4183
3240 4711
3241 3643
3241 4395
3241 4671
3243 3779
3243 3981
3243 4011
3243 4113
3243 4274
3243 4279
3243 4628
3244 3249
3244 3268
3244 3287
3244 3288
3244 3347
3244 3378
3244 3411
3244 3430
3244 3435
3244 3502
3244 3526
3244 3551
3244 3565
3244 3579
3244 3614
3244 3633
3244 3636
3244 3657
3244 3658
3244 3718
3244 3726
3244 3744
3244 3766
3244 3807
3244 3808
3244 3829
3244 3851
3244 3873
3244 3891
3244 3902
3244 3971
3244 3972
3244 4001
3244 4023
3244 4045
3244 4051
3244 4133
3244 4151
3244 4161
3244 4171
3244 4172
3244 4175
3244 4180
3244 4183
3244 4195
3244 4230
3244 4243
3244 4258
3244 4275
3244 4280
3244 4296
3244 4320
3244 4351
3244 4353
3244 4367
3244 4384
3244 4395
3244 4406
3244 4415
3244 4462
3244 4466
3244 4496
3244 4548
3244 4560
3244 4613
3244 4669
3244 4671
3244 4685
3244 4689
3244 4705
3244 4707
3244 4711
3245 4001
3245 4040
3245 4322
3245 4516
3245 4524
3246 3258
3246 3376
3246 3448
3246 3639
3246 4035
3246 4053
3246 4393
3246 4603
3247 4248
3249 3336
3249 3560
3249 3726
3249 3971
3249 4001
3249 4023
3249 4292
3249 4351
3249 4402
3249 4406
3249 4552
3250 3554
3250 4082
3250 4242
3251 3493
3251 3622
3251 4140
3252 4055
3252 4330
3252 4513
3252 4639
3252 4641
3252 4675
3253 4217
3254 3704
3254 3725
3254 3826
3254 3923
3254 4001
3254 4138
3254 4531
3255 3540
3255 4225
3255 4707
3256 3744
3256 3808
3257 3759
3257 4023
3258 3587
3258 3639
3258 3754
3258 4035
3258 4047
3258 4270
3258 4393
3258 4669
3258 4671
3260 4709
3261 3322
3261 3382
3261 3452
3261 3737
3261 3744
3261 3746
3261 3783
3261 3937
3261 3971
3261 4151
3261 4165
3261 4201
3261 4214
3261 4374
3261 4376
3261 4593
3261 4602
3261 4615
3261 4622
3261 4663
3261 4671
3261 4685
3262 3515
3262 3742
3262 4270
3262 4520
3263 3593
3263 4064
3263 4332
3263 4460
3263 4462
3263 4670
3264 3435
3265 3919
3266 4410
3266 4534
3267 3667
3267 4063
3267 4418
3268 3288
3268 3291
3268 3347
3268 3405
3268 3435
3268 3509
3268 3523
3268 3533
3268 3578
3268 3592
3268 3633
3268 3682
3268 3688
3268 3726
3268 3808
3268 3810
3268 3818
3268 3829
3268 3848
3268 3856
3268 3888
3268 3923
3268 3969
3268 3972
3268 3979
3268 4045
3268 4052
3268 4061
3268 4161
3268 4168
3268 4180
3268 4183
3268 4215
3268 4270
3268 4367
3268 4376
3268 4462
3268 4528
3268 4567
3268 4677
3268 4685
3268 4705
3268 4707
3268 4711
3269 4436
3270 4395
3270 4707
3270 4714
3272 3591
3274 3800
3274 4698
3275 3568
3275 3886
3275 3945
3275 4454
3276 3281
3276 4218
3276 4662
3277 3542
3279 3430
3279 3526
3279 4001
3279 4438
3279 4572
3280 3662
3280 3820
3281 3320
3281 3430
3281 3680
3281 3729
3281 4001
3281 4099
3281 4471
3281 4483
3281 4568
3281 4571
3281 4615
3281 4654
3281 4656
3281 4677
3282 3786
3283 3496
3283 3750
3283 3891
3283 4001
3283 4023
3283 4161
3284 3668
3284 4175
3285 3362
3285 3363
3285 3595
3285 3805
3285 3808
3285 3823
3285 4178
3285 4186
3285 4387
3285 4519
3286 3316
3286 3323
3286 3767
3286 4279
3286 4281
3286 4680
3287 3533
3287 3602
3287 4001
3287 4033
3287 4133
3287 4180
3287 4685
3287 4702
3288 3303
3288 3341
3288 3435
3288 3502
3288 3515
3288 3562
3288 3685
3288 3708
3288 3787
3288 3807
3288 3817
3288 3829
3288 3856
3288 3922
3288 3972
3288 4045
3288 4061
3288 4189
3288 4238
3288 4296
3288 4320
3288 4374
3288 4395
3288 4462
3288 4518
3288 4560
3288 4579
3288 4614
3290 3339
3290 3532
3290 3598
3290 4085
3290 4141
3290 4282
3290 4438
3291 3633
3291 3688
3291 3829
3291 4023
3291 4040
3291 4374
3291 4520
3291 4528
3292 3341
3292 3418
3292 3495
3292 3552
3292 3990
3292 4185
3292 4213
3292 4320
3292 4415
3292 4428
3292 4438
3292 4537
3293 3362
3293 3414
3293 4067
3293 4653
3293 4685
3294 4560
3295 3526
3295 4046
3296 3557
3296 3600
3296 4243
3296 4573
3297 3856
3298 3675
3299 4045
3300 3430
3301 3790
3302 3378
3302 4677
3303 3347
3303 3395
3303 3502
3303 3587
3303 3807
3303 3848
3303 3856
3303 3972
3303 4017
3303 4151
3303 4156
3303 4157
3303 4333
3303 4374
3303 4395
3303 4711
3304 3347
3304 3435
3304 3551
3304 3726
3304 3738
3304 3866
3304 3971
3304 4405
3304 4415
3304 4496
3304 4505
3304 4532
3304 4615
3304 4707
3305 3338
3305 3452
3305 3557
3305 3746
3305 3783
3305 3799
3305 3807
3305 4004
3305 4053
3305 4201
3305 4231
3305 4477
3305 4573
3305 4686
3305 4705
3306 3786
3306 3881
3306 4023
3306 4515
3306 4702
3307 3378
3307 4677
3308 3449
3308 3666
3308 3748
3308 4286
3308 4671
3309 4677
3311 3347
3311 3435
3311 3457
3311 3479
3311 3667
3311 3761
3311 3781
3311 3966
3311 4063
3311 4151
3311 4397
3311 4415
3311 4532
3313 3361
3313 3786
3313 3880
3313 4001
3313 4515
3313 4702
3314 3656
3315 3365
3315 3534
3315 3706
3315 3744
3315 4156
3315 4180
3316 3992
3317 4567
3318 3984
3318 4208
3318 4447
3319 3961
3320 3571
3320 3680
3320 4001
3320 4023
3320 4213
3320 4410
3320 4471
3321 3549
3321 3599
3321 4376
3322 3452
3322 3746
3322 3783
3324 4696
3326 3360
3326 3496
3326 3729
3326 3834
3326 4352
3326 4404
3326 4445
3326 4510
3326 4674
3327 4374
3329 3526
3329 3653
3329 3961
3329 4329
3329 4426
3329 4571
3329 4673
3331 4382
3333 3442
3333 3486
3333 3594
3333 3744
3333 3808
3333 3829
3333 4001
3333 4576
3333 4662
3333 4670
3333 4708
3338 3347
3338 3423
3338 3694
3338 3744
3338 4001
3338 4251
3338 4270
3338 4424
3338 4462
3338 4637
3338 4671
3338 4707
3339 3353
3339 3532
3339 3598
3339 4085
3339 4294
3339 4693
3340 3744
3340 4395
3341 3368
3341 3430
3341 3442
3341 3532
3341 3552
3341 3579
3341 3635
3341 3744
3341 3780
3341 3973
3341 4180
3341 4246
3341 4276
3341 4320
3341 4347
3341 4415
3341 4428
3341 4537
3341 4572
3341 4592
3341 4606
3341 4615
3341 4654
3341 4671
3342 3347
3342 3395
3342 3435
3342 3504
3342 3649
3342 3809
3342 3918
3342 4270
3342 4376
3342 4685
3343 3345
3343 3457
3343 3794
3345 3457
3345 3509
3345 3694
3345 3794
3345 4029
3346 4286
3346 4287
3347 3395
3347 3413
3347 3435
3347 3449
3347 3472
3347 3484
3347 3502
3347 3504
3347 3509
3347 3533
3347 3539
3347 3551
3347 3565
3347 3587
3347 3607
3347 3624
3347 3682
3347 3715
3347 3744
3347 3753
3347 3781
3347 3787
3347 3807
3347 3808
3347 3848
3347 3863
3347 3866
3347 3871
3347 3873
3347 3888
3347 3893
3347 3923
3347 3946
3347 3971
3347 3972
3347 4023
3347 4041
3347 4045
3347 4063
3347 4085
3347 4151
3347 4156
3347 4180
3347 4206
3347 4258
3347 4270
3347 4280
3347 4291
3347 4296
3347 4303
3347 4309
3347 4375
3347 4395
3347 4462
3347 4489
3347 4518
3347 4532
3347 4533
3347 4548
3347 4560
3347 4615
3347 4635
3347 4647
3347 4665
3347 4669
3347 4671
3347 4677
3347 4685
3347 4694
3347 4707
3347 4711
3347 4714
3348 3554
3348 4021
3348 4082
3348 4114
3348 4242
3348 4412
3348 4566
3350 3496
3351 3414
3351 4685
3353 3532
3354 4011
3355 4018
3356 3422
3356 3564
3357 4035
3357 4083
3357 4140
3357 4493
3358 3579
3358 3680
3358 4001
3358 4213
3358 4276
3358 4410
3358 4467
3359 3626
3360 3677
3360 4404
3360 4445
3360 4510
3361 4384
3361 4503
3361 4515
3362 3595
3363 3468
3363 3714
3363 3857
3363 4178
3363 4564
3364 3368
3364 3419
3364 4190
3364 4245
3364 4431
3365 3766
3365 3937
3365 4138
3365 4157
3367 3590
3367 3729
3367 3790
3367 4140
3367 4410
3367 4516
3368 3579
3368 3834
3368 4290
3368 4483
3368 4654
3369 3435
3369 3504
3369 3601
3369 3609
3369 3651
3369 3742
3369 3800
3369 3808
3369 3834
3369 3960
3369 3981
3369 4045
3369 4270
3369 4292
3369 4306
3369 4333
3369 4395
3369 4406
3369 4520
3369 4559
3369 4618
3370 4321
3375 3526
3375 4001
3376 3587
3376 3603
3376 3853
3376 4035
3376 4047
3376 4669
3377 3661
3378 3389
3378 3463
3378 3506
3378 3556
3378 3626
3378 3640
3378 3887
3378 4045
3378 4061
3378 4062
3378 4063
3378 4161
3378 4270
3378 4439
3378 4461
3378 4584
3378 4615
3378 4677
3378 4685
3378 4695
3378 4707
3378 4711
3379 3419
3379 4478
3379 4648
3380 4136
3382 3941
3382 4374
3382 4567
3382 4685
3383 3630
3383 4105
3383 4351
3384 3686
3384 4186
3386 3436
3386 3829
3386 3856
3387 3419
3387 3527
3387 3622
3387 3834
3387 4316
3387 4365
3387 4483
3387 4493
3387 4568
3387 4571
3387 4654
3388 3488
3388 3546
3388 3598
3388 3698
3388 3894
3388 3990
3388 4001
3388 4024
3388 4144
3388 4190
3388 4503
3388 4534
3388 4575
3388 4670
3388 4708
3389 4462
3389 4677
3389 4695
3390 3553
3390 4415
3394 4483
3395 3504
3395 3509
3395 3587
3395 3591
3395 3744
3395 3787
3395 4156
3395 4206
3395 4374
3395 4395
3395 4462
3395 4671
3395 4707
3395 4714
3396 4217
3398 3400
3398 3430
3398 3526
3398 3590
3398 4571
3403 3704
3403 3826
3403 3909
3403 4001
3403 4140
3403 4462
3405 3523
3405 3633
3405 3818
3405 3829
3405 4002
3405 4014
3405 4367
3405 4711
3406 3445
3408 3446
3408 3868
3408 3869
3408 4103
3409 3493
3409 3582
3409 3594
3409 3673
3409 4585
3410 3780
3410 3786
3410 4023
3410 4171
3410 4351
3411 4151
3412 3518
3412 4702
3413 3522
3413 3539
3413 3607
3413 3649
3413 3726
3413 3728
3413 3923
3413 3972
3413 4156
3413 4373
3413 4395
3413 4560
3413 4707
3414 3891
3414 4062
3414 4178
3414 4497
3414 4564
3414 4685
3415 4367
3416 3726
3416 4063
3416 4418
3416 4603
3417 3480
3418 3467
3418 3533
3418 3757
3418 3779
3418 3952
3418 4048
3418 4271
3418 4333
3418 4367
3418 4644
3418 4645
3418 4683
3419 3472
3419 3790
3419 3834
3419 4033
3419 4055
3419 4218
3419 4226
3419 4322
3419 4333
3419 4547
3419 4558
3419 4649
3419 4670
3419 4674
3419 4707
3420 3611
3420 4064
3420 4121
3420 4301
3421 4001
3421 4335
3421 4365
3421 4682
3422 3564
3423 3694
3424 3908
3424 4335
3425 3487
3425 3553
3425 4266
3425 4374
3425 4685
3427 4001
3428 4052
3428 4191
3428 4206
3428 4570
3428 4679
3429 3435
3429 3714
3429 4180
3429 4520
3429 4564
3429 4707
3430 3526
3430 3532
3430 3890
3430 4001
3430 4048
3430 4177
3430 4408
3430 4419
3430 4456
3430 4468
3430 4572
3431 3678
3431 3786
3431 3806
3431 4001
3431 4023
3431 4171
3431 4190
3431 4374
3431 4463
3434 4208
3435 3465
3435 3504
3435 3511
3435 3539
3435 3540
3435 3562
3435 3593
3435 3609
3435 3614
3435 3620
3435 3633
3435 3675
3435 3696
3435 3726
3435 3732
3435 3744
3435 3753
3435 3780
3435 3786
3435 3787
3435 3806
3435 3808
3435 3829
3435 3832
3435 3834
3435 3835
3435 3843
3435 3856
3435 3866
3435 3869
3435 3891
3435 3907
3435 3922
3435 3923
3435 4001
3435 4010
3435 4011
3435 4017
3435 4023
3435 4029
3435 4045
3435 4063
3435 4151
3435 4161
3435 4182
3435 4238
3435 4239
3435 4270
3435 4294
3435 4336
3435 4361
3435 4381
3435 4395
3435 4462
3435 4489
3435 4520
3435 4559
3435 4560
3435 4615
3435 4666
3435 4668
3435 4671
3435 4677
3435 4685
3435 4689
3435 4705
3435 4707
3435 4711
3436 3714
3436 3820
3436 3856
3436 3907
3436 3964
3436 4519
3437 4307
3437 4668
3438 3462
3438 3726
3438 3752
3438 3957
3438 4063
3438 4270
3438 4433
3438 4489
3438 4520
3439 3587
3442 3579
3442 3680
3442 3766
3442 3895
3442 3960
3442 4088
3442 4140
3442 4410
3442 4503
3442 4534
3445 4319
3446 3808
3446 3869
3446 4640
3448 3542
3448 3562
3448 3616
3448 3639
3448 3754
3448 4035
3449 3748
3449 3972
3449 4286
3450 4046
3451 4043
3451 4082
3451 4119
3451 4157
3452 3510
3452 3512
3452 3746
3452 3895
3452 3960
3452 4001
3452 4034
3452 4143
3452 4201
3452 4272
3452 4380
3452 4424
3452 4477
3452 4539
3452 4588
3452 4593
3452 4622
3454 3594
3454 3707
3454 3790
3454 4011
3455 4306
3456 4260
3457 3781
3457 3794
3457 4029
3457 4688
3459 4616
3461 4208
3462 3744
3462 3869
3462 3957
3462 4251
3462 4418
3462 4637
3463 4677
3463 4695
3464 3501
3464 3701
3464 3984
3464 4208
3464 4447
3464 4590
3465 3563
3465 3682
3465 3744
3465 4082
3465 4270
3465 4406
3465 4544
3465 4615
3465 4685
3465 4705
3466 3616
3466 4270
3467 3579
3467 3649
3467 3917
3467 3963
3467 4048
3467 4320
3467 4415
3467 4544
3467 4615
3468 3599
3468 3712
3468 3714
3468 4178
3468 4462
3468 4519
3469 3565
3469 3718
3469 4453
3470 3622
3470 3834
3470 4068
3470 4213
3470 4339
3470 4410
3470 4516
3470 4558
3470 4571
3472 3997
3472 4033
3472 4333
3472 4359
3472 4654
3472 4670
3472 4674
3473 3746
3474 3708
3474 4465
3474 4551
3474 4613
3478 3499
3478 4136
3478 4534
3478 4571
3478 4577
3479 3667
3479 3921
3479 4035
3479 4063
3479 4603
3479 4620
3480 3563
3480 3870
3480 3960
3480 4063
3480 4705
3482 3783
3482 4055
3482 4070
3482 4321
3482 4416
3482 4616
3482 4626
3483 4336
3484 3565
3484 3620
3484 4154
3484 4206
3484 4395
3484 4518
3484 4671
3484 4685
3485 4643
3487 3553
3487 3626
3488 3523
3488 3780
3488 4001
3488 4213
3488 4276
3488 4438
3488 4463
3488 4559
3489 3736
3489 4425
3491 3622
3491 4238
3491 4670
3492 4580
3493 4544
3495 3766
3495 3925
3496 3582
3496 3726
3496 4001
3496 4011
3496 4473
3499 3746
3499 4136
3499 4215
3499 4321
3499 4534
3499 4577
3499 4622
3501 4027
3502 3504
3502 3594
3502 3673
3502 3800
3502 3834
3502 4133
3502 4151
3502 4671
3503 3587
3503 4035
3503 4393
3504 3532
3504 3607
3504 3708
3504 3726
3504 3787
3504 3848
3504 3856
3504 3891
3504 3923
3504 3971
3504 4085
3504 4151
3504 4161
3504 4462
3504 4671
3504 4685
3506 4677
3508 3724
3508 3766
3508 4001
3508 4182
3508 4185
3508 4351
3509 3587
3509 3607
3509 3744
3509 3807
3509 4017
3509 4157
3509 4180
3509 4395
3509 4671
3509 4707
3510 3746
3510 4485
3512 3746
3512 4004
3512 4201
3512 4272
3512 4477
3512 4588
3513 3779
3514 4276
3514 4463
3514 4572
3515 3848
3515 3923
3515 4560
3519 3590
3519 3669
3519 4001
3520 4630
3521 3906
3522 3726
3522 3869
3522 4017
3522 4640
3523 3688
3523 3829
3523 3835
3523 3856
3523 3979
3523 4001
3523 4367
3523 4404
3523 4448
3523 4524
3523 4677
3523 4711
3525 4544
3526 3582
3526 3615
3526 3657
3526 3673
3526 3790
3526 3890
3526 4001
3526 4023
3526 4048
3526 4116
3526 4382
3526 4415
3526 4419
3526 4464
3526 4531
3526 4556
3526 4563
3526 4616
3527 4316
3527 4571
3527 4657
3528 4154
3528 4543
3530 4001
3532 3598
3532 3620
3532 3657
3532 3715
3532 3729
3532 3744
3532 4082
3532 4085
3532 4157
3532 4182
3532 4246
3532 4276
3532 4282
3532 4320
3532 4367
3532 4408
3532 4410
3532 4415
3532 4428
3532 4463
3532 4544
3532 4572
3532 4602
3532 4615
3532 4671
3533 3810
3533 4367
3533 4520
3533 4645
3533 4677
3534 3706
3535 3869
3535 4418
3536 3893
3536 4244
3536 4703
3538 3579
3538 3582
3538 4051
3538 4182
3538 4218
3538 4410
3539 3808
3539 4001
3539 4559
3539 4635
3540 3869
3540 3905
3540 3931
3540 4045
3540 4060
3540 4418
3540 4707
3541 4358
3542 3726
3542 3820
3542 3835
3542 3891
3542 3902
3542 4685
3543 3545
3543 3780
3543 3804
3543 3917
3543 4468
3544 3803
3545 3780
3545 3786
3545 3806
3545 4023
3545 4515
3545 4592
3545 4602
3545 4671
3545 4702
3546 3913
3546 4001
3546 4046
3546 4571
3551 3587
3551 3807
3551 3866
3551 4161
3551 4395
3551 4518
3551 4548
3551 4685
3552 4056
3552 4086
3552 4087
3552 4415
3552 4428
3552 4438
3552 4537
3552 4559
3553 3766
3553 3808
3553 4138
3554 3699
3554 3950
3554 4021
3554 4114
3554 4242
3554 4412
3554 4634
3555 3688
3555 4280
3555 4671
3556 4061
3556 4677
3557 3591
3557 3966
3557 4371
3559 3733
3560 4520
3560 4669
3560 4685
3561 4009
3562 3722
3562 3726
3562 3737
3562 3808
3562 4017
3562 4165
3562 4180
3562 4249
3562 4376
3562 4602
3562 4685
3563 3722
3563 3946
3563 3969
3563 4415
3565 3718
3565 3726
3565 3873
3565 3879
3565 3972
3565 4206
3565 4258
3565 4280
3565 4294
3565 4395
3565 4406
3565 4496
3565 4548
3565 4669
3565 4671
3565 4685
3565 4689
3565 4707
3566 4045
3566 4462
3567 4551
3568 3886
3568 4454
3569 3599
3571 4276
3571 4408
3571 4476
3571 4493
3572 3912
3577 4011
3578 3979
3578 4040
3578 4367
3578 4671
3578 4677
3579 3609
3579 3633
3579 3680
3579 3729
3579 3766
3579 3834
3579 3970
3579 4134
3579 4136
3579 4182
3579 4234
3579 4238
3579 4276
3579 4396
3579 4410
3579 4415
3579 4450
3579 4465
3579 4481
3579 4483
3579 4544
3579 4615
3579 4654
3579 4701
3581 3899
3582 3724
3582 3726
3582 3735
3582 4011
3582 4148
3586 4043
3586 4119
3587 3744
3587 3853
3587 4035
3587 4053
3587 4270
3587 4395
3587 4520
3587 4603
3587 4665
3587 4669
3587 4707
3587 4714
3588 3805
3588 3843
3588 4178
3588 4591
3588 4653
3590 3594
3590 3609
3590 3680
3590 3825
3590 3832
3590 4189
3590 4318
3590 4355
3590 4459
3590 4467
3590 4471
3590 4484
3590 4487
3590 4576
3590 4626
3590 4682
3590 4712
3591 3626
3591 3744
3591 3761
3591 3785
3591 3808
3591 3907
3591 4045
3591 4151
3591 4257
3591 4371
3591 4374
3591 4520
3592 3843
3592 4052
3592 4367
3592 4587
3593 4001
3594 4140
3594 4234
3594 4395
3594 4415
3594 4516
3594 4568
3594 4571
3594 4654
3594 4664
3594 4701
3595 4422
3597 3994
3597 4208
3598 4085
3599 3782
3599 3997
3599 4374
3600 3792
3600 3966
3600 4142
3600 4243
3600 4376
3600 4434
3600 4602
3600 4689
3601 3787
3601 3891
3601 3960
3601 4415
3601 4646
3602 4001
3603 4035
3603 4047
3603 4669
3603 4711
3607 3823
3607 3895
3607 4270
3607 4303
3607 4395
3607 4520
3607 4559
3607 4560
3608 4333
3608 4615
3609 3825
3609 3832
3609 4189
3609 4410
3609 4487
3609 4503
3609 4568
3609 4571
3612 3746
3612 3845
3612 4070
3612 4622
3613 3664
3613 3994
3613 4208
3613 4423
3614 4213
3614 4309
3614 4685
3615 4136
3615 4140
3615 4571
3616 3869
3616 4045
3616 4180
3616 4418
3616 4520
3616 4707
3617 3708
3617 3891
3617 4298
3618 4415
3619 4161
3620 3682
3620 3744
3620 3808
3620 3864
3620 4182
3620 4462
3620 4497
3620 4602
3620 4615
3620 4671
3620 4677
3620 4685
3622 3680
3622 3790
3622 3832
3622 3917
3622 4134
3622 4410
3622 4438
3622 4441
3622 4456
3622 4487
3622 4503
3622 4639
3622 4667
3622 4673
3623 3746
3623 3783
3623 4201
3623 4231
3623 4622
3624 4395
3624 4711
3625 3948
3625 4455
3626 3642
3626 3726
3626 3843
3626 3966
3626 4001
3626 4161
3626 4180
3626 4313
3626 4462
3626 4573
3626 4668
3626 4677
3626 4707
3630 3960
3630 4001
3630 4245
3630 4351
3632 4208
3633 3848
3633 3891
3633 3917
3633 4171
3633 4250
3633 4360
3633 4367
3633 4374
3633 4711
3634 3899
3634 4063
3634 4270
3634 4470
3635 4024
3636 3708
3636 3766
3636 3828
3636 4613
3637 4180
3639 3642
3639 4035
3639 4393
3639 4470
3639 4603
3640 4677
3642 3744
3642 4035
3642 4151
3642 4161
3642 4243
3642 4573
3643 4395
3644 3868
3644 3869
3644 3931
3644 4418
3644 4477
3644 4707
3645 3684
3645 3906
3645 4146
3645 4659
3646 4052
3648 3893
3648 4238
3648 4579
3649 3726
3649 3732
3649 3780
3649 3829
3649 3948
3649 3997
3649 4544
3653 3669
3653 4036
3653 4140
3653 4148
3653 4329
3653 4483
3653 4571
3654 4254
3655 3997
3655 4308
3657 3705
3657 3933
3657 4001
3657 4172
3657 4568
3657 4572
3661 4234
3661 4711
3662 3820
3663 4251
3664 4208
3665 3886
3665 4454
3667 3781
3667 4063
3668 4001
3669 3766
3669 4214
3670 4654
3671 4217
3671 4452
3672 4462
3673 3834
3673 3988
3673 4001
3673 4140
3673 4144
3673 4171
3673 4213
3673 4238
3673 4410
3673 4468
3673 4571
3673 4664
3675 3726
3675 3892
3676 4001
3677 4445
3679 4367
3679 4711
3680 3766
3680 4001
3680 4048
3680 4180
3680 4245
3680 4320
3680 4360
3680 4415
3680 4463
3680 4576
3680 4707
3681 3960
3681 4001
3681 4036
3681 4048
3681 4298
3681 4483
3681 4615
3681 4654
3682 4023
3682 4182
3682 4615
3682 4671
3682 4685
3683 4157
3684 3906
3684 4146
3684 4392
3684 4659
3685 3787
3686 4186
3687 4671
3688 3786
3688 3829
3688 4001
3688 4024
3688 4171
3688 4404
3688 4615
3688 4671
3692 4673
3693 4677
3693 4709
3694 3732
3694 3800
3694 3895
3694 3960
3694 4238
3694 4520
3694 4637
3694 4685
3695 4622
3696 3744
3696 3971
3696 4151
3696 4180
3696 4374
3696 4406
3696 4462
3696 4671
3696 4685
3697 3834
3697 4001
3697 4140
3697 4288
3697 4626
3698 4001
3699 4021
3699 4082
3699 4412
3699 4566
3699 4634
3699 4663
3701 4027
3702 4420
3702 4537
3702 4618
3704 3826
3704 3923
3704 3961
3704 4045
3704 4161
3704 4364
3704 4456
3704 4531
3704 4654
3704 4709
3705 3933
3705 4172
3707 4538
3708 3829
3708 4017
3708 4180
3708 4306
3708 4395
3708 4520
3708 4560
3708 4613
3708 4614
3708 4714
3710 3829
3710 4408
3714 3726
3714 3823
3714 3907
3714 4050
3714 4062
3714 4073
3714 4161
3714 4178
3714 4270
3714 4520
3715 4082
3715 4518
3716 4001
3717 4571
3718 4280
3718 4548
3719 3946
3722 3946
3722 4406
3722 4671
3723 3946
3723 4178
3723 4212
3723 4383
3723 4604
3723 4697
3724 4011
3725 3826
3725 4001
3725 4045
3725 4161
3725 4531
3725 4709
3726 3732
3726 3744
3726 3799
3726 3800
3726 3808
3726 3823
3726 3829
3726 3834
3726 3848
3726 3856
3726 3866
3726 3873
3726 3893
3726 3895
3726 3901
3726 3902
3726 3960
3726 3971
3726 3972
3726 4001
3726 4011
3726 4017
3726 4023
3726 4045
3726 4063
3726 4117
3726 4151
3726 4157
3726 4161
3726 4178
3726 4180
3726 4183
3726 4206
3726 4212
3726 4237
3726 4258
3726 4270
3726 4280
3726 4406
3726 4462
3726 4470
3726 4520
3726 4532
3726 4541
3726 4560
3726 4603
3726 4615
3726 4623
3726 4669
3726 4671
3726 4677
3726 4685
3726 4702
3726 4707
3727 4011
3728 4001
3728 4040
3728 4524
3728 4654
3729 3832
3729 4329
3729 4330
3729 4335
3729 4459
3729 4534
3729 4547
3729 4639
3729 4673
3729 4674
3731 3981
3732 3780
3732 3917
3732 3931
3732 3997
3732 4043
3732 4045
3732 4151
3732 4161
3732 4671
3732 4677
3732 4702
3734 4550
3735 4001
3736 4421
3737 3744
3737 4270
3737 4615
3738 4035
3738 4405
3742 4048
3742 4140
3742 4571
3744 3753
3744 3764
3744 3808
3744 3823
3744 3854
3744 3856
3744 3866
3744 3968
3744 3971
3744 4023
3744 4045
3744 4161
3744 4180
3744 4270
3744 4313
3744 4374
3744 4375
3744 4381
3744 4395
3744 4406
3744 4415
3744 4462
3744 4495
3744 4520
3744 4560
3744 4602
3744 4607
3744 4609
3744 4615
3744 4654
3744 4671
3744 4674
3744 4677
3744 4685
3744 4707
3746 3783
3746 3799
3746 3822
3746 3845
3746 3884
3746 3924
3746 3927
3746 3941
3746 4004
3746 4070
3746 4143
3746 4151
3746 4165
3746 4201
3746 4226
3746 4269
3746 4270
3746 4418
3746 4424
3746 4477
3746 4485
3746 4521
3746 4532
3746 4539
3746 4573
3746 4593
3746 4622
3746 4686
3747 4009
3748 4286
3750 4023
3751 3797
3753 3848
3753 4001
3753 4017
3753 4308
3753 4395
3753 4705
3754 3937
3754 4035
3754 4555
3756 3859
3756 4011
3756 4138
3756 4576
3757 4333
3757 4367
3758 3805
3758 3843
3760 3901
3760 4157
3761 3781
3761 3966
3762 4046
3762 4483
3764 4001
3766 3960
3766 4076
3766 4138
3766 4140
3766 4320
3766 4347
3766 4360
3766 4415
3766 4620
3766 4651
3767 4652
3768 4576
3769 4669
3770 4001
3770 4024
3770 4605
3772 3783
3772 4231
3773 4001
3773 4180
3773 4294
3773 4576
3773 4707
3775 4238
3775 4415
3777 4564
3779 3981
3779 4259
3780 3804
3780 3834
3780 3917
3780 3997
3780 4001
3780 4023
3780 4144
3780 4238
3780 4250
3780 4308
3780 4367
3780 4468
3780 4615
3781 3966
3781 4063
3781 4347
3781 4532
3783 4165
3783 4201
3783 4226
3783 4231
3783 4353
3783 4442
3783 4622
3783 4671
3784 4117
3784 4161
3786 3791
3786 3829
3786 3835
3786 3849
3786 3881
3786 4001
3786 4023
3786 4024
3786 4033
3786 4078
3786 4171
3786 4287
3786 4351
3786 4356
3786 4402
3786 4404
3786 4415
3786 4515
3786 4544
3786 4551
3786 4592
3786 4626
3786 4702
3787 3834
3787 3960
3787 4026
3787 4045
3787 4061
3787 4063
3787 4238
3787 4395
3787 4410
3787 4462
3787 4520
3787 4559
3787 4707
3788 4618
3790 4134
3790 4135
3790 4213
3790 4238
3790 4288
3790 4483
3790 4516
3790 4568
3790 4654
3791 3859
3791 4001
3791 4048
3791 4144
3791 4171
3791 4404
3791 4483
3791 4538
3791 4571
3792 4602
3794 4566
3795 4001
3795 4367
3795 4404
3796 4144
3796 4711
3797 3986
3798 4472
3798 4560
3799 3899
3799 4001
3799 4004
3799 4063
3799 4222
3799 4340
3799 4418
3799 4470
3799 4539
3799 4658
3799 4681
3799 4686
3800 4180
3800 4522
3800 4669
3802 4018
3802 4115
3804 3917
3804 3963
3804 4415
3804 4602
3805 3820
3805 3843
3805 4178
3805 4206
3805 4387
3805 4570
3805 4591
3805 4653
3806 4023
3806 4171
3806 4321
3806 4620
3806 4671
3806 4702
3807 4180
3807 4395
3807 4518
3807 4669
3808 3823
3808 3834
3808 3848
3808 3853
3808 3854
3808 3856
3808 3873
3808 3968
3808 4017
3808 4045
3808 4151
3808 4180
3808 4182
3808 4183
3808 4212
3808 4238
3808 4258
3808 4270
3808 4280
3808 4313
3808 4353
3808 4374
3808 4457
3808 4462
3808 4508
3808 4560
3808 4567
3808 4603
3808 4609
3808 4669
3808 4671
3808 4685
3808 4707
3808 4711
3809 3866
3809 3891
3809 3976
3809 3997
3809 4270
3809 4615
3809 4703
3815 4590
3816 3886
3816 3945
3818 3933
3818 4199
3818 4367
3818 4707
3820 4178
3821 3856
3821 4415
3822 4201
3822 4215
3823 3869
3823 4178
3823 4212
3823 4623
3823 4702
3824 4011
3825 4001
3825 4571
3826 3909
3826 3923
3826 4161
3826 4298
3826 4462
3826 4531
3826 4654
3827 4001
3827 4023
3828 3954
3828 4126
3828 4613
3829 3848
3829 3856
3829 3958
3829 3979
3829 4001
3829 4023
3829 4040
3829 4171
3829 4236
3829 4367
3829 4462
3829 4508
3829 4592
3829 4605
3829 4666
3829 4677
3829 4711
3831 3951
3831 4484
3831 4571
3831 4712
3832 4140
3832 4234
3832 4238
3832 4571
3833 4001
3833 4415
3834 3856
3834 3891
3834 3923
3834 4288
3834 4309
3834 4467
3834 4547
3834 4670
3834 4674
3834 4707
3834 4708
3835 4021
3835 4347
3835 4360
3835 4367
3835 4415
3836 4140
3836 4509
3837 4306
3838 3917
3838 4415
3838 4438
3838 4483
3840 3887
3841 4001
3843 3848
3843 4045
3843 4178
3843 4206
3843 4270
3843 4462
3843 4573
3843 4653
3843 4685
3843 4692
3843 4707
3844 3848
3845 4070
3845 4201
3848 3923
3848 3999
3848 4001
3848 4026
3848 4160
3848 4238
3848 4270
3848 4395
3848 4462
3848 4508
3848 4559
3848 4560
3848 4690
3848 4707
3849 3881
3849 3977
3849 4001
3849 4023
3849 4285
3849 4515
3849 4702
3851 4320
3851 4415
3852 4172
3853 4035
3854 3968
3856 3964
3856 3981
3856 4001
3856 4021
3856 4045
3856 4068
3856 4151
3856 4171
3856 4183
3856 4195
3856 4245
3856 4270
3856 4292
3856 4298
3856 4311
3856 4367
3856 4374
3856 4395
3856 4558
3856 4559
3856 4685
3858 4048
3858 4140
3858 4234
3858 4238
3858 4259
3858 4333
3858 4367
3858 4453
3858 4464
3858 4483
3864 4462
3864 4615
3866 3971
3866 4063
3866 4085
3866 4363
3866 4415
3866 4496
3866 4615
3866 4707
3868 3869
3868 4103
3869 3905
3869 3931
3869 4045
3869 4060
3869 4103
3869 4251
3869 4418
3869 4446
3869 4564
3869 4637
3869 4707
3870 3946
3870 3969
3870 4383
3870 4395
3873 3902
3873 4206
3873 4280
3873 4462
3873 4496
3873 4669
3873 4671
3873 4689
3878 4180
3879 3933
3880 4133
3881 4023
3881 4171
3881 4515
3881 4702
3884 4201
3884 4231
3884 4685
3886 3945
3886 4454
3887 4061
3887 4439
3887 4677
3888 3981
3888 4001
3888 4168
3888 4183
3890 4572
3891 3931
3891 3949
3891 4063
3891 4151
3891 4195
3891 4270
3891 4312
3891 4398
3891 4559
3891 4669
3891 4671
3892 4424
3893 4087
3893 4183
3893 4367
3893 4579
3893 4610
3894 4040
3894 4404
3894 4605
3895 3960
3895 4415
3895 4646
3895 4677
3895 4707
3897 4134
3899 4063
3899 4466
3899 4470
3900 4113
3901 4016
3901 4157
3901 4239
3901 4270
3901 4620
3902 3972
3902 4258
3902 4280
3903 4355
3903 4503
3905 4060
3905 4341
3905 4418
3905 4566
3906 4146
3906 4659
3907 3923
3907 4418
3907 4520
3907 4637
3907 4677
3907 4685
3908 4019
3908 4139
3908 4335
3909 3961
3909 4138
3909 4531
3910 4270
3912 4359
3912 4495
3913 4046
3913 4140
3913 4571
3917 3997
3917 4308
3917 4320
3917 4415
3917 4463
3917 4468
3917 4483
3917 4544
3918 4615
3921 3981
3921 4001
3921 4620
3922 4165
3922 4182
3922 4415
3922 4532
3922 4544
3922 4615
3922 4663
3922 4671
3922 4707
3923 4005
3923 4041
3923 4045
3923 4161
3923 4238
3923 4270
3923 4292
3923 4462
3923 4520
3923 4714
3925 4276
3925 4308
3925 4415
3927 4201
3927 4593
3929 4552
3931 4161
3931 4270
3931 4398
3931 4671
3931 4685
3931 4707
3933 4453
3933 4464
3933 4579
3934 4507
3934 4586
3935 4309
3937 4023
3937 4035
3937 4082
3937 4214
3937 4266
3937 4555
3937 4663
3937 4685
3938 4045
3939 4464
3940 4140
3940 4450
3940 4493
3940 4571
3941 4534
3943 4001
3944 4059
3945 4023
3945 4378
3945 4454
3945 4702
3946 3969
3946 4066
3946 4118
3946 4198
3946 4212
3946 4379
3946 4383
3946 4406
3946 4532
3946 4542
3946 4663
3946 4705
3947 3988
3948 4195
3948 4270
3948 4511
3948 4615
3949 4001
3949 4225
3949 4671
3949 4685
3950 4412
3951 4520
3951 4601
3955 4444
3958 4171
3958 4234
3958 4707
3958 4711
3960 4001
3960 4045
3960 4415
3960 4646
3960 4705
3961 4000
3961 4001
3961 4138
3961 4140
3961 4234
3961 4238
3961 4364
3961 4449
3961 4531
3963 4415
3963 4615
3965 4446
3966 4045
3966 4180
3966 4603
3967 4115
3969 3991
3969 4066
3969 4118
3969 4212
3969 4258
3969 4406
3969 4705
3970 4234
3970 4415
3971 4017
3971 4023
3971 4151
3971 4180
3971 4183
3971 4258
3971 4270
3971 4406
3971 4520
3971 4559
3971 4560
3971 4669
3971 4671
3971 4677
3971 4685
3971 4689
3972 3981
3972 4180
3972 4206
3972 4270
3972 4296
3972 4384
3972 4395
3972 4560
3972 4654
3972 4671
3972 4677
3972 4707
3972 4711
3974 3981
3978 4408
3978 4711
3979 4001
3980 4615
3981 4001
3981 4011
3981 4051
3981 4138
3981 4259
3981 4271
3981 4367
3981 4437
3981 4520
3981 4536
3981 4564
3981 4585
3981 4598
3981 4633
3981 4707
3982 4001
3982 4149
3984 4447
3984 4590
3985 4001
3988 4069
3988 4552
3988 4662
3990 4356
3990 4524
3993 4309
3994 4208
3994 4357
3997 4001
3997 4309
3997 4361
3997 4468
4000 4001
4000 4138
4001 4011
4001 4023
4001 4024
4001 4033
4001 4036
4001 4040
4001 4075
4001 4083
4001 4101
4001 4145
4001 4151
4001 4157
4001 4158
4001 4161
4001 4171
4001 4195
4001 4205
4001 4213
4001 4215
4001 4221
4001 4225
4001 4229
4001 4245
4001 4246
4001 4248
4001 4292
4001 4298
4001 4310
4001 4311
4001 4321
4001 4333
4001 4335
4001 4351
4001 4359
4001 4367
4001 4384
4001 4404
4001 4405
4001 4406
4001 4408
4001 4415
4001 4418
4001 4453
4001 4456
4001 4462
4001 4466
4001 4468
4001 4477
4001 4483
4001 4489
4001 4515
4001 4523
4001 4524
4001 4531
4001 4544
4001 4559
4001 4569
4001 4571
4001 4572
4001 4576
4001 4597
4001 4615
4001 4618
4001 4622
4001 4626
4001 4644
4001 4646
4001 4654
4001 4660
4001 4667
4001 4671
4001 4677
4001 4682
4001 4685
4001 4695
4001 4707
4001 4708
4002 4246
4002 4360
4002 4367
4002 4408
4002 4666
4002 4711
4003 4423
4004 4201
4004 4231
4004 4477
4008 4685
4009 4705
4011 4023
4011 4043
4011 4138
4011 4225
4011 4259
4011 4321
4011 4400
4011 4462
4011 4597
4011 4626
4011 4633
4011 4652
4011 4659
4011 4674
4014 4605
4014 4657
4014 4711
4016 4239
4016 4418
4017 4395
4017 4554
4020 4208
4021 4462
4022 4381
4023 4033
4023 4045
4023 4051
4023 4078
4023 4133
4023 4164
4023 4171
4023 4225
4023 4234
4023 4238
4023 4262
4023 4321
4023 4351
4023 4356
4023 4402
4023 4406
4023 4415
4023 4515
4023 4542
4023 4551
4023 4572
4023 4578
4023 4592
4023 4602
4023 4603
4023 4605
4023 4607
4023 4620
4023 4655
4023 4671
4023 4677
4023 4685
4023 4702
4024 4182
4024 4213
4024 4367
4024 4408
4024 4711
4026 4707
4028 4036
4028 4140
4028 4171
4028 4483
4028 4571
4028 4654
4029 4156
4029 4566
4029 4648
4030 4161
4032 4096
4033 4171
4033 4182
4033 4592
4033 4615
4034 4395
4035 4047
4035 4053
4035 4083
4035 4270
4035 4280
4035 4284
4035 4393
4035 4470
4035 4525
4035 4532
4035 4555
4035 4603
4035 4665
4035 4669
4036 4164
4036 4429
4036 4654
4040 4180
4040 4367
4040 4448
4040 4524
4040 4650
4040 4711
4043 4063
4043 4119
4043 4195
4043 4313
4043 4482
4043 4498
4043 4703
4043 4713
4045 4090
4045 4127
4045 4151
4045 4161
4045 4180
4045 4182
4045 4209
4045 4215
4045 4231
4045 4270
4045 4293
4045 4367
4045 4395
4045 4406
4045 4415
4045 4434
4045 4462
4045 4463
4045 4520
4045 4559
4045 4602
4045 4636
4045 4658
4045 4671
4045 4677
4045 4685
4045 4707
4045 4711
4046 4173
4047 4555
4047 4669
4048 4467
4048 4483
4048 4619
4048 4682
4050 4062
4050 4520
4051 4520
4051 4707
4052 4206
4052 4367
4052 4570
4053 4603
4053 4669
4054 4322
4054 4333
4054 4558
4054 4674
4055 4140
4055 4234
4055 4404
4055 4468
4055 4483
4055 4513
4055 4571
4055 4639
4056 4185
4056 4415
4056 4462
4058 4138
4059 4187
4060 4251
4061 4439
4061 4677
4061 4707
4062 4677
4063 4085
4063 4142
4063 4151
4063 4180
4063 4222
4063 4237
4063 4243
4063 4374
4063 4388
4063 4409
4063 4414
4063 4415
4063 4418
4063 4462
4063 4466
4063 4470
4063 4532
4063 4539
4063 4603
4063 4611
4063 4615
4063 4650
4063 4658
4063 4665
4063 4677
4063 4707
4066 4118
4067 4625
4067 4706
4068 4140
4068 4213
4068 4339
4068 4344
4068 4429
4068 4516
4068 4571
4069 4107
4069 4333
4070 4477
4071 4176
4075 4161
4076 4140
4077 4552
4078 4171
4078 4213
4078 4321
4078 4544
4080 4439
4082 4239
4082 4518
4082 4671
4083 4669
4085 4415
4086 4087
4086 4320
4086 4415
4086 4559
4087 4238
4087 4415
4087 4462
4090 4462
4090 4559
4094 4415
4095 4650
4096 4178
4100 4113
4102 4356
4104 4532
4105 4408
4105 4632
4109 4399
4115 4128
4115 4268
4115 4565
4116 4571
4116 4616
4117 4620
4117 4663
4118 4212
4119 4482
4123 4571
4125 4309
4127 4462
4128 4630
4132 4608
4133 4351
4134 4141
4134 4234
4134 4490
4136 4410
4136 4534
4136 4577
4136 4616
4137 4208
4138 4157
4138 4456
4140 4288
4140 4311
4140 4318
4140 4330
4140 4335
4140 4382
4140 4449
4140 4453
4140 4471
4140 4509
4140 4513
4140 4547
4140 4576
4140 4619
4140 4639
4140 4641
4140 4673
4140 4712
4141 4253
4142 4519
4143 4165
4143 4424
4143 4443
4143 4485
4143 4573
4144 4171
4144 4182
4144 4382
4144 4404
4144 4448
4144 4462
4144 4677
4144 4711
4145 4245
4145 4333
4145 4351
4145 4544
4146 4659
4151 4180
4151 4183
4151 4257
4151 4270
4151 4353
4151 4366
4151 4371
4151 4394
4151 4406
4151 4462
4151 4495
4151 4496
4151 4497
4151 4520
4151 4559
4151 4560
4151 4615
4151 4671
4151 4685
4151 4705
4151 4707
4154 4206
4155 4647
4156 4518
4156 4638
4157 4266
4157 4462
4157 4532
4157 4634
4157 4674
4161 4270
4161 4351
4161 4361
4161 4404
4161 4456
4161 4462
4161 4520
4161 4581
4161 4642
4161 4647
4161 4677
4161 4707
4161 4709
4163 4239
4164 4347
4164 4363
4165 4201
4165 4417
4165 4593
4165 4622
4165 4686
4167 4225
4167 4597
4168 4183
4168 4707
4169 4571
4171 4182
4171 4322
4171 4351
4171 4404
4171 4515
4171 4592
4171 4615
4171 4671
4171 4685
4171 4702
4171 4707
4172 4568
4172 4664
4175 4515
4177 4415
4177 4463
4177 4572
4178 4206
4178 4477
4178 4519
4178 4553
4178 4564
4178 4566
4178 4591
4178 4653
4178 4707
4179 4361
4180 4226
4180 4270
4180 4294
4180 4395
4180 4409
4180 4419
4180 4462
4180 4524
4180 4554
4180 4557
4180 4571
4180 4576
4180 4595
4180 4602
4180 4668
4180 4671
4180 4685
4180 4707
4180 4711
4182 4190
4182 4448
4182 4524
4182 4544
4182 4592
4182 4602
4182 4615
4182 4671
4182 4707
4183 4462
4183 4669
4183 4677
4185 4351
4185 4402
4189 4238
4190 4245
4190 4438
4190 4468
4190 4524
4191 4415
4192 4414
4192 4418
4192 4539
4192 4573
4193 4208
4195 4320
4195 4363
4195 4415
4198 4406
4198 4625
4198 4706
4201 4269
4201 4272
4201 4418
4201 4424
4201 4485
4201 4521
4201 4573
4202 4671
4203 4540
4206 4258
4206 4280
4206 4367
4206 4395
4206 4520
4207 4425
4208 4444
4208 4494
4208 4506
4208 4517
4208 4691
4209 4395
4209 4416
4209 4462
4209 4688
4212 4615
4213 4229
4213 4276
4213 4339
4213 4465
4213 4468
4213 4493
4213 4516
4213 4558
4213 4572
4213 4626
4214 4415
4214 4509
4214 4578
4215 4521
4215 4534
4215 4571
4217 4268
4217 4565
4218 4567
4218 4654
4219 4299
4222 4470
4222 4539
4223 4553
4225 4351
4225 4597
4229 4282
4230 4677
4231 4462
4231 4469
4231 4622
4234 4238
4234 4330
4234 4513
4234 4576
4234 4619
4234 4626
4237 4603
4238 4367
4238 4415
4238 4428
4238 4462
4238 4484
4238 4513
4238 4592
4238 4602
4238 4615
4238 4616
4238 4626
4238 4671
4238 4677
4238 4707
4238 4712
4239 4270
4239 4671
4239 4707
4242 4634
4243 4270
4243 4371
4243 4528
4245 4276
4245 4351
4246 4367
4246 4415
4246 4701
4247 4425
4248 4410
4248 4571
4248 4626
4250 4308
4250 4415
4250 4544
4250 4605
4251 4270
4251 4418
4251 4637
4255 4571
4258 4280
4258 4462
4258 4496
4258 4497
4258 4669
4258 4671
4258 4689
4259 4542
4259 4644
4264 4332
4266 4663
4268 4281
4270 4332
4270 4374
4270 4427
4270 4462
4270 4521
4270 4573
4270 4595
4270 4603
4270 4615
4270 4634
4270 4636
4270 4671
4270 4677
4270 4685
4270 4707
4271 4333
4271 4483
4271 4644
4271 4645
4272 4380
4272 4418
4272 4588
4276 4415
4276 4431
4276 4438
4276 4463
4276 4465
4276 4468
4276 4476
4276 4544
4276 4572
4280 4395
4280 4669
4280 4671
4280 4677
4287 4702
4288 4516
4288 4571
4288 4583
4290 4316
4290 4524
4293 4462
4293 4636
4294 4559
4294 4671
4296 4395
4296 4677
4298 4333
4298 4431
4298 4560
4298 4579
4299 4360
4299 4367
4299 4666
4299 4711
4303 4395
4303 4711
4307 4377
4310 4351
4311 4516
4311 4701
4313 4707
4316 4493
4318 4571
4320 4352
4320 4363
4320 4415
4320 4463
4320 4516
4320 4544
4320 4606
4321 4351
4321 4354
4321 4702
4322 4633
4329 4571
4329 4667
4329 4673
4330 4571
4330 4641
4333 4351
4333 4359
4333 4395
4333 4415
4333 4453
4333 4464
4333 4483
4333 4654
4333 4662
4333 4683
4337 4481
4339 4715
4346 4616
4347 4415
4347 4532
4347 4615
4347 4707
4351 4402
4351 4671
4351 4702
4351 4707
4352 4459
4352 4674
4352 4712
4355 4503
4357 4676
4359 4482
4359 4649
4359 4685
4360 4408
4360 4410
4360 4701
4361 4462
4361 4685
4363 4415
4363 4592
4363 4606
4364 4462
4367 4408
4367 4438
4367 4453
4367 4464
4367 4483
4367 4571
4367 4579
4367 4587
4367 4643
4367 4644
4367 4711
4374 4376
4374 4489
4374 4520
4374 4560
4374 4613
4374 4668
4374 4671
4374 4677
4374 4685
4374 4714
4375 4395
4375 4489
4375 4646
4376 4408
4376 4671
4376 4707
4378 4702
4382 4483
4382 4571
4386 4716
4394 4434
4394 4689
4395 4453
4395 4462
4395 4496
4395 4514
4395 4518
4395 4522
4395 4548
4395 4626
4395 4669
4395 4685
4395 4688
4395 4694
4395 4707
4395 4711
4395 4714
4396 4410
4396 4537
4396 4544
4402 4605
4404 4445
4404 4448
4404 4503
4404 4670
4404 4711
4405 4669
4406 4625
4406 4647
4406 4685
4406 4689
4406 4705
4406 4707
4407 4571
4408 4415
4408 4462
4408 4571
4408 4572
4408 4701
4408 4711
4409 4470
4409 4539
4409 4658
4409 4681
4410 4415
4410 4441
4410 4547
4410 4654
4414 4520
4414 4603
4415 4438
4415 4463
4415 4468
4415 4483
4415 4516
4415 4532
4415 4544
4415 4559
4415 4572
4415 4575
4415 4606
4415 4615
4415 4646
4415 4654
4415 4666
4418 4470
4418 4520
4418 4539
4418 4593
4418 4622
4418 4637
4418 4686
4418 4707
4420 4618
4422 4600
4423 4631
4423 4676
4428 4537
4428 4559
4428 4572
4429 4483
4431 4465
4436 4627
4438 4463
4438 4468
4438 4483
4438 4544
4438 4559
4439 4677
4441 4571
4444 4506
4445 4510
4446 4637
4447 4590
4448 4524
4449 4571
4450 4534
4456 4531
4459 4674
4461 4677
4462 4615
4462 4636
4462 4658
4462 4671
4462 4679
4462 4685
4462 4703
4462 4707
4463 4468
4463 4544
4463 4615
4463 4671
4464 4483
4465 4468
4467 4571
4468 4544
4468 4576
4469 4525
4470 4539
4470 4603
4470 4669
4471 4571
4477 4539
4477 4588
4482 4653
4483 4503
4483 4513
4483 4547
4483 4558
4483 4626
4483 4674
4484 4712
4487 4571
4495 4607
4497 4685
4497 4689
4503 4670
4508 4711
4509 4583
4510 4674
4513 4571
4513 4639
4515 4702
4516 4544
4516 4626
4516 4715
4519 4520
4519 4623
4519 4653
4520 4598
4520 4637
4520 4671
4520 4677
4520 4685
4520 4707
4520 4709
4532 4570
4532 4615
4532 4707
4534 4567
4534 4568
4534 4571
4534 4577
4539 4593
4539 4622
4539 4686
4543 4679
4544 4559
4544 4592
4544 4615
4547 4571
4551 4671
4552 4662
4555 4669
4558 4571
4559 4613
4560 4613
4560 4636
4561 4670
4564 4685
4564 4698
4566 4685
4568 4715
4571 4576
4571 4626
4571 4639
4571 4670
4571 4673
4571 4708
4571 4715
4572 4685
4573 4658
4573 4686
4576 4707
4582 4658
4584 4677
4591 4653
4592 4602
4592 4671
4592 4702
4595 4707
4597 4611
4602 4615
4602 4671
4603 4669
4605 4657
4605 4673
4609 4671
4614 4677
4615 4653
4615 4663
4615 4671
4615 4677
4615 4685
4615 4695
4615 4707
4615 4715
4620 4663
4620 4702
4620 4707
4622 4707
4625 4685
4625 4706
4626 4654
4637 4707
4644 4645
4644 4683
4645 4683
4654 4662
4654 4674
4654 4708
4662 4674
4666 4711
4669 4671
4669 4689
4669 4707
4671 4677
4671 4685
4671 4689
4671 4702
4671 4703
4671 4707
4677 4685
4677 4695
4677 4707
4677 4711
4677 4714
4685 4706
4685 4707
4688 4694
4701 4715
