%%MatrixMarket matrix coordinate pattern symmetric
2947 2947 5834
1 8
1 2931
1 2932
2 3
2 258
3 8
3 258
3 340
3 352
4 8
5 2760
6 8
7 8
7 340
8 9
8 10
8 13
8 14
8 15
8 17
8 18
8 21
8 243
8 244
8 246
8 247
8 248
8 259
8 262
8 263
8 266
8 267
8 292
8 339
8 340
8 352
8 359
8 2756
8 2758
8 2760
8 2762
8 2784
9 247
10 292
11 12
11 18
12 18
12 292
16 17
17 247
19 244
20 21
21 352
22 243
23 244
24 246
25 247
26 248
27 256
28 257
29 258
30 260
31 261
32 262
33 264
34 265
35 267
36 268
37 269
38 272
39 273
40 274
41 277
42 278
43 279
44 280
45 281
46 283
47 284
48 285
49 286
50 287
51 288
52 289
53 290
54 291
55 292
56 293
57 294
58 296
59 297
60 298
61 299
62 300
63 301
64 302
65 303
66 304
67 305
68 306
69 307
70 308
71 309
72 310
73 311
74 312
75 313
76 314
77 315
78 316
79 317
80 318
81 319
82 320
83 321
84 322
85 323
86 324
87 325
88 326
89 327
90 328
91 329
92 330
93 331
94 332
95 333
96 334
97 335
98 336
99 337
100 339
101 340
102 341
103 343
104 345
105 346
106 347
107 348
108 349
109 351
110 352
111 353
112 354
113 356
114 357
115 358
116 359
117 360
118 376
119 392
120 448
121 488
122 540
123 573
124 624
125 650
126 683
127 693
128 750
129 801
130 869
131 923
132 976
133 1027
134 1075
135 1126
136 1178
137 1285
138 1336
139 1390
140 1442
141 1513
142 1569
143 1620
144 1671
145 1723
146 1787
147 1844
148 1895
149 1946
150 1997
151 2049
152 2100
153 2151
154 2202
155 2253
156 2310
157 2361
158 2413
159 2463
160 2514
161 2565
162 2616
163 2669
164 2671
165 2673
166 2691
167 2693
168 2695
169 2698
170 2702
171 2703
172 2705
173 2709
174 2711
175 2713
176 2715
177 2717
178 2720
179 2722
180 2724
181 2726
182 2729
183 2732
184 2737
185 2739
186 2740
187 2744
188 2756
189 2757
190 2758
191 2760
192 2772
193 2776
194 2780
195 2781
196 2782
197 2783
198 2784
199 2785
200 2786
201 2787
202 2788
203 2789
204 2790
205 2791
206 2792
207 2793
208 2794
209 2795
210 2796
211 2797
212 2798
213 2799
214 2800
215 2801
216 2802
217 2803
218 2804
219 2805
220 2806
221 2807
222 2809
223 2810
224 2811
225 2812
226 2813
227 2814
228 2815
229 2816
230 2818
231 2819
232 2820
233 2821
234 2822
235 2823
236 2824
237 2825
238 2826
239 2827
240 2828
241 2829
242 2831
243 244
243 246
243 247
243 248
243 262
243 267
243 292
243 339
243 340
243 352
243 2756
243 2758
243 2760
243 2784
244 245
244 246
244 247
244 248
244 262
244 267
244 292
244 339
244 340
244 352
244 2756
244 2758
244 2760
244 2784
246 247
246 248
246 262
246 267
246 292
246 339
246 340
246 352
246 2756
246 2758
246 2760
246 2784
247 248
247 258
247 261
247 262
247 264
247 265
247 267
247 268
247 269
247 271
247 273
247 292
247 315
247 339
247 340
247 343
247 348
247 349
247 352
247 354
247 376
247 392
247 448
247 488
247 540
247 573
247 624
247 650
247 683
247 693
247 750
247 801
247 869
247 923
247 976
247 1027
247 1075
247 1126
247 1178
247 1336
247 1390
247 1442
247 1620
247 1671
247 1787
247 1844
247 1895
247 1997
247 2100
247 2253
247 2463
247 2616
247 2669
247 2702
247 2732
247 2744
247 2756
247 2757
247 2758
247 2760
247 2772
247 2776
247 2784
247 2816
247 2830
247 2831
248 249
248 250
248 251
248 252
248 253
248 254
248 255
248 262
248 265
248 267
248 292
248 327
248 339
248 340
248 352
248 354
248 2756
248 2758
248 2760
248 2783
248 2784
248 2785
248 2812
248 2816
256 352
257 352
260 352
261 339
261 2760
262 267
262 292
262 339
262 340
262 352
262 2756
262 2758
262 2760
262 2784
267 292
267 339
267 340
267 344
267 352
267 2756
267 2758
267 2760
267 2784
268 292
269 339
269 2760
270 359
270 360
272 292
274 292
275 292
276 292
277 292
278 292
279 292
280 292
281 282
281 292
283 292
284 292
285 292
286 292
287 292
288 292
289 292
290 292
291 292
292 293
292 294
292 296
292 297
292 298
292 299
292 300
292 301
292 302
292 303
292 304
292 305
292 306
292 307
292 308
292 309
292 310
292 311
292 312
292 313
292 314
292 315
292 316
292 317
292 318
292 319
292 320
292 321
292 322
292 323
292 324
292 325
292 326
292 327
292 328
292 329
292 330
292 331
292 332
292 333
292 334
292 335
292 336
292 337
292 339
292 340
292 341
292 352
292 2756
292 2757
292 2758
292 2760
292 2784
295 296
310 340
338 339
339 340
339 341
339 352
339 354
339 653
339 2756
339 2758
339 2760
339 2784
340 341
340 343
340 352
340 354
340 358
340 2756
340 2758
340 2760
340 2784
341 2760
342 343
345 352
346 352
347 352
348 352
348 2756
349 352
349 2756
350 351
351 352
351 2756
352 353
352 354
352 356
352 357
352 358
352 359
352 360
352 2671
352 2691
352 2693
352 2695
352 2698
352 2702
352 2703
352 2705
352 2709
352 2711
352 2713
352 2715
352 2717
352 2720
352 2722
352 2724
352 2726
352 2729
352 2737
352 2740
352 2756
352 2758
352 2760
352 2784
355 356
359 360
360 2752
361 2756
362 2756
363 364
363 376
364 365
364 376
365 366
365 376
366 367
366 376
367 368
367 376
368 369
368 376
369 370
369 376
370 371
370 376
371 372
371 376
372 373
372 376
373 374
373 376
374 375
374 376
375 376
376 2756
377 2756
378 379
378 392
379 380
379 392
380 381
380 392
381 382
381 392
382 383
382 392
383 384
383 392
384 385
384 392
385 386
385 392
386 387
386 392
387 388
387 392
388 389
388 392
389 390
389 392
390 391
390 392
391 392
392 2756
393 2756
394 2756
395 2756
396 397
396 448
397 398
397 448
398 399
398 448
399 400
399 448
400 401
400 448
401 402
401 448
402 403
402 448
403 404
403 448
404 405
404 448
405 406
405 448
406 407
406 448
407 408
407 448
408 409
408 448
409 410
409 448
410 411
410 448
411 412
411 448
412 413
412 448
413 414
413 448
414 415
414 448
415 416
415 448
416 417
416 448
417 418
417 448
418 419
418 448
419 420
419 448
420 421
420 448
421 422
421 448
422 423
422 448
423 424
423 448
424 425
424 448
425 426
425 448
426 427
426 448
427 428
427 448
428 429
428 448
429 430
429 448
430 431
430 448
431 432
431 448
432 433
432 448
433 434
433 448
434 435
434 448
435 436
435 448
436 437
436 448
437 438
437 448
438 439
438 448
439 440
439 448
440 441
440 448
441 442
441 448
442 443
442 448
443 444
443 448
444 445
444 448
445 446
445 448
446 447
446 448
447 448
448 2756
449 2756
450 2756
451 2756
452 2756
453 2756
454 455
454 488
455 456
455 488
456 457
456 488
457 458
457 488
458 459
458 488
459 460
459 488
460 461
460 488
461 462
461 488
462 463
462 488
463 464
463 488
464 465
464 488
465 466
465 488
466 467
466 488
467 468
467 488
468 469
468 488
469 470
469 488
470 471
470 488
471 472
471 488
472 473
472 488
473 474
473 488
474 475
474 488
475 476
475 488
476 477
476 488
477 478
477 488
478 479
478 488
479 480
479 488
480 481
480 488
481 482
481 488
482 483
482 488
483 484
483 488
484 485
484 488
485 486
485 488
486 487
486 488
487 488
488 2756
489 2756
490 491
490 540
491 492
491 540
492 493
492 540
493 494
493 540
494 495
494 540
495 496
495 540
496 497
496 540
497 498
497 540
498 499
498 540
499 500
499 540
500 501
500 540
501 502
501 540
502 503
502 540
503 504
503 540
504 505
504 540
505 506
505 540
506 507
506 540
507 508
507 540
508 509
508 540
509 510
509 540
510 511
510 540
511 512
511 540
512 513
512 540
513 514
513 540
514 515
514 540
515 516
515 540
516 517
516 540
517 518
517 540
518 519
518 540
519 520
519 540
520 521
520 540
521 522
521 540
522 523
522 540
523 524
523 540
524 525
524 540
525 526
525 540
526 527
526 540
527 528
527 540
528 529
528 540
529 530
529 540
530 531
530 540
531 532
531 540
532 533
532 540
533 534
533 540
534 535
534 540
535 536
535 540
536 537
536 540
537 538
537 540
538 539
538 540
539 540
540 2756
541 542
541 573
542 543
542 573
543 544
543 573
544 545
544 573
545 546
545 573
546 547
546 573
547 548
547 573
548 549
548 573
549 550
549 573
550 551
550 573
551 552
551 573
552 553
552 573
553 554
553 573
554 555
554 573
555 556
555 573
556 557
556 573
557 558
557 573
558 559
558 573
559 560
559 573
560 561
560 573
561 562
561 573
562 563
562 573
563 564
563 573
564 565
564 573
565 566
565 573
566 567
566 573
567 568
567 573
568 569
568 573
569 570
569 573
570 571
570 573
571 572
571 573
572 573
573 2756
574 575
574 624
575 576
575 624
576 577
576 624
577 578
577 624
578 579
578 624
579 580
579 624
580 581
580 624
581 582
581 624
582 583
582 624
583 584
583 624
584 585
584 624
585 586
585 624
586 587
586 624
587 588
587 624
588 589
588 624
589 590
589 624
590 591
590 624
591 592
591 624
592 593
592 624
593 594
593 624
594 595
594 624
595 596
595 624
596 597
596 624
597 598
597 624
598 599
598 624
599 600
599 624
600 601
600 624
601 602
601 624
602 603
602 624
603 604
603 624
604 605
604 624
605 606
605 624
606 607
606 624
607 608
607 624
608 609
608 624
609 610
609 624
610 611
610 624
611 612
611 624
612 613
612 624
613 614
613 624
614 615
614 624
615 616
615 624
616 617
616 624
617 618
617 624
618 619
618 624
619 620
619 624
620 621
620 624
621 622
621 624
622 623
622 624
623 624
624 2756
625 2756
626 627
626 650
627 628
627 650
628 629
628 650
629 630
629 650
630 631
630 650
631 632
631 650
632 633
632 650
633 634
633 650
634 635
634 650
635 636
635 650
636 637
636 650
637 638
637 650
638 639
638 650
639 640
639 650
640 641
640 650
641 642
641 650
642 643
642 650
643 644
643 650
644 645
644 650
645 646
645 650
646 647
646 650
647 648
647 650
648 649
648 650
649 650
650 2756
651 2756
652 2756
653 654
654 2756
655 2756
656 2756
657 658
657 683
658 659
658 683
659 660
659 683
660 661
660 683
661 662
661 683
662 663
662 683
663 664
663 683
664 665
664 683
665 666
665 683
666 667
666 683
667 668
667 683
668 669
668 683
669 670
669 683
670 671
670 683
671 672
671 683
672 673
672 683
673 674
673 683
674 675
674 683
675 676
675 683
676 677
676 683
677 678
677 683
678 679
678 683
679 680
679 683
680 681
680 683
681 682
681 683
682 683
683 2756
684 685
684 693
685 686
685 693
686 687
686 693
687 688
687 693
688 689
688 693
689 690
689 693
690 691
690 693
691 692
691 693
692 693
693 2756
694 2756
695 696
695 750
696 697
696 750
697 698
697 750
698 699
698 750
699 700
699 750
700 701
700 750
701 702
701 750
702 703
702 750
703 704
703 750
704 705
704 750
705 706
705 750
706 707
706 750
707 708
707 750
708 709
708 750
709 710
709 750
710 711
710 750
711 712
711 750
712 713
712 750
713 714
713 750
714 715
714 750
715 716
715 750
716 717
716 750
717 718
717 750
718 719
718 750
719 720
719 750
720 721
720 750
721 722
721 750
722 723
722 750
723 724
723 750
724 725
724 750
725 726
725 750
726 727
726 750
727 728
727 750
728 729
728 750
729 730
729 750
730 731
730 750
731 732
731 750
732 733
732 750
733 734
733 750
734 735
734 750
735 736
735 750
736 737
736 750
737 738
737 750
738 739
738 750
739 740
739 750
740 741
740 750
741 742
741 750
742 743
742 750
743 744
743 750
744 745
744 750
745 746
745 750
746 747
746 750
747 748
747 750
748 749
748 750
749 750
750 2756
751 752
751 801
752 753
752 801
753 754
753 801
754 755
754 801
755 756
755 801
756 757
756 801
757 758
757 801
758 759
758 801
759 760
759 801
760 761
760 801
761 762
761 801
762 763
762 801
763 764
763 801
764 765
764 801
765 766
765 801
766 767
766 801
767 768
767 801
768 769
768 801
769 770
769 801
770 771
770 801
771 772
771 801
772 773
772 801
773 774
773 801
774 775
774 801
775 776
775 801
776 777
776 801
777 778
777 801
778 779
778 801
779 780
779 801
780 781
780 801
781 782
781 801
782 783
782 801
783 784
783 801
784 785
784 801
785 786
785 801
786 787
786 801
787 788
787 801
788 789
788 801
789 790
789 801
790 791
790 801
791 792
791 801
792 793
792 801
793 794
793 801
794 795
794 801
795 796
795 801
796 797
796 801
797 798
797 801
798 799
798 801
799 800
799 801
800 801
801 2756
802 2756
803 2756
804 2756
805 2756
806 2756
807 2756
808 2756
809 2756
810 2756
811 812
811 869
812 813
812 869
813 814
813 869
814 815
814 869
815 816
815 869
816 817
816 869
817 818
817 869
818 819
818 869
819 820
819 869
820 821
820 869
821 822
821 869
822 823
822 869
823 824
823 869
824 825
824 869
825 826
825 869
826 827
826 869
827 828
827 869
828 829
828 869
829 830
829 869
830 831
830 869
831 832
831 869
832 833
832 869
833 834
833 869
834 835
834 869
835 836
835 869
836 837
836 869
837 838
837 869
838 839
838 869
839 840
839 869
840 841
840 869
841 842
841 869
842 843
842 869
843 844
843 869
844 845
844 869
845 846
845 869
846 847
846 869
847 848
847 869
848 849
848 869
849 850
849 869
850 851
850 869
851 852
851 869
852 853
852 869
853 854
853 869
854 855
854 869
855 856
855 869
856 857
856 869
857 858
857 869
858 859
858 869
859 860
859 869
860 861
860 869
861 862
861 869
862 863
862 869
863 864
863 869
864 865
864 869
865 866
865 869
866 867
866 869
867 868
867 869
868 869
869 2756
870 2756
871 2756
872 873
872 923
873 874
873 923
874 875
874 923
875 876
875 923
876 877
876 923
877 878
877 923
878 879
878 923
879 880
879 923
880 881
880 923
881 882
881 923
882 883
882 923
883 884
883 923
884 885
884 923
885 886
885 923
886 887
886 923
887 888
887 923
888 889
888 923
889 890
889 923
890 891
890 923
891 892
891 923
892 893
892 923
893 894
893 923
894 895
894 923
895 896
895 923
896 897
896 923
897 898
897 923
898 899
898 923
899 900
899 923
900 901
900 923
901 902
901 923
902 903
902 923
903 904
903 923
904 905
904 923
905 906
905 923
906 907
906 923
907 908
907 923
908 909
908 923
909 910
909 923
910 911
910 923
911 912
911 923
912 913
912 923
913 914
913 923
914 915
914 923
915 916
915 923
916 917
916 923
917 918
917 923
918 919
918 923
919 920
919 923
920 921
920 923
921 922
921 923
922 923
923 2756
924 925
924 976
925 926
925 976
926 927
926 976
927 928
927 976
928 929
928 976
929 930
929 976
930 931
930 976
931 932
931 976
932 933
932 976
933 934
933 976
934 935
934 976
935 936
935 976
936 937
936 976
937 938
937 976
938 939
938 976
939 940
939 976
940 941
940 976
941 942
941 976
942 943
942 976
943 944
943 976
944 945
944 976
945 946
945 976
946 947
946 976
947 948
947 976
948 949
948 976
949 950
949 976
950 951
950 976
951 952
951 976
952 953
952 976
953 954
953 976
954 955
954 976
955 956
955 976
956 957
956 976
957 958
957 976
958 959
958 976
959 960
959 976
960 961
960 976
961 962
961 976
962 963
962 976
963 964
963 976
964 965
964 976
965 966
965 976
966 967
966 976
967 968
967 976
968 969
968 976
969 970
969 976
970 971
970 976
971 972
971 976
972 973
972 976
973 974
973 976
974 975
974 976
975 976
976 2756
977 978
977 1027
978 979
978 1027
979 980
979 1027
980 981
980 1027
981 982
981 1027
982 983
982 1027
983 984
983 1027
984 985
984 1027
985 986
985 1027
986 987
986 1027
987 988
987 1027
988 989
988 1027
989 990
989 1027
990 991
990 1027
991 992
991 1027
992 993
992 1027
993 994
993 1027
994 995
994 1027
995 996
995 1027
996 997
996 1027
997 998
997 1027
998 999
998 1027
999 1000
999 1027
1000 1001
1000 1027
1001 1002
1001 1027
1002 1003
1002 1027
1003 1004
1003 1027
1004 1005
1004 1027
1005 1006
1005 1027
1006 1007
1006 1027
1007 1008
1007 1027
1008 1009
1008 1027
1009 1010
1009 1027
1010 1011
1010 1027
1011 1012
1011 1027
1012 1013
1012 1027
1013 1014
1013 1027
1014 1015
1014 1027
1015 1016
1015 1027
1016 1017
1016 1027
1017 1018
1017 1027
1018 1019
1018 1027
1019 1020
1019 1027
1020 1021
1020 1027
1021 1022
1021 1027
1022 1023
1022 1027
1023 1024
1023 1027
1024 1025
1024 1027
1025 1026
1025 1027
1026 1027
1027 2756
1028 2756
1029 2756
1030 1031
1030 1075
1031 1032
1031 1075
1032 1033
1032 1075
1033 1034
1033 1075
1034 1035
1034 1075
1035 1036
1035 1075
1036 1037
1036 1075
1037 1038
1037 1075
1038 1039
1038 1075
1039 1040
1039 1075
1040 1041
1040 1075
1041 1042
1041 1075
1042 1043
1042 1075
1043 1044
1043 1075
1044 1045
1044 1075
1045 1046
1045 1075
1046 1047
1046 1075
1047 1048
1047 1075
1048 1049
1048 1075
1049 1050
1049 1075
1050 1051
1050 1075
1051 1052
1051 1075
1052 1053
1052 1075
1053 1054
1053 1075
1054 1055
1054 1075
1055 1056
1055 1075
1056 1057
1056 1075
1057 1058
1057 1075
1058 1059
1058 1075
1059 1060
1059 1075
1060 1061
1060 1075
1061 1062
1061 1075
1062 1063
1062 1075
1063 1064
1063 1075
1064 1065
1064 1075
1065 1066
1065 1075
1066 1067
1066 1075
1067 1068
1067 1075
1068 1069
1068 1075
1069 1070
1069 1075
1070 1071
1070 1075
1071 1072
1071 1075
1072 1073
1072 1075
1073 1074
1073 1075
1074 1075
1075 2756
1076 1077
1076 1126
1077 1078
1077 1126
1078 1079
1078 1126
1079 1080
1079 1126
1080 1081
1080 1126
1081 1082
1081 1126
1082 1083
1082 1126
1083 1084
1083 1126
1084 1085
1084 1126
1085 1086
1085 1126
1086 1087
1086 1126
1087 1088
1087 1126
1088 1089
1088 1126
1089 1090
1089 1126
1090 1091
1090 1126
1091 1092
1091 1126
1092 1093
1092 1126
1093 1094
1093 1126
1094 1095
1094 1126
1095 1096
1095 1126
1096 1097
1096 1126
1097 1098
1097 1126
1098 1099
1098 1126
1099 1100
1099 1126
1100 1101
1100 1126
1101 1102
1101 1126
1102 1103
1102 1126
1103 1104
1103 1126
1104 1105
1104 1126
1105 1106
1105 1126
1106 1107
1106 1126
1107 1108
1107 1126
1108 1109
1108 1126
1109 1110
1109 1126
1110 1111
1110 1126
1111 1112
1111 1126
1112 1113
1112 1126
1113 1114
1113 1126
1114 1115
1114 1126
1115 1116
1115 1126
1116 1117
1116 1126
1117 1118
1117 1126
1118 1119
1118 1126
1119 1120
1119 1126
1120 1121
1120 1126
1121 1122
1121 1126
1122 1123
1122 1126
1123 1124
1123 1126
1124 1125
1124 1126
1125 1126
1126 2756
1127 1128
1127 1178
1128 1129
1128 1178
1129 1130
1129 1178
1130 1131
1130 1178
1131 1132
1131 1178
1132 1133
1132 1178
1133 1134
1133 1178
1134 1135
1134 1178
1135 1136
1135 1178
1136 1137
1136 1178
1137 1138
1137 1178
1138 1139
1138 1178
1139 1140
1139 1178
1140 1141
1140 1178
1141 1142
1141 1178
1142 1143
1142 1178
1143 1144
1143 1178
1144 1145
1144 1178
1145 1146
1145 1178
1146 1147
1146 1178
1147 1148
1147 1178
1148 1149
1148 1178
1149 1150
1149 1178
1150 1151
1150 1178
1151 1152
1151 1178
1152 1153
1152 1178
1153 1154
1153 1178
1154 1155
1154 1178
1155 1156
1155 1178
1156 1157
1156 1178
1157 1158
1157 1178
1158 1159
1158 1178
1159 1160
1159 1178
1160 1161
1160 1178
1161 1162
1161 1178
1162 1163
1162 1178
1163 1164
1163 1178
1164 1165
1164 1178
1165 1166
1165 1178
1166 1167
1166 1178
1167 1168
1167 1178
1168 1169
1168 1178
1169 1170
1169 1178
1170 1171
1170 1178
1171 1172
1171 1178
1172 1173
1172 1178
1173 1174
1173 1178
1174 1175
1174 1178
1175 1176
1175 1178
1176 1177
1176 1178
1177 1178
1178 2756
1179 1180
1179 1230
1180 1181
1180 1230
1181 1182
1181 1230
1182 1183
1182 1230
1183 1184
1183 1230
1184 1185
1184 1230
1185 1186
1185 1230
1186 1187
1186 1230
1187 1188
1187 1230
1188 1189
1188 1230
1189 1190
1189 1230
1190 1191
1190 1230
1191 1192
1191 1230
1192 1193
1192 1230
1193 1194
1193 1230
1194 1195
1194 1230
1195 1196
1195 1230
1196 1197
1196 1230
1197 1198
1197 1230
1198 1199
1198 1230
1199 1200
1199 1230
1200 1201
1200 1230
1201 1202
1201 1230
1202 1203
1202 1230
1203 1204
1203 1230
1204 1205
1204 1230
1205 1206
1205 1230
1206 1207
1206 1230
1207 1208
1207 1230
1208 1209
1208 1230
1209 1210
1209 1230
1210 1211
1210 1230
1211 1212
1211 1230
1212 1213
1212 1230
1213 1214
1213 1230
1214 1215
1214 1230
1215 1216
1215 1230
1216 1217
1216 1230
1217 1218
1217 1230
1218 1219
1218 1230
1219 1220
1219 1230
1220 1221
1220 1230
1221 1222
1221 1230
1222 1223
1222 1230
1223 1224
1223 1230
1224 1225
1224 1230
1225 1226
1225 1230
1226 1227
1226 1230
1227 1228
1227 1230
1228 1229
1228 1230
1229 1230
1230 2756
1231 1232
1231 1285
1232 1233
1232 1285
1233 1234
1233 1285
1234 1235
1234 1285
1235 1236
1235 1285
1236 1237
1236 1285
1237 1238
1237 1285
1238 1239
1238 1285
1239 1240
1239 1285
1240 1241
1240 1285
1241 1242
1241 1285
1242 1243
1242 1285
1243 1244
1243 1285
1244 1245
1244 1285
1245 1246
1245 1285
1246 1247
1246 1285
1247 1248
1247 1285
1248 1249
1248 1285
1249 1250
1249 1285
1250 1251
1250 1285
1251 1252
1251 1285
1252 1253
1252 1285
1253 1254
1253 1285
1254 1255
1254 1285
1255 1256
1255 1285
1256 1257
1256 1285
1257 1258
1257 1285
1258 1259
1258 1285
1259 1260
1259 1285
1260 1261
1260 1285
1261 1262
1261 1285
1262 1263
1262 1285
1263 1264
1263 1285
1264 1265
1264 1285
1265 1266
1265 1285
1266 1267
1266 1285
1267 1268
1267 1285
1268 1269
1268 1285
1269 1270
1269 1285
1270 1271
1270 1285
1271 1272
1271 1285
1272 1273
1272 1285
1273 1274
1273 1285
1274 1275
1274 1285
1275 1276
1275 1285
1276 1277
1276 1285
1277 1285
1278 1279
1278 1285
1279 1280
1279 1285
1280 1281
1280 1285
1281 1282
1281 1285
1282 1283
1282 1285
1283 1284
1283 1285
1284 1285
1285 2756
1286 1287
1286 1336
1287 1288
1287 1336
1288 1289
1288 1336
1289 1290
1289 1336
1290 1291
1290 1336
1291 1292
1291 1336
1292 1293
1292 1336
1293 1294
1293 1336
1294 1295
1294 1336
1295 1296
1295 1336
1296 1297
1296 1336
1297 1298
1297 1336
1298 1299
1298 1336
1299 1300
1299 1336
1300 1301
1300 1336
1301 1302
1301 1336
1302 1303
1302 1336
1303 1304
1303 1336
1304 1305
1304 1336
1305 1306
1305 1336
1306 1307
1306 1336
1307 1308
1307 1336
1308 1309
1308 1336
1309 1310
1309 1336
1310 1311
1310 1336
1311 1312
1311 1336
1312 1313
1312 1336
1313 1314
1313 1336
1314 1315
1314 1336
1315 1316
1315 1336
1316 1317
1316 1336
1317 1318
1317 1336
1318 1319
1318 1336
1319 1320
1319 1336
1320 1321
1320 1336
1321 1322
1321 1336
1322 1323
1322 1336
1323 1324
1323 1336
1324 1325
1324 1336
1325 1326
1325 1336
1326 1327
1326 1336
1327 1328
1327 1336
1328 1329
1328 1336
1329 1330
1329 1336
1330 1331
1330 1336
1331 1332
1331 1336
1332 1333
1332 1336
1333 1334
1333 1336
1334 1335
1334 1336
1335 1336
1336 2756
1337 1338
1337 1390
1338 1339
1338 1390
1339 1340
1339 1390
1340 1341
1340 1390
1341 1342
1341 1390
1342 1343
1342 1390
1343 1344
1343 1390
1344 1345
1344 1390
1345 1346
1345 1390
1346 1347
1346 1390
1347 1348
1347 1390
1348 1349
1348 1390
1349 1350
1349 1390
1350 1351
1350 1390
1351 1352
1351 1390
1352 1353
1352 1390
1353 1354
1353 1390
1354 1355
1354 1390
1355 1356
1355 1390
1356 1357
1356 1390
1357 1358
1357 1390
1358 1359
1358 1390
1359 1360
1359 1390
1360 1361
1360 1390
1361 1362
1361 1390
1362 1363
1362 1390
1363 1364
1363 1390
1364 1365
1364 1390
1365 1366
1365 1390
1366 1367
1366 1390
1367 1368
1367 1390
1368 1369
1368 1390
1369 1370
1369 1390
1370 1371
1370 1390
1371 1372
1371 1390
1372 1373
1372 1390
1373 1374
1373 1390
1374 1375
1374 1390
1375 1376
1375 1390
1376 1377
1376 1390
1377 1378
1377 1390
1378 1379
1378 1390
1379 1380
1379 1390
1380 1381
1380 1390
1381 1382
1381 1390
1382 1383
1382 1390
1383 1384
1383 1390
1384 1385
1384 1390
1385 1386
1385 1390
1386 1387
1386 1390
1387 1388
1387 1390
1388 1389
1388 1390
1389 1390
1390 2756
1391 1392
1391 1442
1392 1393
1392 1442
1393 1394
1393 1442
1394 1395
1394 1442
1395 1396
1395 1442
1396 1397
1396 1442
1397 1398
1397 1442
1398 1399
1398 1442
1399 1400
1399 1442
1400 1401
1400 1442
1401 1402
1401 1442
1402 1403
1402 1442
1403 1404
1403 1442
1404 1405
1404 1442
1405 1406
1405 1442
1406 1407
1406 1442
1407 1408
1407 1442
1408 1409
1408 1442
1409 1410
1409 1442
1410 1411
1410 1442
1411 1412
1411 1442
1412 1413
1412 1442
1413 1414
1413 1442
1414 1415
1414 1442
1415 1416
1415 1442
1416 1417
1416 1442
1417 1418
1417 1442
1418 1419
1418 1442
1419 1420
1419 1442
1420 1421
1420 1442
1421 1422
1421 1442
1422 1423
1422 1442
1423 1424
1423 1442
1424 1425
1424 1442
1425 1426
1425 1442
1426 1427
1426 1442
1427 1428
1427 1442
1428 1429
1428 1442
1429 1430
1429 1442
1430 1431
1430 1442
1431 1432
1431 1442
1432 1433
1432 1442
1433 1434
1433 1442
1434 1435
1434 1442
1435 1436
1435 1442
1436 1437
1436 1442
1437 1438
1437 1442
1438 1439
1438 1442
1439 1440
1439 1442
1440 1441
1440 1442
1441 1442
1442 2756
1443 1444
1443 1513
1444 1445
1444 1513
1445 1446
1445 1513
1446 1447
1446 1513
1447 1448
1447 1513
1448 1449
1448 1513
1449 1450
1449 1513
1450 1451
1450 1513
1451 1452
1451 1513
1452 1453
1452 1513
1453 1454
1453 1513
1454 1455
1454 1513
1455 1456
1455 1513
1456 1457
1456 1513
1457 1458
1457 1513
1458 1459
1458 1513
1459 1460
1459 1513
1460 1461
1460 1513
1461 1462
1461 1513
1462 1463
1462 1513
1463 1464
1463 1513
1464 1465
1464 1513
1465 1466
1465 1513
1466 1467
1466 1513
1467 1468
1467 1513
1468 1469
1468 1513
1469 1470
1469 1513
1470 1471
1470 1513
1471 1472
1471 1513
1472 1473
1472 1513
1473 1474
1473 1513
1474 1475
1474 1513
1475 1476
1475 1513
1476 1477
1476 1513
1477 1478
1477 1513
1478 1479
1478 1513
1479 1480
1479 1513
1480 1481
1480 1513
1481 1482
1481 1513
1482 1483
1482 1513
1483 1484
1483 1513
1484 1485
1484 1513
1485 1486
1485 1513
1486 1487
1486 1513
1487 1488
1487 1513
1488 1489
1488 1513
1489 1490
1489 1513
1490 1491
1490 1513
1491 1492
1491 1513
1492 1493
1492 1513
1493 1494
1493 1513
1494 1495
1494 1513
1495 1496
1495 1513
1496 1497
1496 1513
1497 1498
1497 1513
1498 1499
1498 1513
1499 1500
1499 1513
1500 1501
1500 1513
1501 1502
1501 1513
1502 1503
1502 1513
1503 1504
1503 1513
1504 1505
1504 1513
1505 1506
1505 1513
1506 1507
1506 1513
1507 1508
1507 1513
1508 1509
1508 1513
1509 1510
1509 1513
1510 1511
1510 1513
1511 1512
1511 1513
1512 1513
1513 2756
1514 1515
1514 1569
1515 1516
1515 1569
1516 1517
1516 1569
1517 1518
1517 1569
1518 1519
1518 1569
1519 1520
1519 1569
1520 1521
1520 1569
1521 1522
1521 1569
1522 1523
1522 1569
1523 1524
1523 1569
1524 1525
1524 1569
1525 1526
1525 1569
1526 1527
1526 1569
1527 1528
1527 1569
1528 1529
1528 1569
1529 1530
1529 1569
1530 1531
1530 1569
1531 1532
1531 1569
1532 1533
1532 1569
1533 1534
1533 1569
1534 1535
1534 1569
1535 1536
1535 1569
1536 1537
1536 1569
1537 1538
1537 1569
1538 1539
1538 1569
1539 1540
1539 1569
1540 1541
1540 1569
1541 1542
1541 1569
1542 1543
1542 1569
1543 1544
1543 1569
1544 1545
1544 1569
1545 1546
1545 1569
1546 1547
1546 1569
1547 1548
1547 1569
1548 1549
1548 1569
1549 1550
1549 1569
1550 1551
1550 1569
1551 1552
1551 1569
1552 1553
1552 1569
1553 1554
1553 1569
1554 1555
1554 1569
1555 1556
1555 1569
1556 1557
1556 1569
1557 1558
1557 1569
1558 1559
1558 1569
1559 1560
1559 1569
1560 1561
1560 1569
1561 1562
1561 1569
1562 1563
1562 1569
1563 1564
1563 1569
1564 1565
1564 1569
1565 1566
1565 1569
1566 1567
1566 1569
1567 1568
1567 1569
1568 1569
1569 2756
1570 1571
1570 1620
1571 1572
1571 1620
1572 1573
1572 1620
1573 1574
1573 1620
1574 1575
1574 1620
1575 1576
1575 1620
1576 1577
1576 1620
1577 1578
1577 1620
1578 1579
1578 1620
1579 1580
1579 1620
1580 1581
1580 1620
1581 1582
1581 1620
1582 1583
1582 1620
1583 1584
1583 1620
1584 1585
1584 1620
1585 1586
1585 1620
1586 1587
1586 1620
1587 1588
1587 1620
1588 1589
1588 1620
1589 1590
1589 1620
1590 1591
1590 1620
1591 1592
1591 1620
1592 1593
1592 1620
1593 1594
1593 1620
1594 1595
1594 1620
1595 1596
1595 1620
1596 1597
1596 1620
1597 1598
1597 1620
1598 1599
1598 1620
1599 1600
1599 1620
1600 1601
1600 1620
1601 1602
1601 1620
1602 1603
1602 1620
1603 1604
1603 1620
1604 1605
1604 1620
1605 1606
1605 1620
1606 1607
1606 1620
1607 1608
1607 1620
1608 1609
1608 1620
1609 1610
1609 1620
1610 1611
1610 1620
1611 1612
1611 1620
1612 1613
1612 1620
1613 1614
1613 1620
1614 1615
1614 1620
1615 1616
1615 1620
1616 1617
1616 1620
1617 1618
1617 1620
1618 1619
1618 1620
1619 1620
1620 2756
1621 1622
1621 1671
1622 1623
1622 1671
1623 1624
1623 1671
1624 1625
1624 1671
1625 1626
1625 1671
1626 1627
1626 1671
1627 1628
1627 1671
1628 1629
1628 1671
1629 1630
1629 1671
1630 1631
1630 1671
1631 1632
1631 1671
1632 1633
1632 1671
1633 1634
1633 1671
1634 1635
1634 1671
1635 1636
1635 1671
1636 1637
1636 1671
1637 1638
1637 1671
1638 1639
1638 1671
1639 1640
1639 1671
1640 1641
1640 1671
1641 1642
1641 1671
1642 1643
1642 1671
1643 1644
1643 1671
1644 1645
1644 1671
1645 1646
1645 1671
1646 1647
1646 1671
1647 1648
1647 1671
1648 1649
1648 1671
1649 1650
1649 1671
1650 1651
1650 1671
1651 1652
1651 1671
1652 1653
1652 1671
1653 1654
1653 1671
1654 1655
1654 1671
1655 1656
1655 1671
1656 1657
1656 1671
1657 1658
1657 1671
1658 1659
1658 1671
1659 1660
1659 1671
1660 1661
1660 1671
1661 1662
1661 1671
1662 1663
1662 1671
1663 1664
1663 1671
1664 1665
1664 1671
1665 1666
1665 1671
1666 1667
1666 1671
1667 1668
1667 1671
1668 1669
1668 1671
1669 1670
1669 1671
1670 1671
1671 2756
1672 1673
1672 1723
1673 1674
1673 1723
1674 1675
1674 1723
1675 1676
1675 1723
1676 1677
1676 1723
1677 1678
1677 1723
1678 1679
1678 1723
1679 1680
1679 1723
1680 1681
1680 1723
1681 1682
1681 1723
1682 1683
1682 1723
1683 1684
1683 1723
1684 1685
1684 1723
1685 1686
1685 1723
1686 1687
1686 1723
1687 1688
1687 1723
1688 1689
1688 1723
1689 1690
1689 1723
1690 1691
1690 1723
1691 1692
1691 1723
1692 1693
1692 1723
1693 1694
1693 1723
1694 1695
1694 1723
1695 1696
1695 1723
1696 1697
1696 1723
1697 1698
1697 1723
1698 1699
1698 1723
1699 1700
1699 1723
1700 1701
1700 1723
1701 1702
1701 1723
1702 1703
1702 1723
1703 1704
1703 1723
1704 1705
1704 1723
1705 1706
1705 1723
1706 1707
1706 1723
1707 1708
1707 1723
1708 1709
1708 1723
1709 1710
1709 1723
1710 1711
1710 1723
1711 1712
1711 1723
1712 1713
1712 1723
1713 1714
1713 1723
1714 1715
1714 1723
1715 1716
1715 1723
1716 1717
1716 1723
1717 1718
1717 1723
1718 1719
1718 1723
1719 1720
1719 1723
1720 1721
1720 1723
1721 1722
1721 1723
1722 1723
1723 2756
1724 1725
1724 1787
1725 1726
1725 1787
1726 1727
1726 1787
1727 1728
1727 1787
1728 1729
1728 1787
1729 1730
1729 1787
1730 1731
1730 1787
1731 1732
1731 1787
1732 1733
1732 1787
1733 1734
1733 1787
1734 1735
1734 1787
1735 1736
1735 1787
1736 1737
1736 1787
1737 1738
1737 1787
1738 1739
1738 1787
1739 1740
1739 1787
1740 1741
1740 1787
1741 1742
1741 1787
1742 1743
1742 1787
1743 1744
1743 1787
1744 1745
1744 1787
1745 1746
1745 1787
1746 1747
1746 1787
1747 1748
1747 1787
1748 1749
1748 1787
1749 1750
1749 1787
1750 1751
1750 1787
1751 1752
1751 1787
1752 1753
1752 1787
1753 1754
1753 1787
1754 1755
1754 1787
1755 1756
1755 1787
1756 1757
1756 1787
1757 1758
1757 1787
1758 1759
1758 1787
1759 1760
1759 1787
1760 1761
1760 1787
1761 1762
1761 1787
1762 1763
1762 1787
1763 1764
1763 1787
1764 1765
1764 1787
1765 1766
1765 1787
1766 1767
1766 1787
1767 1768
1767 1787
1768 1769
1768 1787
1769 1770
1769 1787
1770 1771
1770 1787
1771 1772
1771 1787
1772 1773
1772 1787
1773 1774
1773 1787
1774 1775
1774 1787
1775 1776
1775 1787
1776 1777
1776 1787
1777 1778
1777 1787
1778 1779
1778 1787
1779 1780
1779 1787
1780 1781
1780 1787
1781 1782
1781 1787
1782 1783
1782 1787
1783 1784
1783 1787
1784 1785
1784 1787
1785 1786
1785 1787
1786 1787
1787 2756
1788 1789
1788 1844
1789 1790
1789 1844
1790 1791
1790 1844
1791 1792
1791 1844
1792 1793
1792 1844
1793 1794
1793 1844
1794 1795
1794 1844
1795 1796
1795 1844
1796 1797
1796 1844
1797 1798
1797 1844
1798 1799
1798 1844
1799 1800
1799 1844
1800 1801
1800 1844
1801 1802
1801 1844
1802 1803
1802 1844
1803 1804
1803 1844
1804 1805
1804 1844
1805 1806
1805 1844
1806 1807
1806 1844
1807 1808
1807 1844
1808 1809
1808 1844
1809 1810
1809 1844
1810 1811
1810 1844
1811 1812
1811 1844
1812 1813
1812 1844
1813 1814
1813 1844
1814 1815
1814 1844
1815 1816
1815 1844
1816 1817
1816 1844
1817 1818
1817 1844
1818 1819
1818 1844
1819 1820
1819 1844
1820 1821
1820 1844
1821 1822
1821 1844
1822 1823
1822 1844
1823 1824
1823 1844
1824 1825
1824 1844
1825 1826
1825 1844
1826 1827
1826 1844
1827 1828
1827 1844
1828 1829
1828 1844
1829 1830
1829 1844
1830 1831
1830 1844
1831 1832
1831 1844
1832 1833
1832 1844
1833 1834
1833 1844
1834 1835
1834 1844
1835 1836
1835 1844
1836 1837
1836 1844
1837 1838
1837 1844
1838 1839
1838 1844
1839 1840
1839 1844
1840 1841
1840 1844
1841 1842
1841 1844
1842 1843
1842 1844
1843 1844
1844 2756
1845 1846
1845 1895
1846 1847
1846 1895
1847 1848
1847 1895
1848 1849
1848 1895
1849 1850
1849 1895
1850 1851
1850 1895
1851 1852
1851 1895
1852 1853
1852 1895
1853 1854
1853 1895
1854 1855
1854 1895
1855 1856
1855 1895
1856 1857
1856 1895
1857 1858
1857 1895
1858 1859
1858 1895
1859 1860
1859 1895
1860 1861
1860 1895
1861 1862
1861 1895
1862 1863
1862 1895
1863 1864
1863 1895
1864 1865
1864 1895
1865 1866
1865 1895
1866 1867
1866 1895
1867 1868
1867 1895
1868 1869
1868 1895
1869 1870
1869 1895
1870 1871
1870 1895
1871 1872
1871 1895
1872 1873
1872 1895
1873 1874
1873 1895
1874 1875
1874 1895
1875 1876
1875 1895
1876 1877
1876 1895
1877 1878
1877 1895
1878 1879
1878 1895
1879 1880
1879 1895
1880 1881
1880 1895
1881 1882
1881 1895
1882 1883
1882 1895
1883 1884
1883 1895
1884 1885
1884 1895
1885 1886
1885 1895
1886 1887
1886 1895
1887 1888
1887 1895
1888 1889
1888 1895
1889 1890
1889 1895
1890 1891
1890 1895
1891 1892
1891 1895
1892 1893
1892 1895
1893 1894
1893 1895
1894 1895
1895 2756
1896 1897
1896 1946
1897 1898
1897 1946
1898 1899
1898 1946
1899 1900
1899 1946
1900 1901
1900 1946
1901 1902
1901 1946
1902 1903
1902 1946
1903 1904
1903 1946
1904 1905
1904 1946
1905 1906
1905 1946
1906 1907
1906 1946
1907 1908
1907 1946
1908 1909
1908 1946
1909 1910
1909 1946
1910 1911
1910 1946
1911 1912
1911 1946
1912 1913
1912 1946
1913 1914
1913 1946
1914 1915
1914 1946
1915 1916
1915 1946
1916 1917
1916 1946
1917 1918
1917 1946
1918 1919
1918 1946
1919 1920
1919 1946
1920 1921
1920 1946
1921 1922
1921 1946
1922 1923
1922 1946
1923 1924
1923 1946
1924 1925
1924 1946
1925 1926
1925 1946
1926 1927
1926 1946
1927 1928
1927 1946
1928 1929
1928 1946
1929 1930
1929 1946
1930 1931
1930 1946
1931 1932
1931 1946
1932 1933
1932 1946
1933 1934
1933 1946
1934 1935
1934 1946
1935 1936
1935 1946
1936 1937
1936 1946
1937 1938
1937 1946
1938 1939
1938 1946
1939 1940
1939 1946
1940 1941
1940 1946
1941 1942
1941 1946
1942 1943
1942 1946
1943 1944
1943 1946
1944 1945
1944 1946
1945 1946
1946 2756
1947 1948
1947 1997
1948 1949
1948 1997
1949 1950
1949 1997
1950 1951
1950 1997
1951 1952
1951 1997
1952 1953
1952 1997
1953 1954
1953 1997
1954 1955
1954 1997
1955 1956
1955 1997
1956 1957
1956 1997
1957 1958
1957 1997
1958 1959
1958 1997
1959 1960
1959 1997
1960 1961
1960 1997
1961 1962
1961 1997
1962 1963
1962 1997
1963 1964
1963 1997
1964 1965
1964 1997
1965 1966
1965 1997
1966 1967
1966 1997
1967 1968
1967 1997
1968 1969
1968 1997
1969 1970
1969 1997
1970 1971
1970 1997
1971 1972
1971 1997
1972 1973
1972 1997
1973 1974
1973 1997
1974 1975
1974 1997
1975 1976
1975 1997
1976 1977
1976 1997
1977 1978
1977 1997
1978 1979
1978 1997
1979 1980
1979 1997
1980 1981
1980 1997
1981 1982
1981 1997
1982 1983
1982 1997
1983 1984
1983 1997
1984 1985
1984 1997
1985 1986
1985 1997
1986 1987
1986 1997
1987 1988
1987 1997
1988 1989
1988 1997
1989 1990
1989 1997
1990 1991
1990 1997
1991 1992
1991 1997
1992 1993
1992 1997
1993 1994
1993 1997
1994 1995
1994 1997
1995 1996
1995 1997
1996 1997
1997 2756
1998 1999
1998 2049
1999 2000
1999 2049
2000 2001
2000 2049
2001 2002
2001 2049
2002 2003
2002 2049
2003 2004
2003 2049
2004 2005
2004 2049
2005 2006
2005 2049
2006 2007
2006 2049
2007 2008
2007 2049
2008 2009
2008 2049
2009 2010
2009 2049
2010 2011
2010 2049
2011 2012
2011 2049
2012 2013
2012 2049
2013 2014
2013 2049
2014 2015
2014 2049
2015 2016
2015 2049
2016 2017
2016 2049
2017 2018
2017 2049
2018 2019
2018 2049
2019 2020
2019 2049
2020 2021
2020 2049
2021 2022
2021 2049
2022 2023
2022 2049
2023 2024
2023 2049
2024 2025
2024 2049
2025 2026
2025 2049
2026 2027
2026 2049
2027 2028
2027 2049
2028 2029
2028 2049
2029 2030
2029 2049
2030 2031
2030 2049
2031 2032
2031 2049
2032 2033
2032 2049
2033 2034
2033 2049
2034 2035
2034 2049
2035 2036
2035 2049
2036 2037
2036 2049
2037 2038
2037 2049
2038 2039
2038 2049
2039 2040
2039 2049
2040 2041
2040 2049
2041 2042
2041 2049
2042 2043
2042 2049
2043 2044
2043 2049
2044 2045
2044 2049
2045 2046
2045 2049
2046 2047
2046 2049
2047 2048
2047 2049
2048 2049
2049 2756
2050 2051
2050 2100
2051 2052
2051 2100
2052 2053
2052 2100
2053 2054
2053 2100
2054 2055
2054 2100
2055 2056
2055 2100
2056 2057
2056 2100
2057 2058
2057 2100
2058 2059
2058 2100
2059 2060
2059 2100
2060 2061
2060 2100
2061 2062
2061 2100
2062 2063
2062 2100
2063 2064
2063 2100
2064 2065
2064 2100
2065 2066
2065 2100
2066 2067
2066 2100
2067 2068
2067 2100
2068 2069
2068 2100
2069 2070
2069 2100
2070 2071
2070 2100
2071 2072
2071 2100
2072 2073
2072 2100
2073 2074
2073 2100
2074 2075
2074 2100
2075 2076
2075 2100
2076 2077
2076 2100
2077 2078
2077 2100
2078 2079
2078 2100
2079 2080
2079 2100
2080 2081
2080 2100
2081 2082
2081 2100
2082 2083
2082 2100
2083 2084
2083 2100
2084 2085
2084 2100
2085 2086
2085 2100
2086 2087
2086 2100
2087 2088
2087 2100
2088 2089
2088 2100
2089 2090
2089 2100
2090 2091
2090 2100
2091 2092
2091 2100
2092 2093
2092 2100
2093 2094
2093 2100
2094 2095
2094 2100
2095 2096
2095 2100
2096 2097
2096 2100
2097 2098
2097 2100
2098 2099
2098 2100
2099 2100
2100 2756
2101 2102
2101 2151
2102 2103
2102 2151
2103 2104
2103 2151
2104 2105
2104 2151
2105 2106
2105 2151
2106 2107
2106 2151
2107 2108
2107 2151
2108 2109
2108 2151
2109 2110
2109 2151
2110 2111
2110 2151
2111 2112
2111 2151
2112 2113
2112 2151
2113 2114
2113 2151
2114 2115
2114 2151
2115 2116
2115 2151
2116 2117
2116 2151
2117 2118
2117 2151
2118 2119
2118 2151
2119 2120
2119 2151
2120 2121
2120 2151
2121 2122
2121 2151
2122 2123
2122 2151
2123 2124
2123 2151
2124 2125
2124 2151
2125 2126
2125 2151
2126 2127
2126 2151
2127 2128
2127 2151
2128 2129
2128 2151
2129 2130
2129 2151
2130 2131
2130 2151
2131 2132
2131 2151
2132 2133
2132 2151
2133 2134
2133 2151
2134 2135
2134 2151
2135 2136
2135 2151
2136 2137
2136 2151
2137 2138
2137 2151
2138 2139
2138 2151
2139 2140
2139 2151
2140 2141
2140 2151
2141 2142
2141 2151
2142 2143
2142 2151
2143 2144
2143 2151
2144 2145
2144 2151
2145 2146
2145 2151
2146 2147
2146 2151
2147 2148
2147 2151
2148 2149
2148 2151
2149 2150
2149 2151
2150 2151
2151 2756
2152 2153
2152 2202
2153 2154
2153 2202
2154 2155
2154 2202
2155 2156
2155 2202
2156 2157
2156 2202
2157 2158
2157 2202
2158 2159
2158 2202
2159 2160
2159 2202
2160 2161
2160 2202
2161 2162
2161 2202
2162 2163
2162 2202
2163 2164
2163 2202
2164 2165
2164 2202
2165 2166
2165 2202
2166 2167
2166 2202
2167 2168
2167 2202
2168 2169
2168 2202
2169 2170
2169 2202
2170 2171
2170 2202
2171 2172
2171 2202
2172 2173
2172 2202
2173 2174
2173 2202
2174 2175
2174 2202
2175 2176
2175 2202
2176 2177
2176 2202
2177 2178
2177 2202
2178 2179
2178 2202
2179 2180
2179 2202
2180 2181
2180 2202
2181 2182
2181 2202
2182 2183
2182 2202
2183 2184
2183 2202
2184 2185
2184 2202
2185 2186
2185 2202
2186 2187
2186 2202
2187 2188
2187 2202
2188 2189
2188 2202
2189 2190
2189 2202
2190 2191
2190 2202
2191 2192
2191 2202
2192 2193
2192 2202
2193 2194
2193 2202
2194 2195
2194 2202
2195 2196
2195 2202
2196 2197
2196 2202
2197 2198
2197 2202
2198 2199
2198 2202
2199 2200
2199 2202
2200 2201
2200 2202
2201 2202
2202 2756
2203 2204
2203 2253
2204 2205
2204 2253
2205 2206
2205 2253
2206 2207
2206 2253
2207 2208
2207 2253
2208 2209
2208 2253
2209 2210
2209 2253
2210 2211
2210 2253
2211 2212
2211 2253
2212 2213
2212 2253
2213 2214
2213 2253
2214 2215
2214 2253
2215 2216
2215 2253
2216 2217
2216 2253
2217 2218
2217 2253
2218 2219
2218 2253
2219 2220
2219 2253
2220 2221
2220 2253
2221 2222
2221 2253
2222 2223
2222 2253
2223 2224
2223 2253
2224 2225
2224 2253
2225 2226
2225 2253
2226 2227
2226 2253
2227 2228
2227 2253
2228 2229
2228 2253
2229 2230
2229 2253
2230 2231
2230 2253
2231 2232
2231 2253
2232 2233
2232 2253
2233 2234
2233 2253
2234 2235
2234 2253
2235 2236
2235 2253
2236 2237
2236 2253
2237 2238
2237 2253
2238 2239
2238 2253
2239 2240
2239 2253
2240 2241
2240 2253
2241 2242
2241 2253
2242 2243
2242 2253
2243 2244
2243 2253
2244 2245
2244 2253
2245 2246
2245 2253
2246 2247
2246 2253
2247 2248
2247 2253
2248 2249
2248 2253
2249 2250
2249 2253
2250 2251
2250 2253
2251 2252
2251 2253
2252 2253
2253 2756
2254 2255
2254 2310
2255 2256
2255 2310
2256 2257
2256 2310
2257 2258
2257 2310
2258 2259
2258 2310
2259 2260
2259 2310
2260 2261
2260 2310
2261 2262
2261 2310
2262 2263
2262 2310
2263 2264
2263 2310
2264 2265
2264 2310
2265 2266
2265 2310
2266 2267
2266 2310
2267 2268
2267 2310
2268 2269
2268 2310
2269 2270
2269 2310
2270 2271
2270 2310
2271 2272
2271 2310
2272 2273
2272 2310
2273 2274
2273 2310
2274 2275
2274 2310
2275 2276
2275 2310
2276 2277
2276 2310
2277 2278
2277 2310
2278 2279
2278 2310
2279 2280
2279 2310
2280 2281
2280 2310
2281 2282
2281 2310
2282 2283
2282 2310
2283 2284
2283 2310
2284 2285
2284 2310
2285 2286
2285 2310
2286 2287
2286 2310
2287 2288
2287 2310
2288 2289
2288 2310
2289 2290
2289 2310
2290 2291
2290 2310
2291 2292
2291 2310
2292 2293
2292 2310
2293 2294
2293 2310
2294 2295
2294 2310
2295 2296
2295 2310
2296 2297
2296 2310
2297 2298
2297 2310
2298 2299
2298 2310
2299 2300
2299 2310
2300 2301
2300 2310
2301 2302
2301 2310
2302 2303
2302 2310
2303 2304
2303 2310
2304 2305
2304 2310
2305 2306
2305 2310
2306 2307
2306 2310
2307 2308
2307 2310
2308 2309
2308 2310
2309 2310
2310 2756
2311 2312
2311 2361
2312 2313
2312 2361
2313 2314
2313 2361
2314 2315
2314 2361
2315 2316
2315 2361
2316 2317
2316 2361
2317 2318
2317 2361
2318 2319
2318 2361
2319 2320
2319 2361
2320 2321
2320 2361
2321 2322
2321 2361
2322 2323
2322 2361
2323 2324
2323 2361
2324 2325
2324 2361
2325 2326
2325 2361
2326 2327
2326 2361
2327 2328
2327 2361
2328 2329
2328 2361
2329 2330
2329 2361
2330 2331
2330 2361
2331 2332
2331 2361
2332 2333
2332 2361
2333 2334
2333 2361
2334 2335
2334 2361
2335 2336
2335 2361
2336 2337
2336 2361
2337 2338
2337 2361
2338 2339
2338 2361
2339 2340
2339 2361
2340 2341
2340 2361
2341 2342
2341 2361
2342 2343
2342 2361
2343 2344
2343 2361
2344 2345
2344 2361
2345 2346
2345 2361
2346 2347
2346 2361
2347 2348
2347 2361
2348 2349
2348 2361
2349 2350
2349 2361
2350 2351
2350 2361
2351 2352
2351 2361
2352 2353
2352 2361
2353 2354
2353 2361
2354 2355
2354 2361
2355 2356
2355 2361
2356 2357
2356 2361
2357 2358
2357 2361
2358 2359
2358 2361
2359 2360
2359 2361
2360 2361
2361 2756
2362 2363
2362 2413
2363 2364
2363 2413
2364 2365
2364 2413
2365 2366
2365 2413
2366 2367
2366 2413
2367 2368
2367 2413
2368 2369
2368 2413
2369 2370
2369 2413
2370 2371
2370 2413
2371 2372
2371 2413
2372 2373
2372 2413
2373 2374
2373 2413
2374 2375
2374 2413
2375 2376
2375 2413
2376 2377
2376 2413
2377 2378
2377 2413
2378 2379
2378 2413
2379 2380
2379 2413
2380 2381
2380 2413
2381 2382
2381 2413
2382 2383
2382 2413
2383 2384
2383 2413
2384 2385
2384 2413
2385 2386
2385 2413
2386 2387
2386 2413
2387 2388
2387 2413
2388 2389
2388 2413
2389 2390
2389 2413
2390 2391
2390 2413
2391 2392
2391 2413
2392 2393
2392 2413
2393 2394
2393 2413
2394 2395
2394 2413
2395 2396
2395 2413
2396 2397
2396 2413
2397 2398
2397 2413
2398 2399
2398 2413
2399 2400
2399 2413
2400 2401
2400 2413
2401 2402
2401 2413
2402 2403
2402 2413
2403 2404
2403 2413
2404 2405
2404 2413
2405 2406
2405 2413
2406 2407
2406 2413
2407 2408
2407 2413
2408 2409
2408 2413
2409 2410
2409 2413
2410 2411
2410 2413
2411 2412
2411 2413
2412 2413
2413 2756
2414 2415
2414 2463
2415 2416
2415 2463
2416 2417
2416 2463
2417 2418
2417 2463
2418 2419
2418 2463
2419 2420
2419 2463
2420 2421
2420 2463
2421 2422
2421 2463
2422 2423
2422 2463
2423 2424
2423 2463
2424 2425
2424 2463
2425 2426
2425 2463
2426 2427
2426 2463
2427 2428
2427 2463
2428 2429
2428 2463
2429 2430
2429 2463
2430 2431
2430 2463
2431 2432
2431 2463
2432 2433
2432 2463
2433 2434
2433 2463
2434 2435
2434 2463
2435 2436
2435 2463
2436 2437
2436 2463
2437 2438
2437 2463
2438 2439
2438 2463
2439 2440
2439 2463
2440 2441
2440 2463
2441 2442
2441 2463
2442 2443
2442 2463
2443 2444
2443 2463
2444 2445
2444 2463
2445 2446
2445 2463
2446 2447
2446 2463
2447 2448
2447 2463
2448 2449
2448 2463
2449 2450
2449 2463
2450 2451
2450 2463
2451 2452
2451 2463
2452 2453
2452 2463
2453 2454
2453 2463
2454 2455
2454 2463
2455 2456
2455 2463
2456 2457
2456 2463
2457 2458
2457 2463
2458 2459
2458 2463
2459 2460
2459 2463
2460 2461
2460 2463
2461 2463
2462 2463
2463 2756
2464 2465
2464 2514
2465 2466
2465 2514
2466 2467
2466 2514
2467 2468
2467 2514
2468 2469
2468 2514
2469 2470
2469 2514
2470 2471
2470 2514
2471 2472
2471 2514
2472 2473
2472 2514
2473 2474
2473 2514
2474 2475
2474 2514
2475 2476
2475 2514
2476 2477
2476 2514
2477 2478
2477 2514
2478 2479
2478 2514
2479 2480
2479 2514
2480 2481
2480 2514
2481 2482
2481 2514
2482 2483
2482 2514
2483 2484
2483 2514
2484 2485
2484 2514
2485 2486
2485 2514
2486 2487
2486 2514
2487 2488
2487 2514
2488 2489
2488 2514
2489 2490
2489 2514
2490 2491
2490 2514
2491 2492
2491 2514
2492 2493
2492 2514
2493 2494
2493 2514
2494 2495
2494 2514
2495 2496
2495 2514
2496 2497
2496 2514
2497 2498
2497 2514
2498 2499
2498 2514
2499 2500
2499 2514
2500 2501
2500 2514
2501 2502
2501 2514
2502 2503
2502 2514
2503 2504
2503 2514
2504 2505
2504 2514
2505 2506
2505 2514
2506 2507
2506 2514
2507 2508
2507 2514
2508 2509
2508 2514
2509 2510
2509 2514
2510 2511
2510 2514
2511 2512
2511 2514
2512 2513
2512 2514
2513 2514
2514 2756
2515 2516
2515 2565
2516 2517
2516 2565
2517 2518
2517 2565
2518 2519
2518 2565
2519 2520
2519 2565
2520 2521
2520 2565
2521 2522
2521 2565
2522 2523
2522 2565
2523 2524
2523 2565
2524 2525
2524 2565
2525 2526
2525 2565
2526 2527
2526 2565
2527 2528
2527 2565
2528 2529
2528 2565
2529 2530
2529 2565
2530 2531
2530 2565
2531 2532
2531 2565
2532 2533
2532 2565
2533 2534
2533 2565
2534 2535
2534 2565
2535 2536
2535 2565
2536 2537
2536 2565
2537 2538
2537 2565
2538 2539
2538 2565
2539 2540
2539 2565
2540 2541
2540 2565
2541 2542
2541 2565
2542 2543
2542 2565
2543 2544
2543 2565
2544 2545
2544 2565
2545 2546
2545 2565
2546 2547
2546 2565
2547 2548
2547 2565
2548 2549
2548 2565
2549 2550
2549 2565
2550 2551
2550 2565
2551 2552
2551 2565
2552 2553
2552 2565
2553 2554
2553 2565
2554 2555
2554 2565
2555 2556
2555 2565
2556 2557
2556 2565
2557 2558
2557 2565
2558 2559
2558 2565
2559 2560
2559 2565
2560 2561
2560 2565
2561 2562
2561 2565
2562 2563
2562 2565
2563 2564
2563 2565
2564 2565
2565 2756
2566 2567
2566 2616
2567 2568
2567 2616
2568 2569
2568 2616
2569 2570
2569 2616
2570 2571
2570 2616
2571 2572
2571 2616
2572 2573
2572 2616
2573 2574
2573 2616
2574 2575
2574 2616
2575 2576
2575 2616
2576 2577
2576 2616
2577 2578
2577 2616
2578 2579
2578 2616
2579 2580
2579 2616
2580 2581
2580 2616
2581 2582
2581 2616
2582 2583
2582 2616
2583 2584
2583 2616
2584 2585
2584 2616
2585 2586
2585 2616
2586 2587
2586 2616
2587 2588
2587 2616
2588 2589
2588 2616
2589 2590
2589 2616
2590 2591
2590 2616
2591 2592
2591 2616
2592 2593
2592 2616
2593 2594
2593 2616
2594 2595
2594 2616
2595 2596
2595 2616
2596 2597
2596 2616
2597 2598
2597 2616
2598 2599
2598 2616
2599 2600
2599 2616
2600 2601
2600 2616
2601 2602
2601 2616
2602 2603
2602 2616
2603 2604
2603 2616
2604 2605
2604 2616
2605 2606
2605 2616
2606 2607
2606 2616
2607 2608
2607 2616
2608 2609
2608 2616
2609 2610
2609 2616
2610 2611
2610 2616
2611 2612
2611 2616
2612 2613
2612 2616
2613 2614
2613 2616
2614 2615
2614 2616
2615 2616
2616 2756
2617 2618
2617 2669
2618 2619
2618 2669
2619 2620
2619 2669
2620 2621
2620 2669
2621 2622
2621 2669
2622 2623
2622 2669
2623 2624
2623 2669
2624 2625
2624 2669
2625 2626
2625 2669
2626 2627
2626 2669
2627 2628
2627 2669
2628 2629
2628 2669
2629 2630
2629 2669
2630 2631
2630 2669
2631 2632
2631 2669
2632 2633
2632 2669
2633 2634
2633 2669
2634 2635
2634 2669
2635 2636
2635 2669
2636 2637
2636 2669
2637 2638
2637 2669
2638 2639
2638 2669
2639 2640
2639 2669
2640 2641
2640 2669
2641 2642
2641 2669
2642 2643
2642 2669
2643 2644
2643 2669
2644 2645
2644 2669
2645 2646
2645 2669
2646 2647
2646 2669
2647 2648
2647 2669
2648 2649
2648 2669
2649 2650
2649 2669
2650 2651
2650 2669
2651 2652
2651 2669
2652 2653
2652 2669
2653 2654
2653 2669
2654 2655
2654 2669
2655 2656
2655 2669
2656 2657
2656 2669
2657 2658
2657 2669
2658 2659
2658 2669
2659 2660
2659 2669
2660 2661
2660 2669
2661 2662
2661 2669
2662 2663
2662 2669
2663 2664
2663 2669
2664 2665
2664 2669
2665 2666
2665 2669
2666 2667
2666 2669
2667 2668
2667 2669
2668 2669
2669 2756
2670 2673
2671 2672
2671 2673
2671 2756
2673 2674
2673 2675
2673 2676
2673 2677
2673 2756
2678 2679
2678 2702
2679 2680
2679 2702
2680 2681
2680 2702
2681 2682
2681 2702
2682 2683
2682 2702
2683 2702
2684 2685
2684 2702
2685 2686
2685 2702
2686 2687
2686 2702
2687 2688
2687 2702
2688 2689
2688 2702
2689 2690
2689 2702
2690 2702
2691 2692
2691 2702
2693 2694
2693 2702
2695 2696
2695 2702
2697 2702
2698 2699
2698 2702
2700 2702
2701 2702
2702 2703
2702 2705
2702 2707
2702 2708
2702 2709
2702 2711
2702 2713
2702 2715
2702 2717
2702 2719
2702 2720
2702 2722
2702 2724
2702 2726
2702 2728
2702 2729
2702 2756
2703 2704
2705 2706
2709 2710
2711 2712
2713 2714
2715 2716
2717 2718
2720 2721
2722 2723
2724 2725
2726 2727
2729 2730
2731 2739
2732 2733
2732 2739
2734 2739
2735 2739
2736 2739
2737 2738
2737 2739
2737 2756
2739 2740
2739 2742
2739 2743
2739 2744
2739 2746
2739 2747
2739 2748
2739 2749
2739 2750
2739 2751
2739 2752
2739 2753
2739 2754
2739 2756
2740 2741
2744 2745
2755 2756
2756 2758
2756 2760
2756 2784
2758 2760
2758 2784
2759 2760
2760 2761
2760 2762
2760 2763
2760 2764
2760 2765
2760 2766
2760 2767
2760 2784
2760 2814
2767 2784
2768 2772
2769 2772
2770 2772
2771 2772
2772 2773
2772 2774
2772 2775
2772 2776
2772 2778
2772 2779
2776 2777
2780 2784
2780 2816
2781 2784
2782 2784
2783 2784
2783 2797
2784 2785
2784 2786
2784 2787
2784 2788
2784 2789
2784 2790
2784 2791
2784 2792
2784 2793
2784 2794
2784 2795
2784 2796
2784 2797
2784 2798
2784 2799
2784 2800
2784 2801
2784 2802
2784 2803
2784 2804
2784 2805
2784 2806
2784 2807
2784 2809
2784 2810
2784 2811
2784 2812
2784 2813
2784 2814
2784 2815
2784 2816
2784 2818
2784 2819
2784 2820
2784 2821
2784 2822
2784 2823
2784 2824
2784 2825
2784 2826
2784 2827
2784 2828
2784 2829
2784 2830
2786 2787
2786 2788
2786 2789
2786 2790
2786 2791
2786 2792
2786 2793
2786 2794
2786 2795
2786 2797
2786 2798
2786 2799
2786 2800
2786 2801
2786 2802
2786 2803
2786 2804
2786 2805
2786 2806
2786 2807
2786 2818
2786 2819
2786 2820
2786 2821
2786 2822
2786 2823
2786 2824
2786 2825
2787 2788
2787 2789
2787 2790
2787 2791
2787 2792
2787 2793
2787 2794
2787 2795
2787 2797
2787 2798
2787 2799
2787 2800
2787 2801
2787 2802
2787 2803
2787 2804
2787 2805
2787 2806
2787 2807
2787 2818
2787 2819
2787 2820
2787 2821
2787 2822
2787 2823
2787 2824
2787 2825
2788 2789
2788 2790
2788 2791
2788 2792
2788 2793
2788 2794
2788 2795
2788 2797
2788 2798
2788 2799
2788 2800
2788 2801
2788 2802
2788 2803
2788 2804
2788 2805
2788 2806
2788 2807
2788 2818
2788 2819
2788 2820
2788 2821
2788 2822
2788 2823
2788 2824
2788 2825
2789 2790
2789 2791
2789 2792
2789 2793
2789 2794
2789 2795
2789 2797
2789 2798
2789 2799
2789 2800
2789 2801
2789 2802
2789 2803
2789 2804
2789 2805
2789 2806
2789 2807
2789 2818
2789 2819
2789 2820
2789 2821
2789 2822
2789 2823
2789 2824
2789 2825
2790 2791
2790 2792
2790 2793
2790 2794
2790 2795
2790 2797
2790 2798
2790 2799
2790 2800
2790 2801
2790 2802
2790 2803
2790 2804
2790 2805
2790 2806
2790 2807
2790 2818
2790 2819
2790 2820
2790 2821
2790 2822
2790 2823
2790 2824
2790 2825
2791 2792
2791 2793
2791 2794
2791 2795
2791 2797
2791 2798
2791 2799
2791 2800
2791 2801
2791 2802
2791 2803
2791 2804
2791 2805
2791 2806
2791 2807
2791 2818
2791 2819
2791 2820
2791 2821
2791 2822
2791 2823
2791 2824
2791 2825
2792 2793
2792 2794
2792 2795
2792 2797
2792 2798
2792 2799
2792 2800
2792 2801
2792 2802
2792 2803
2792 2804
2792 2805
2792 2806
2792 2807
2792 2818
2792 2819
2792 2820
2792 2821
2792 2822
2792 2823
2792 2824
2792 2825
2793 2794
2793 2795
2793 2797
2793 2798
2793 2799
2793 2800
2793 2801
2793 2802
2793 2803
2793 2804
2793 2805
2793 2806
2793 2807
2793 2818
2793 2819
2793 2820
2793 2821
2793 2822
2793 2823
2793 2824
2793 2825
2794 2795
2794 2797
2794 2798
2794 2799
2794 2800
2794 2801
2794 2802
2794 2803
2794 2804
2794 2805
2794 2806
2794 2807
2794 2818
2794 2819
2794 2820
2794 2821
2794 2822
2794 2823
2794 2824
2794 2825
2795 2797
2795 2798
2795 2799
2795 2800
2795 2801
2795 2802
2795 2803
2795 2804
2795 2805
2795 2806
2795 2807
2795 2818
2795 2819
2795 2820
2795 2821
2795 2822
2795 2823
2795 2824
2795 2825
2797 2798
2797 2799
2797 2800
2797 2801
2797 2802
2797 2803
2797 2804
2797 2805
2797 2806
2797 2807
2797 2818
2797 2819
2797 2820
2797 2821
2797 2822
2797 2823
2797 2824
2797 2825
2798 2799
2798 2800
2798 2801
2798 2802
2798 2803
2798 2804
2798 2805
2798 2806
2798 2807
2798 2818
2798 2819
2798 2820
2798 2821
2798 2822
2798 2823
2798 2824
2798 2825
2799 2800
2799 2801
2799 2802
2799 2803
2799 2804
2799 2805
2799 2806
2799 2807
2799 2818
2799 2819
2799 2820
2799 2821
2799 2822
2799 2823
2799 2824
2799 2825
2800 2801
2800 2802
2800 2803
2800 2804
2800 2805
2800 2806
2800 2807
2800 2818
2800 2819
2800 2820
2800 2821
2800 2822
2800 2823
2800 2824
2800 2825
2801 2802
2801 2803
2801 2804
2801 2805
2801 2806
2801 2807
2801 2818
2801 2819
2801 2820
2801 2821
2801 2822
2801 2823
2801 2824
2801 2825
2802 2803
2802 2804
2802 2805
2802 2806
2802 2807
2802 2818
2802 2819
2802 2820
2802 2821
2802 2822
2802 2823
2802 2824
2802 2825
2803 2804
2803 2805
2803 2806
2803 2807
2803 2818
2803 2819
2803 2820
2803 2821
2803 2822
2803 2823
2803 2824
2803 2825
2804 2805
2804 2806
2804 2807
2804 2818
2804 2819
2804 2820
2804 2821
2804 2822
2804 2823
2804 2824
2804 2825
2805 2806
2805 2807
2805 2818
2805 2819
2805 2820
2805 2821
2805 2822
2805 2823
2805 2824
2805 2825
2806 2807
2806 2818
2806 2819
2806 2820
2806 2821
2806 2822
2806 2823
2806 2824
2806 2825
2807 2818
2807 2819
2807 2820
2807 2821
2807 2822
2807 2823
2807 2824
2807 2825
2808 2809
2810 2827
2811 2826
2816 2817
2818 2819
2818 2820
2818 2821
2818 2822
2818 2823
2818 2824
2818 2825
2819 2820
2819 2821
2819 2822
2819 2823
2819 2824
2819 2825
2820 2821
2820 2822
2820 2823
2820 2824
2820 2825
2821 2822
2821 2823
2821 2824
2821 2825
2822 2823
2822 2824
2822 2825
2823 2824
2823 2825
2824 2825
2832 2833
2832 2869
2832 2877
2832 2881
2832 2930
2832 2931
2832 2932
2832 2933
2832 2934
2832 2936
2832 2938
2832 2942
2832 2944
2832 2946
2833 2834
2833 2836
2833 2849
2833 2852
2833 2854
2833 2855
2833 2865
2833 2867
2833 2874
2833 2877
2833 2879
2833 2881
2833 2931
2833 2932
2833 2933
2833 2934
2833 2942
2834 2835
2834 2851
2834 2931
2836 2837
2836 2838
2836 2842
2836 2844
2836 2881
2837 2838
2837 2842
2837 2844
2838 2839
2838 2842
2838 2844
2840 2844
2841 2844
2842 2843
2842 2844
2844 2845
2846 2881
2847 2937
2848 2931
2849 2931
2850 2929
2851 2931
2852 2929
2853 2931
2856 2859
2856 2934
2857 2931
2858 2874
2859 2862
2860 2861
2861 2862
2863 2931
2864 2881
2864 2931
2866 2934
2867 2931
2867 2933
2867 2934
2868 2931
2869 2931
2869 2932
2869 2934
2870 2931
2871 2931
2872 2931
2873 2931
2873 2934
2874 2934
2875 2931
2876 2931
2877 2879
2877 2880
2877 2881
2877 2931
2877 2932
2877 2933
2877 2934
2877 2942
2878 2934
2879 2931
2879 2933
2881 2925
2881 2930
2881 2931
2881 2932
2881 2933
2881 2934
2881 2941
2881 2942
2882 2909
2883 2884
2883 2885
2883 2886
2883 2887
2883 2888
2883 2889
2883 2890
2883 2891
2883 2892
2883 2893
2883 2894
2883 2895
2883 2896
2883 2897
2883 2898
2883 2899
2883 2900
2883 2901
2883 2902
2883 2903
2883 2904
2883 2905
2883 2906
2883 2907
2883 2908
2883 2909
2883 2910
2883 2913
2883 2941
2909 2910
2909 2913
2910 2911
2910 2912
2910 2913
2914 2919
2914 2930
2914 2931
2914 2933
2914 2934
2915 2931
2916 2931
2917 2931
2918 2933
2920 2931
2921 2922
2921 2931
2922 2923
2924 2931
2925 2931
2926 2932
2926 2942
2927 2931
2927 2932
2927 2934
2927 2942
2928 2931
2928 2942
2930 2931
2930 2934
2930 2936
2930 2942
2930 2943
2931 2932
2931 2933
2931 2934
2931 2936
2931 2937
2931 2939
2931 2940
2931 2942
2931 2947
2932 2933
2932 2934
2932 2942
2932 2945
2933 2934
2933 2940
2933 2942
2934 2935
2934 2942
2934 2944
2936 2942
2942 2943
2943 2944
